LAMMPS (27 Jun 2024)
OMP_NUM_THREADS environment is not set. Defaulting to 1 thread. (src/comm.cpp:98)
  using 1 OpenMP thread(s) per MPI task
package omp 0
using multi-threaded neighbor list subroutines
# Script to create a shear deformationgiven a data file

units lj
dimension 3
boundary p p p

# Styles of atoms and that stuff
atom_style bond
bond_style zero nocoeff
pair_style hybrid/overlay/omp zero 0.0 lj/cut/omp 1.12 table/omp linear 5000000 threebody/table
newton on

# Varaibles
variable seed3 equal 3124
variable tstep equal 0.001
variable sstep equal 1000

# Variables for the shear deformation
variable shear_rate equal 100e-4
variable max_strain equal 10
variable delta_gamma equal 1e-3
variable zh equal zhi
variable zl equal zlo
variable l equal v_zh-v_zl
variable xy equal xy
variable n_def equal v_max_strain/v_delta_gamma
variable relax_time equal v_delta_gamma/v_shear_rate
variable shear_every equal v_relax_time/v_tstep
variable shear_it equal v_n_def*v_shear_every
variable Nsave equal 1000
read_data data.hydrogel extra/bond/per/atom 4 extra/special/per/atom 5
Reading data file ...
  orthogonal box = (-8 -8 -8) to (8 8 8)
  2 by 2 by 2 MPI processor grid
  reading atoms ...
  1600 atoms
  reading velocities ...
  1600 velocities
  scanning bonds ...
  8 = max bonds/atom
  orthogonal box = (-8 -8 -8) to (8 8 8)
  2 by 2 by 2 MPI processor grid
  reading bonds ...
  1100 bonds
Finding 1-2 1-3 1-4 neighbors ...
  special bond factors lj:    0        0        0       
  special bond factors coul:  0        0        0       
     4 = max # of 1-2 neighbors
     3 = max # of 1-3 neighbors
     3 = max # of 1-4 neighbors
     9 = max # of special neighbors
  special bonds CPU = 0.000 seconds
  read_data CPU = 0.009 seconds

change_box all triclinic
Changing box ...
  triclinic box = (-8 -8 -8) to (8 8 8) with tilt (0 0 0)

# Coefficients
include potential.in
bond_coeff * nocoeff
pair_coeff 1 3 zero
pair_coeff 1 4 zero
pair_coeff 2 3 zero
pair_coeff 2 4 zero
pair_coeff 3 3 zero
pair_coeff 1 1 lj/cut/omp 1.0 1.0 1.12 # i-type j-type pair-style eps sigma cutoff
pair_coeff 2 2 lj/cut/omp 1.0 1.0 1.12 # i-type j-type pair-style eps sigma cutoff
pair_coeff 1 2 lj/cut/omp 1.0 1.0 1.12 # i-type j-type pair-style eps sigma cutoff
pair_modify shift yes
pair_coeff 3 4 table/omp sysFiles/pachTab.table POT 0.6 #0.75
Reading pair table potential file sysFiles/pachTab.table with DATE: 2024-07-08
WARNING: 2 of 5000000 force values in table POT are inconsistent with -dE/dr.
WARNING:  Should only be flagged at inflection points (src/pair_table.cpp:466)
pair_coeff 4 4 table/omp sysFiles/pachTab.table POT 0.6 #0.75
Reading pair table potential file sysFiles/pachTab.table with DATE: 2024-07-08
WARNING: 2 of 5000000 force values in table POT are inconsistent with -dE/dr.
WARNING:  Should only be flagged at inflection points (src/pair_table.cpp:466)
pair_coeff * * threebody/table sysFiles/swapMech.3b NULL NULL PA PB

# Molecules
include molDeform.in
molecule CL sysFiles/molecule.patchy.CL
Read molecule template CL:
# Patchy Cross-Linker
  1 molecules
  0 fragments
  5 atoms with max type 3
  4 bonds with max type 1
  0 angles with max type 0
  0 dihedrals with max type 0
  0 impropers with max type 0
molecule MO sysFiles/molecule.patchy.MO
Read molecule template MO:
# Patchy Monomer
  1 molecules
  0 fragments
  3 atoms with max type 4
  2 bonds with max type 1
  0 angles with max type 0
  0 dihedrals with max type 0
  0 impropers with max type 0

# Create patchy particles
group CrossLinker type 1 3
250 atoms in group CrossLinker
group Monomer type 2 4
1350 atoms in group Monomer
group Patches type 3 4
1100 atoms in group Patches
group CL type 1
50 atoms in group CL
group MO type 2
450 atoms in group MO
group CM type 1 2
500 atoms in group CM
fix pCL CrossLinker rigid/small/omp molecule #langevin 1.0 1.0 100.0 ${seed3}
  create bodies CPU = 0.000 seconds
  50 rigid bodies with 250 atoms
  0.46432713 = max distance from body owner to body atom
fix pMO Monomer rigid/small/omp molecule #langevin 1.0 1.0 100.0 ${seed3}
  create bodies CPU = 0.000 seconds
  450 rigid bodies with 1350 atoms
  0.50042519 = max distance from body owner to body atom

# Neighbor list
neighbor 1.8 bin # extra-distance style
neigh_modify exclude molecule/intra CrossLinker
neigh_modify exclude molecule/intra Monomer

#fix nvtFix all nvt/sllod/omp temp 0.05 0.05 $(100.0*dt) # Tstart Tstop Tdamp
fix langevinFix all langevin 0.05 0.05 10 12345 # ID group-ID langevin Tstart Tstop damp seed
fix BrDy all rigid/nve/omp molecule # Brownian Dynamics: langevin + nve
  500 rigid bodies with 1600 atoms

# Introduce the deformation
fix shear all deform 1 xy erate ${shear_rate} remap x flip yes
fix shear all deform 1 xy erate 0.01 remap x flip yes

thermo ${sstep}
thermo 1000

# Compute global kinetic and potential energy and temperature
compute t all temp
compute ep all pe
compute ek all ke
compute stress all pressure t

# Compute Cluster sizes
compute cluster all aggregate/atom 0.6
compute cc1 all chunk/atom c_cluster compress yes pbc yes
compute size all property/chunk cc1 count

# Compute Voronoi/atom
compute vorCompSimple CM voronoi/atom only_group
compute vorCompHisto CM voronoi/atom only_group edge_histo 30 edge_threshold 0

# DUMPS and FIXES

# Save atom positions
dump dumpID all atom ${Nsave} info/patchyParticles_shear.dumpf
dump dumpID all atom 1000 info/patchyParticles_shear.dumpf
dump_modify dumpID pbc yes # remap atoms via periodic boundary conditions
#dump_modify dumpID delay ${steps}

# Write dump file of voronoi analysis of the last configuration
dump dumpVor CM custom ${shear_it} info/voronoiSimple_shear.dumpf c_vorCompSimple[1] c_vorCompSimple[2]
dump dumpVor CM custom 1000000 info/voronoiSimple_shear.dumpf c_vorCompSimple[1] c_vorCompSimple[2]
dump_modify dumpVor delay ${shear_it}
dump_modify dumpVor delay 1000000

# Write fix file of voronoi histogram: Number of edges on the faces of the Voronoi cells
fix fixvorHisto CM ave/time 1 1 ${shear_it} c_vorCompHisto file info/vorHisto_shear.fixf mode vector
fix fixvorHisto CM ave/time 1 1 1000000 c_vorCompHisto file info/vorHisto_shear.fixf mode vector

# Save global energies and temperature
group Energy empty
0 atoms in group Energy
fix fixEng Energy ave/time 1 1 10 c_t c_ep c_ek file info/energy_shear.fixf

# Save Stress tensor
group Stress empty
0 atoms in group Stress
fix fixStress Stress ave/time 1 1 10 c_stress[*] file info/stress_shear.fixf

# Save the cluster sizes
#fix ID group-ID style Nevery Nrepeat Nfreq lo hi Nbin value1 value2
fix 1 all ave/time 1 1 ${shear_it} c_size file info/sizeCluster_shear.fixf mode vector
fix 1 all ave/time 1 1 1000000 c_size file info/sizeCluster_shear.fixf mode vector

# RUN SIMULATION

timestep ${tstep}
timestep 0.001
run ${shear_it}
run 1000000

CITE-CITE-CITE-CITE-CITE-CITE-CITE-CITE-CITE-CITE-CITE-CITE-CITE

Your simulation uses code contributions which should be cited:

- Type Label Framework: https://doi.org/10.1021/acs.jpcb.3c08419

@Article{Gissinger24,
 author = {Jacob R. Gissinger, Ilia Nikiforov, Yaser Afshar, Brendon Waters, Moon-ki Choi, Daniel S. Karls, Alexander Stukowski, Wonpil Im, Hendrik Heinz, Axel Kohlmeyer, and Ellad B. Tadmor},
 title = {Type Label Framework for Bonded Force Fields in LAMMPS},
 journal = {J. Phys. Chem. B},
 year =    2024,
 volume =  128,
 number =  13,
 pages =   {3282â€“-3297}
}

CITE-CITE-CITE-CITE-CITE-CITE-CITE-CITE-CITE-CITE-CITE-CITE-CITE

WARNING: Using a manybody potential with bonds/angles/dihedrals and special_bond exclusions (src/pair.cpp:242)
Hybrid pair style last /omp style table/omp
Last active /omp style is pair_style table/omp
WARNING: More than one fix rigid command (src/RIGID/fix_rigid_small.cpp:529)
WARNING: More than one fix rigid command (src/RIGID/fix_rigid_small.cpp:529)
WARNING: More than one fix rigid (src/RIGID/fix_rigid.cpp:709)
WARNING: One or more atoms are time integrated more than once (src/modify.cpp:296)
Neighbor list info ...
  update: every = 1 steps, delay = 0 steps, check = yes
  max neighbors/atom: 2000, page size: 100000
  master list distance cutoff = 2.92
  ghost atom cutoff = 2.92
  binsize = 1.46, bins = 11 11 11
  7 neighbor lists, perpetual/occasional/extra = 6 1 0
  (1) pair zero, perpetual, skip from (6)
      attributes: half, newton on, omp
      pair build: skip/omp
      stencil: none
      bin: none
  (2) pair lj/cut/omp, perpetual, skip from (6)
      attributes: half, newton on, omp
      pair build: skip/omp
      stencil: none
      bin: none
  (3) pair table/omp, perpetual, skip from (6)
      attributes: half, newton on, omp, cut 2.4
      pair build: skip/omp
      stencil: none
      bin: none
  (4) pair threebody/table, perpetual, skip from (7)
      attributes: full, newton on, omp, cut 2.4
      pair build: skip/omp
      stencil: none
      bin: none
  (5) compute aggregate/atom, occasional
      attributes: full, newton on, omp
      pair build: full/bin/omp
      stencil: full/bin/3d
      bin: standard
  (6) neighbor class addition, perpetual
      attributes: half, newton on, omp
      pair build: half/bin/newton/tri/omp
      stencil: half/bin/3d/tri
      bin: standard
  (7) neighbor class addition, perpetual
      attributes: full, newton on, omp, cut 2.4
      pair build: full/bin/omp
      stencil: full/bin/3d
      bin: standard
WARNING: Dump dumpVor includes no atom IDs and is not sorted by ID. This may complicate post-processing tasks or visualization (src/dump.cpp:219)
Per MPI rank memory allocation (min/avg/max) = 22.22 | 22.23 | 22.25 Mbytes
   Step          Temp          E_pair         E_mol          TotEng         Press          Volume    
         0   0.27882184    -0.32584358     0             -0.29107799    -0.18783662     4096         
      1000   0.27725346    -0.31256208     0             -0.27799204    -0.28186281     4096         
      2000   0.30063132    -0.32243358     0             -0.28494861     0.021914141    4096         
      3000   0.32700523    -0.31687619     0             -0.27610272     0.055317659    4096         
      4000   0.35526796    -0.31974285     0             -0.27544538     0.010123552    4096         
      5000   0.34709521    -0.30807015     0             -0.26479171     0.050020525    4096         
      6000   0.36174136    -0.31776889     0             -0.27266426    -0.073309082    4096         
      7000   0.37199383    -0.30745392     0             -0.26107094     0.14278681     4096         
      8000   0.39463214    -0.314578       0             -0.2653723      0.14480281     4096         
      9000   0.38542795    -0.31322556     0             -0.26516751    -0.0054136562   4096         
     10000   0.37845782    -0.31455993     0             -0.26737097     0.11765166     4096         
     11000   0.35852798    -0.31320769     0             -0.26850373     0.025184663    4096         
     12000   0.3626081     -0.31329748     0             -0.26808479    -0.035387666    4096         
     13000   0.35224785    -0.30746334     0             -0.26354244     0.09165383     4096         
     14000   0.34069915    -0.31267275     0             -0.27019182     0.023744807    4096         
     15000   0.35447097    -0.31353132     0             -0.26933322     0.12038406     4096         
     16000   0.36045674    -0.311378       0             -0.26643355     0.14730364     4096         
     17000   0.36054423    -0.31232781     0             -0.26737245    -0.031249071    4096         
     18000   0.36897878    -0.31232565     0             -0.26631861     0.012744267    4096         
     19000   0.36147897    -0.31233122     0             -0.26725931     0.0065814971   4096         
     20000   0.36311372    -0.3120924      0             -0.26681665     0.098833337    4096         
     21000   0.34564076    -0.3123139      0             -0.26921682    -0.16247038     4096         
     22000   0.33323586    -0.31254515     0             -0.2709948      0.14662254     4096         
     23000   0.3399572     -0.3134115      0             -0.27102309     0.15326459     4096         
     24000   0.33903308    -0.31286528     0             -0.27059209    -0.054060204    4096         
     25000   0.34317337    -0.31289149     0             -0.27010206    -0.044046301    4096         
     26000   0.35009287    -0.30936312     0             -0.26571092     0.038844775    4096         
     27000   0.37087367    -0.30856063     0             -0.26231732     0.012505325    4096         
     28000   0.36938358    -0.30543707     0             -0.25937955     0.067242699    4096         
     29000   0.37223826    -0.31135239     0             -0.26493893     0.0017898661   4096         
     30000   0.36861654    -0.31112566     0             -0.26516378    -0.10189038     4096         
     31000   0.35290046    -0.3051908      0             -0.26118852    -0.28241692     4096         
     32000   0.35434339    -0.3116618      0             -0.26747961    -0.0046364297   4096         
     33000   0.35831012    -0.31161375     0             -0.26693695    -0.043472009    4096         
     34000   0.35433764    -0.31117441     0             -0.26699293     0.072463538    4096         
     35000   0.35442231    -0.3116371      0             -0.26744506    -0.04494503     4096         
     36000   0.33633816    -0.31083108     0             -0.26889391     0.029806271    4096         
     37000   0.34701943    -0.31174407     0             -0.26847509    -0.031808194    4096         
     38000   0.34675488    -0.31174656     0             -0.26851056    -0.043720766    4096         
     39000   0.35034545    -0.31238157     0             -0.26869787    -0.053400218    4096         
     40000   0.33973187    -0.31104441     0             -0.26868409     0.091624619    4096         
     41000   0.34281283    -0.31166412     0             -0.26891965    -0.20065579     4096         
     42000   0.35228589    -0.31203856     0             -0.26811291    -0.08110125     4096         
     43000   0.34961929    -0.31179389     0             -0.26820074     0.059628065    4096         
     44000   0.34900322    -0.30586403     0             -0.26234769     0.091044329    4096         
     45000   0.33557094    -0.3103942      0             -0.2685527     -0.1229011      4096         
     46000   0.34287561    -0.30300286     0             -0.26025055    -0.18908923     4096         
     47000   0.34488408    -0.30706902     0             -0.26406629    -0.19268656     4096         
     48000   0.34414318    -0.3124138      0             -0.26950345    -0.29270158     4096         
     49000   0.34860635    -0.30815785     0             -0.26469099    -0.29848671     4096         
     50000   0.35977229    -0.31257283     0             -0.26771372     0.030777811    4096         
     51000   1766.754      -0.31129578     0              219.98085      57.391808      4096         
     52000   1446.9748     -0.3072372      0              180.11243      46.774816      4096         
     53000   1184.8816     -0.31208303     0              147.42785      37.671521      4096         
     54000   970.14955     -0.31193154     0              120.65359      30.422586      4096         
     55000   793.94792     -0.31304329     0              98.682338      26.412228      4096         
     56000   649.84198     -0.31269915     0              80.714472      20.731667      4096         
     57000   532.47876     -0.31228637     0              66.081159      16.524215      4096         
     58000   436.21397     -0.31258737     0              54.077843      14.019123      4096         
     59000   357.43331     -0.31164234     0              44.255823      11.587099      4096         
     60000   292.51648     -0.31150665     0              36.161642      9.2825656      4096         
     61000   239.61679     -0.30928403     0              29.567935      7.092407       4096         
     62000   196.65288     -0.31211525     0              24.20804       6.4837971      4096         
     63000   161.40092     -0.31250166     0              19.812175      5.0321747      4096         
     64000   132.20743     -0.30407764     0              16.180537      4.3042861      4096         
     65000   108.46964     -0.31068872     0              13.214119      2.9374152      4096         
     66000   88.982385     -0.31110947     0              10.783882      3.9248269      4096         
     67000   72.987237     -0.31127305     0              8.7893231      3.075001       4096         
     68000   59.783404     -0.30771422     0              7.146529       1.7009807      4096         
     69000   49.028198     -0.30806401     0              5.8051394      1.9140676      4096         
     70000   40.159628     -0.31097737     0              4.6964263      1.408549       4096         
     71000   32.942        -0.29972793     0              3.8077277     -0.12694003     4096         
     72000   26.962266     -0.30030464     0              3.0615529     -0.2004279      4096         
     73000   22.121237     -0.3091198      0              2.4491219      0.079697012    4096         
     74000   18.126308     -0.30884262     0              1.9512815      1.7888692      4096         
     75000   14.974114     -0.30934276     0              1.5577421     -0.7105499      4096         
     76000   12.449371     -0.30998097     0              1.2423         1.3531759      4096         
     77000   10.256277     -0.30997788     0              0.96885171     0.32814695     4096         
     78000   8.4068501     -0.29758221     0              0.75064691     0.098480965    4096         
     79000   6.8985486     -0.29848969     0              0.56167309    -0.59545577     4096         
     80000   5.7288526     -0.31000046     0              0.40431585    -0.40414285     4096         
     81000   4.7389195     -0.31012702     0              0.280757      -0.081950119    4096         
     82000   3.9212849     -0.31021164     0              0.17872357     0.19715206     4096         
     83000   3.292183      -0.30942144     0              0.10107263     0.42117204     4096         
     84000   2.7494071     -0.31054658     0              0.032270118    0.63417103     4096         
     85000   2.3061631     -0.31064746     0             -0.023097739   -0.86051649     4096         
     86000   1.9210163     -0.31074174     0             -0.07121503    -0.60170844     4096         
     87000   1.6374458     -0.30970974     0             -0.10554072     0.27401342     4096         
     88000   1.415481      -0.31100231     0             -0.13450953    -1.3314417      4096         
     89000   1.2259892     -0.30549258     0             -0.15262705     1.0640931      4096         
     90000   1.0449051     -0.30492339     0             -0.17463679    -0.66937521     4096         
     91000   0.93692044    -0.31186423     0             -0.19504196    -1.0209608      4096         
     92000   0.80619968    -0.31058181     0             -0.21005879    -0.60185491     4096         
     93000   0.73144899    -0.31097674     0             -0.21977419     0.31363594     4096         
     94000   0.65603153    -0.31109619     0             -0.22929725     0.44020655     4096         
     95000   0.60123844    -0.29765069     0             -0.22268377    -0.13978808     4096         
     96000   0.55324411    -0.30486893     0             -0.2358863     -0.054515855    4096         
     97000   0.50306579    -0.30924787     0             -0.24652185    -1.1114176      4096         
     98000   0.46711624    -0.30884841     0             -0.25060486    -1.1615745      4096         
     99000   0.45160237    -0.31003513     0             -0.25372596    -0.55324345     4096         
    100000   0.42542146    -0.30967886     0             -0.25663412    -0.52507048     4096         
    101000   0.40674742    -0.30955556     0             -0.25883924     0.42904474     4096         
    102000   0.4074577     -0.30826326     0             -0.25745838    -0.62882208     4096         
    103000   0.40396614    -0.30396593     0             -0.2535964      0.8068951      4096         
    104000   0.41242029    -0.30911422     0             -0.25769056    -0.21184615     4096         
    105000   0.40956271    -0.30912854     0             -0.25806119    -0.0054160445   4096         
    106000   0.40583905    -0.31014605     0             -0.25954299     0.20895862     4096         
    107000   0.38530218    -0.3097531      0             -0.26171074    -0.033843697    4096         
    108000   0.37931295    -0.31029253     0             -0.26299694    -0.80134058     4096         
    109000   0.37771761    -0.31019505     0             -0.26309839     0.93556384     4096         
    110000   0.36967338    -0.30962722     0             -0.26353357    -0.45555181     4096         
    111000   0.3705514     -0.31028598     0             -0.26408286    -0.79218999     4096         
    112000   0.37899072    -0.31061746     0             -0.26336206    -0.15288763     4096         
    113000   0.36685802    -0.31039898     0             -0.26465637    -0.73946497     4096         
    114000   0.35438018    -0.31034908     0             -0.2661623     -0.8593383      4096         
    115000   0.34947149    -0.31058658     0             -0.26701185     0.77228402     4096         
    116000   0.34902991    -0.31083209     0             -0.26731242    -0.9425         4096         
    117000   0.35111481    -0.31047921     0             -0.26669958     0.3003079      4096         
    118000   0.35614252    -0.30994645     0             -0.26553993     0.76713147     4096         
    119000   0.35544986    -0.30984888     0             -0.26552873     0.66884033     4096         
    120000   0.37284988    -0.30287023     0             -0.25638051     0.023284664    4096         
    121000   0.36922174    -0.30873578     0             -0.26269844     1.0136282      4096         
    122000   0.3704791     -0.31028997     0             -0.26409586     0.32908435     4096         
    123000   0.36946247    -0.31025355     0             -0.2641862      0.4089922      4096         
    124000   0.3572388     -0.30770709     0             -0.26316388     0.94117271     4096         
    125000   0.35092534    -0.29949489     0             -0.25573889    -0.85965268     4096         
    126000   0.35008584    -0.31096604     0             -0.26731471    -1.0192657      4096         
    127000   0.34357191    -0.31127127     0             -0.26843215    -0.3532136      4096         
    128000   0.34035506    -0.31120367     0             -0.26876565    -0.64502491     4096         
    129000   0.34210671    -0.31143036     0             -0.26877393     0.8115825      4096         
    130000   0.33042054    -0.30951539     0             -0.26831607     0.24986834     4096         
    131000   0.33942819    -0.31260988     0             -0.27028742    -0.89166302     4096         
    132000   0.33637743    -0.31189748     0             -0.26995541    -0.66031499     4096         
    133000   0.33278389    -0.31005916     0             -0.26856517    -1.0085537      4096         
    134000   0.33469024    -0.31153849     0             -0.2698068     -0.044413028    4096         
    135000   0.33408592    -0.311698       0             -0.27004167    -0.42351084     4096         
    136000   0.33388164    -0.31104877     0             -0.2694179      0.09061794     4096         
    137000   0.32256138    -0.31095463     0             -0.27073526    -0.36573885     4096         
    138000   0.32938049    -0.31184784     0             -0.27077821    -0.077559201    4096         
    139000   0.33737568    -0.3110148      0             -0.26894827     0.32172065     4096         
    140000   0.33387952    -0.31138795     0             -0.26975735    -0.30899263     4096         
    141000   0.33124384    -0.31126405     0             -0.26996208     0.057378711    4096         
    142000   0.32786975    -0.31191511     0             -0.27103385    -2.5398657      4096         
    143000   0.33099601    -0.31334941     0             -0.27207835     0.05452541     4096         
    144000   0.31930677    -0.31147997     0             -0.27166641     0.27384408     4096         
    145000   0.33323159    -0.31290326     0             -0.27135345    -0.67143577     4096         
    146000   0.34151029    -0.31296247     0             -0.27038041     0.32307731     4096         
    147000   0.33729467    -0.31138696     0             -0.26933053     0.53440414     4096         
    148000   0.35132179    -0.31055244     0             -0.266747       1.0149546      4096         
    149000   0.35714362    -0.31154285     0             -0.2670115     -0.17174738     4096         
    150000   0.34928703    -0.31075255     0             -0.26720082    -0.29314643     4096         
    151000   1298.3122     -0.31047678     0              161.57283      42.237963      4096         
    152000   1062.5379     -0.31075298     0              132.17444      31.602208      4096         
    153000   870.23929     -0.30643912     0              108.20152      28.085357      4096         
    154000   713.12162     -0.30895075     0              88.608401      23.397189      4096         
    155000   583.96964     -0.31039403     0              72.50332       17.933766      4096         
    156000   478.56822     -0.31114155     0              59.360333      14.535961      4096         
    157000   392.27803     -0.31145741     0              48.600709      14.241175      4096         
    158000   321.18653     -0.31195043     0              39.735995      10.688604      4096         
    159000   262.9974      -0.3104593      0              32.482029      6.8494678      4096         
    160000   215.30583     -0.30737654     0              26.538569      5.5791562      4096         
    161000   176.47633     -0.31024236     0              21.694151      5.7357804      4096         
    162000   144.59425     -0.3095641      0              17.719532      3.7736158      4096         
    163000   118.50678     -0.29793596     0              14.478378      1.8682572      4096         
    164000   97.035824     -0.31061437     0              11.78854       3.0143331      4096         
    165000   79.470445     -0.30960889     0              9.5993622      2.0112884      4096         
    166000   64.994534     -0.30753198     0              7.796474       2.6275849      4096         
    167000   53.182173     -0.30847093     0              6.3226813      4.1509745      4096         
    168000   43.489628     -0.30994239     0              5.1126706     -0.37473907     4096         
    169000   35.694684     -0.31028694     0              4.140394      -0.60928917     4096         
    170000   29.326146     -0.30976049     0              3.3468433      2.6190112      4096         
    171000   24.060292     -0.31039502     0              2.6896226      3.1627697      4096         
    172000   19.679975     -0.3099447      0              2.1439022      3.8758184      4096         
    173000   16.1859       -0.30990674     0              1.7082727      0.34717284     4096         
    174000   13.256506     -0.30956264     0              1.343358       2.8902273      4096         
    175000   10.924831     -0.3091921      0              1.0529977     -2.1030981      4096         
    176000   9.0481614     -0.30930211     0              0.81889052     1.0442506      4096         
    177000   7.523382      -0.3091162      0              0.6289555      1.9449094      4096         
    178000   6.2632114     -0.3026473      0              0.47829687    -1.8250928      4096         
    179000   5.2140435     -0.30989773     0              0.34022832    -2.0131882      4096         
    180000   4.3374133     -0.30787995     0              0.23294127     0.37262864     4096         
    181000   3.6036253     -0.30260761     0              0.14671941    -0.82145907     4096         
    182000   3.0158363     -0.30731067     0              0.068726417    0.052105945    4096         
    183000   2.554271      -0.30652975     0              0.011955922    0.7893097      4096         
    184000   2.1625739     -0.30795362     0             -0.038307686    0.52504471     4096         
    185000   1.8221701     -0.30782244     0             -0.080620604   -2.861582       4096         
    186000   1.5712475     -0.30827278     0             -0.11235786    -0.91892025     4096         
    187000   1.337249      -0.30796344     0             -0.14122521    -2.2898115      4096         
    188000   1.174154      -0.30860214     0             -0.16219982     1.304559       4096         
    189000   1.0192069     -0.30312384     0             -0.17604148     1.6033588      4096         
    190000   0.89515541    -0.30891555     0             -0.19730086    -3.053471       4096         
    191000   0.79749448    -0.30914123     0             -0.20970363    -2.2634375      4096         
    192000   0.72934417    -0.30188494     0             -0.21094484    -0.4246723      4096         
    193000   0.65401929    -0.30926801     0             -0.22771998     1.2675836      4096         
    194000   0.63021594    -0.31022548     0             -0.23164543    -1.9519628      4096         
    195000   0.57218946    -0.30893089     0             -0.23758602    -0.69291935     4096         
    196000   0.53131632    -0.31039306     0             -0.24414456     0.90994298     4096         
    197000   0.4886917     -0.30909107     0             -0.24815733     1.7975006      4096         
    198000   0.47206243    -0.29750443     0             -0.23864415    -0.13341123     4096         
    199000   0.46223454    -0.30801927     0             -0.2503844      1.2140527      4096         
    200000   0.4400411     -0.3086977      0             -0.25383008     1.0290204      4096         
    201000   0.41853684    -0.30847493     0             -0.25628861     1.7071848      4096         
    202000   0.39448938    -0.30774709     0             -0.25855919    -1.8236524      4096         
    203000   0.38455387    -0.308366       0             -0.26041694    -1.1276988      4096         
    204000   0.37555199    -0.30871692     0             -0.26189028     0.47694728     4096         
    205000   0.36882503    -0.30907845     0             -0.26309058     0.48603166     4096         
    206000   0.36714008    -0.30899209     0             -0.26321431     1.6555455      4096         
    207000   0.36923131    -0.30914629     0             -0.26310776    -0.069400891    4096         
    208000   0.36728048    -0.30870415     0             -0.26290886     0.8738352      4096         
    209000   0.35433832    -0.30816338     0             -0.26398182    -0.21843376     4096         
    210000   0.36578644    -0.30807671     0             -0.26246771    -0.98968047     4096         
    211000   0.37117728    -0.3082175      0             -0.26193634    -1.9304198      4096         
    212000   0.35306984    -0.30720691     0             -0.26318351     1.050546       4096         
    213000   0.34344085    -0.30776006     0             -0.26493728     0.12320482     4096         
    214000   0.33718176    -0.30763083     0             -0.26558848    -0.69962932     4096         
    215000   0.34051935    -0.30750893     0             -0.26505042    -1.1616656      4096         
    216000   0.35035799    -0.30800979     0             -0.26432453    -1.1955169      4096         
    217000   0.35205198    -0.30734883     0             -0.26345235    -0.54430518     4096         
    218000   0.38683831    -0.3015934      0             -0.2533595     -1.0474786      4096         
    219000   0.39432205    -0.30622252     0             -0.25705549     0.07520572     4096         
    220000   0.38807801    -0.30478067     0             -0.25639219    -1.4952758      4096         
    221000   0.396205      -0.30498833     0             -0.25558652    -3.1003988      4096         
    222000   0.42566619    -0.30497995     0             -0.25190469     0.45646785     4096         
    223000   0.40734596    -0.30443407     0             -0.25364312     0.58348198     4096         
    224000   0.41545913    -0.30748176     0             -0.2556792      0.58647645     4096         
    225000   0.38948999    -0.29920018     0             -0.25063564    -2.0168742      4096         
    226000   0.41824069    -0.29761499     0             -0.2454656     -0.45081076     4096         
    227000   0.41051108    -0.29851755     0             -0.24733195    -0.043300982    4096         
    228000   0.39952074    -0.30357217     0             -0.25375693    -1.9876508      4096         
    229000   0.39613006    -0.29690829     0             -0.24751582     0.41903431     4096         
    230000   0.39657267    -0.30488862     0             -0.25544097     0.40859777     4096         
    231000   0.40685123    -0.29941029     0             -0.24868102     0.4003633      4096         
    232000   0.40161531    -0.30473816     0             -0.25466175    -1.1045912      4096         
    233000   0.39392602    -0.29926926     0             -0.25015161     0.322659       4096         
    234000   0.38723777    -0.3061431      0             -0.25785939    -2.6322897      4096         
    235000   0.38815075    -0.30572009     0             -0.25732254     0.94704357     4096         
    236000   0.37985664    -0.30593538     0             -0.258572      -1.213456       4096         
    237000   0.39192796    -0.30634069     0             -0.25747217    -0.33035168     4096         
    238000   0.40510104    -0.30519972     0             -0.25468869     1.8089073      4096         
    239000   0.39441192    -0.29900141     0             -0.24982317     0.81267443     4096         
    240000   0.38085669    -0.30712128     0             -0.25963321    -0.6172272      4096         
    241000   0.38142255    -0.30065269     0             -0.25309406     1.2763299      4096         
    242000   0.37368866    -0.30667504     0             -0.26008073    -0.76856245     4096         
    243000   0.36051681    -0.2992931      0             -0.25434116     1.0021903      4096         
    244000   0.37110168    -0.30161206     0             -0.25534032     2.4521323      4096         
    245000   0.36721185    -0.29977032     0             -0.2539836     -1.2471154      4096         
    246000   0.37438661    -0.30616898     0             -0.25948765    -2.9727554      4096         
    247000   0.37343646    -0.29977124     0             -0.25320838    -1.1065706      4096         
    248000   0.38809166    -0.3090279      0             -0.26063772    -1.5191505      4096         
    249000   0.36568118    -0.30622784     0             -0.26063197     0.57896844     4096         
    250000   0.37741649    -0.29599652     0             -0.24893741    -2.8312861      4096         
    251000   937.02912     -0.30623004     0              116.52959      33.429176      4096         
    252000   767.42644     -0.30712557     0              95.381359      24.263503      4096         
    253000   628.51865     -0.30720788     0              78.061211      20.241796      4096         
    254000   514.75942     -0.30590454     0              63.878161      15.14154       4096         
    255000   421.70437     -0.30670377     0              52.27456       15.220617      4096         
    256000   345.39092     -0.30143895     0              42.764491      10.917207      4096         
    257000   282.80135     -0.30674471     0              34.955048      4.8996516      4096         
    258000   231.39812     -0.30404113     0              28.548412      7.4192058      4096         
    259000   189.48261     -0.30809554     0              23.318018      4.9775796      4096         
    260000   155.18408     -0.29228148     0              19.057234      3.3270658      4096         
    261000   127.17667     -0.3072405      0              15.5501        0.98992408     4096         
    262000   104.24971     -0.30755464     0              12.691081      3.007915       4096         
    263000   85.252359     -0.30707826     0              10.322825      1.9411938      4096         
    264000   69.787866     -0.30695283     0              8.3947217      1.5560026      4096         
    265000   57.276277     -0.30701206     0              6.8346238      3.9273835      4096         
    266000   47.114794     -0.30776225     0              5.5668636      2.4091645      4096         
    267000   38.567591     -0.30788398     0              4.5010125      0.65395719     4096         
    268000   31.694891     -0.30582925     0              3.6461274      2.4210927      4096         
    269000   26.029194     -0.30730451     0              2.9382106      1.8865935      4096         
    270000   21.277305     -0.30873092     0              2.3442831     -0.60126429     4096         
    271000   17.423006     -0.30714223     0              1.8652888      1.7848236      4096         
    272000   14.256245     -0.30776959     0              1.469806       5.1844572      4096         
    273000   11.771127     -0.29658169     0              1.1711308     -1.2252725      4096         
    274000   9.6874183     -0.30066375     0              0.90723622     0.44944927     4096         
    275000   8.0260087     -0.30724224     0              0.69350072     2.0238348      4096         
    276000   6.6268561     -0.30752646     0              0.51875966    -0.1489773      4096         
    277000   5.5034529     -0.30768172     0              0.37853006     0.83697536     4096         
    278000   4.5229704     -0.30756035     0              0.25639753     0.78181647     4096         
    279000   3.7699878     -0.30740916     0              0.1626612     -1.4629589      4096         
    280000   3.186002      -0.30064989     0              0.096604733   -0.62977001     4096         
    281000   2.6753806     -0.30666242     0              0.026924096   -0.041164201    4096         
    282000   2.2768225     -0.30693699     0             -0.023045691    0.29839323     4096         
    283000   1.9205514     -0.30761854     0             -0.068149788   -1.256098       4096         
    284000   1.627384      -0.3063944      0             -0.10347995     1.4943926      4096         
    285000   1.3903046     -0.30202675     0             -0.12867314    -0.86557819     4096         
    286000   1.2406134     -0.3067773      0             -0.15208832     0.084420751    4096         
    287000   1.0680622     -0.29332753     0             -0.16015352     1.234562       4096         
    288000   0.94404482    -0.30495503     0             -0.18724444     1.2452796      4096         
    289000   0.85505624    -0.30611701     0             -0.19950218     1.2005091      4096         
    290000   0.76085485    -0.30588291     0             -0.21101382    -0.61998889     4096         
    291000   0.68250128    -0.30550546     0             -0.22040608    -0.26435687     4096         
    292000   0.61947277    -0.30649095     0             -0.22925044    -1.092865       4096         
    293000   0.5714598     -0.29999756     0             -0.22874367    -0.84125246     4096         
    294000   0.5448524     -0.30766572     0             -0.23972944     0.64793468     4096         
    295000   0.49245991    -0.29426897     0             -0.23286538    -2.0033928      4096         
    296000   0.46027548    -0.30723621     0             -0.24984561     1.2741925      4096         
    297000   0.46665707    -0.307161       0             -0.2489747      0.79590691     4096         
    298000   0.43705413    -0.30651491     0             -0.25201972    -2.6076086      4096         
    299000   0.42623536    -0.30803876     0             -0.25489254     2.7741352      4096         
    300000   0.41084021    -0.30691865     0             -0.25569201     0.34359864     4096         
    301000   0.397869      -0.30806267     0             -0.25845338    -2.4928451      4096         
    302000   0.38956004    -0.30829513     0             -0.25972186    -1.3258253      4096         
    303000   0.39681792    -0.30278194     0             -0.2533037     -0.5479739      4096         
    304000   0.38887537    -0.3089635      0             -0.2604756      3.3109411      4096         
    305000   0.38340487    -0.30679721     0             -0.25899141     1.8349391      4096         
    306000   0.37947694    -0.30606381     0             -0.25874777     1.0670033      4096         
    307000   0.37641112    -0.30189267     0             -0.2549589     -1.4996265      4096         
    308000   0.36785288    -0.30737523     0             -0.26150857    -2.9272325      4096         
    309000   0.37646169    -0.30874531     0             -0.26180525    -0.42466218     4096         
    310000   0.36636051    -0.29868309     0             -0.25300251     1.6175918      4096         
    311000   0.36921136    -0.3083215      0             -0.26228546    -0.57121427     4096         
    312000   0.36783372    -0.30823946     0             -0.2623752      2.3873132      4096         
    313000   0.37161572    -0.30385078     0             -0.25751495    -1.6112921      4096         
    314000   0.37782413    -0.30736723     0             -0.26025729     1.1659605      4096         
    315000   0.35634224    -0.3062816      0             -0.26185018     1.7374459      4096         
    316000   0.36702387    -0.307021       0             -0.26125771     1.5464386      4096         
    317000   0.36361493    -0.30762444     0             -0.2622862     -1.1521888      4096         
    318000   0.36128809    -0.29601793     0             -0.25096982    -2.4253812      4096         
    319000   0.37911003    -0.30730431     0             -0.26003402     1.1578627      4096         
    320000   0.37161866    -0.30716913     0             -0.26083293     1.5419636      4096         
    321000   0.38465673    -0.30188901     0             -0.25392712     2.9776352      4096         
    322000   0.36598001    -0.30716123     0             -0.2615281      0.2199116      4096         
    323000   0.36666211    -0.30648334     0             -0.26076516    -1.2905789      4096         
    324000   0.3480454     -0.30807767     0             -0.26468076    -1.4449679      4096         
    325000   0.34236955    -0.30775503     0             -0.26506582    -0.23204109     4096         
    326000   0.34703576    -0.30898904     0             -0.26571802    -0.84409299     4096         
    327000   0.34779462    -0.30768602     0             -0.26432037     0.62657545     4096         
    328000   0.38051081    -0.28763064     0             -0.2401857      5.335215       4096         
    329000   0.38911523    -0.30573799     0             -0.25722019    -2.5710653      4096         
    330000   0.38850839    -0.29881542     0             -0.25037328     2.1333443      4096         
    331000   0.37853126    -0.30523119     0             -0.25803307     1.8145595      4096         
    332000   0.37092761    -0.30493163     0             -0.25868159     0.07044175     4096         
    333000   0.36467761    -0.30553411     0             -0.26006337    -1.7679436      4096         
    334000   0.36226713    -0.3061908      0             -0.26102061     0.049590097    4096         
    335000   0.34493341    -0.30546701     0             -0.26245813     1.0620851      4096         
    336000   0.35131619    -0.30633741     0             -0.26253267     1.0792823      4096         
    337000   0.36755149    -0.30569768     0             -0.2598686     -2.1786703      4096         
    338000   0.35803488    -0.30452539     0             -0.25988291    -2.209906       4096         
    339000   0.36361181    -0.30576905     0             -0.2604312     -3.1283775      4096         
    340000   0.36463084    -0.30525486     0             -0.25978995     2.465018       4096         
    341000   0.37544417    -0.3069038      0             -0.26009061     2.2909573      4096         
    342000   0.37752839    -0.30620374     0             -0.25913067    -1.6688025      4096         
    343000   0.36690561    -0.30514819     0             -0.25939965    -4.0877596      4096         
    344000   0.37374749    -0.30613751     0             -0.25953587     0.31970464     4096         
    345000   0.37523284    -0.30440546     0             -0.25761862     2.3896083      4096         
    346000   0.37078095    -0.30037387     0             -0.25414212     0.96397538     4096         
    347000   0.36914185    -0.30481701     0             -0.25878963     0.46153098     4096         
    348000   0.35628551    -0.30503562     0             -0.26061127    -2.7436041      4096         
    349000   0.36148216    -0.3049922      0             -0.25991989     1.4845396      4096         
    350000   0.35712748    -0.30578405     0             -0.26125471    -2.8980121      4096         
    351000   2762.8535     -0.30401856     0              344.18927      93.19733       4096         
    352000   2261.5937     -0.30551726     0              281.68695      75.807799      4096         
    353000   1851.8371     -0.30574825     0              230.5952       58.794462      4096         
    354000   1516.4535     -0.30283047     0              188.77997      50.29737       4096         
    355000   1241.8077     -0.30070144     0              154.5372       36.519522      4096         
    356000   1016.8371     -0.3049617      0              126.48192      28.242683      4096         
    357000   832.90621     -0.3046183      0              103.54837      28.881253      4096         
    358000   681.69491     -0.29691494     0              84.701919      17.123778      4096         
    359000   558.2922      -0.30275833     0              69.3093        14.435889      4096         
    360000   457.20164     -0.30179901     0              56.705531      16.536675      4096         
    361000   374.22558     -0.30290333     0              46.358348      13.596314      4096         
    362000   306.26675     -0.29649481     0              37.891141      6.1986664      4096         
    363000   250.77375     -0.30198777     0              30.966364      9.3364142      4096         
    364000   205.43466     -0.30151295     0              25.313622      8.6676379      4096         
    365000   168.07872     -0.30177741     0              20.655538      6.6526143      4096         
    366000   137.70145     -0.30203746     0              16.867612      5.5630677      4096         
    367000   112.71064     -0.30203408     0              13.751574      1.1787093      4096         
    368000   92.561968     -0.30353108     0              11.237789     -3.0296399      4096         
    369000   75.917899     -0.30207421     0              9.1639388      1.2459868      4096         
    370000   62.181953     -0.30263858     0              7.4506737      3.0317137      4096         
    371000   50.952536     -0.30274309     0              6.0504012      4.620347       4096         
    372000   41.78109      -0.30260197     0              4.9069777      1.2019363      4096         
    373000   34.225717     -0.30190307     0              3.965616      -3.3232858      4096         
    374000   28.118927     -0.30085754     0              3.2052211      1.4449228      4096         
    375000   23.068526     -0.29742848     0              2.5789284     -0.49532119     4096         
    376000   18.984758     -0.30181019     0              2.0653518     -2.3267432      4096         
    377000   15.551119     -0.30205622     0              1.6369739     -0.15812952     4096         
    378000   12.762075     -0.30201414     0              1.2892571      3.3939484      4096         
    379000   10.53116      -0.28408052     0              1.0290235      2.1323712      4096         
    380000   8.6537756     -0.30192537     0              0.77709228    -1.2057056      4096         
    381000   7.1722275     -0.30193312     0              0.59235399     3.326276       4096         
    382000   5.923563      -0.30127536     0              0.4373189      2.8565555      4096         
    383000   4.9291878     -0.29683779     0              0.31777031    -1.4159717      4096         
    384000   4.1459271     -0.30219174     0              0.21475354     2.0297257      4096         
    385000   3.4557051     -0.29850306     0              0.13238017     1.8620079      4096         
    386000   2.8743393     -0.30180424     0              0.056589938   -1.6450995      4096         
    387000   2.4119018     -0.30270396     0             -0.0019699574  -1.6634294      4096         
    388000   2.0093938     -0.30232839     0             -0.051782096    4.6534755      4096         
    389000   1.7301477     -0.29883575     0             -0.083107952   -1.7700005      4096         
    390000   1.4907851     -0.29568859     0             -0.10980633     2.074811       4096         
    391000   1.2946614     -0.30128875     0             -0.13986066    -3.5939732      4096         
    392000   1.1182643     -0.30261492     0             -0.16318135     2.3082174      4096         
    393000   0.96801924    -0.30235736     0             -0.18165746    -0.91271127     4096         
    394000   0.87316377    -0.29721907     0             -0.18834646    -2.3308572      4096         
    395000   0.77198268    -0.30265849     0             -0.2064019     -3.4530159      4096         
    396000   0.7103458     -0.30191188     0             -0.21334064     1.7126823      4096         
    397000   0.67702323    -0.30224226     0             -0.21782593     1.9857381      4096         
    398000   0.61743288    -0.30001753     0             -0.22303137    -0.69559611     4096         
    399000   0.57443862    -0.28764113     0             -0.21601581    -1.1974526      4096         
    400000   0.53201993    -0.29614892     0             -0.22981268     0.94556046     4096         
    401000   0.48953214    -0.30030962     0             -0.23927108     3.5269792      4096         
    402000   0.45710592    -0.2937756      0             -0.2367802     -0.019699683    4096         
    403000   0.45209045    -0.30066285     0             -0.24429283    -0.040271508    4096         
    404000   0.43168526    -0.3010917      0             -0.24726595     3.397948       4096         
    405000   0.40049545    -0.29982374     0             -0.24988697     2.2555084      4096         
    406000   0.39422595    -0.29964958     0             -0.25049453     3.024951       4096         
    407000   0.38796279    -0.30129789     0             -0.25292377    -5.1520382      4096         
    408000   0.38999178    -0.30122648     0             -0.25259938    -1.7945946      4096         
    409000   0.39156379    -0.30150249     0             -0.25267938     0.074973435    4096         
    410000   0.37077878    -0.30087752     0             -0.25464604     0.25996213     4096         
    411000   0.40171777    -0.30058635     0             -0.25049717    -1.476985       4096         
    412000   0.38592911    -0.30011096     0             -0.25199043     1.1009474      4096         
    413000   0.37672452    -0.29988862     0             -0.25291578     8.2356694      4096         
    414000   0.37688478    -0.30117886     0             -0.25418604     0.062256157    4096         
    415000   0.35745441    -0.30003489     0             -0.2554648     -5.2878444      4096         
    416000   0.3634895     -0.29507307     0             -0.24975048     5.9922925      4096         
    417000   0.35432901    -0.29970561     0             -0.25552522    -2.2432414      4096         
    418000   0.37123788    -0.30123186     0             -0.25494313    -2.8865793      4096         
    419000   0.35851394    -0.30059947     0             -0.25589726     2.7709167      4096         
    420000   0.36205737    -0.30069952     0             -0.25555549     5.31489        4096         
    421000   0.35254154    -0.29981944     0             -0.25586192    -1.8682429      4096         
    422000   0.36354822    -0.30109405     0             -0.25576413    -1.6159122      4096         
    423000   0.35014391    -0.29936878     0             -0.25571022    -1.404019       4096         
    424000   0.34880725    -0.2939517      0             -0.25045979    -2.8027942      4096         
    425000   0.35298221    -0.29962692     0             -0.25561445    -1.3095739      4096         
    426000   0.34387084    -0.29901008     0             -0.25613368     1.2691719      4096         
    427000   0.3486041     -0.29952691     0             -0.25606034    -4.9612272      4096         
    428000   0.36389843    -0.29949718     0             -0.25412359    -7.7066774      4096         
    429000   0.37107351    -0.29917943     0             -0.2529112     -2.1205938      4096         
    430000   0.38313664    -0.2870096      0             -0.23923725    -0.18936975     4096         
    431000   0.39666671    -0.297276       0             -0.24781661    -3.3738147      4096         
    432000   0.37950769    -0.2965299      0             -0.24921004     2.0080504      4096         
    433000   0.39218544    -0.29832231     0             -0.24942169    -2.1074565      4096         
    434000   0.38195728    -0.28310261     0             -0.23547731    -4.0394553      4096         
    435000   0.37885016    -0.29683783     0             -0.24959995    -2.9697463      4096         
    436000   0.38668854    -0.29780211     0             -0.24958688     2.178238       4096         
    437000   0.38692794    -0.29885615     0             -0.25061107     5.5996043      4096         
    438000   0.3938367     -0.29719412     0             -0.24808761    -3.5155938      4096         
    439000   0.40890366    -0.29184368     0             -0.24085851    -1.2589881      4096         
    440000   0.39582061    -0.29821429     0             -0.2488604     -4.4433415      4096         
    441000   0.3772596     -0.29638396     0             -0.2493444     -2.1638203      4096         
    442000   0.38208442    -0.29786288     0             -0.25022173     2.5516504      4096         
    443000   0.37514133    -0.2980141      0             -0.25123867    -6.0056898      4096         
    444000   0.36157099    -0.29735965     0             -0.25227626     1.4031097      4096         
    445000   0.36045268    -0.29890604     0             -0.25396209     0.4134439      4096         
    446000   0.35969738    -0.29978739     0             -0.25493763    -0.61893533     4096         
    447000   0.37030396    -0.297071       0             -0.25089873    -1.7621682      4096         
    448000   0.39168604    -0.29914589     0             -0.25030754    -1.1755717      4096         
    449000   0.37727253    -0.29909948     0             -0.25205831    -4.1810323      4096         
    450000   0.378136      -0.29867626     0             -0.25152743    -2.8951987      4096         
    451000   2088.0735     -0.29964832     0              260.05701      64.734633      4096         
    452000   1710.7923     -0.29540859     0              213.019        53.807202      4096         
    453000   1400.361      -0.30095261     0              174.30656      50.13507       4096         
    454000   1146.6514     -0.30047032     0              142.67263      36.150952      4096         
    455000   939.21441     -0.30031149     0              116.80799      29.378611      4096         
    456000   768.97388     -0.29515625     0              95.586274      19.755375      4096         
    457000   629.40983     -0.29841413     0              78.181124      23.984176      4096         
    458000   514.84318     -0.28581195     0              63.908697      18.105007      4096         
    459000   421.77769     -0.2986256      0              52.29178       15.070284      4096         
    460000   345.4454      -0.29990589     0              42.772817      16.89032       4096         
    461000   283.07472     -0.29904573     0              34.996833      7.0261087      4096         
    462000   231.91462     -0.29377429     0              28.62308       8.8181384      4096         
    463000   190.01963     -0.299837       0              23.393236      4.1333011      4096         
    464000   155.60517     -0.29955177     0              19.102467      4.2764553      4096         
    465000   127.43381     -0.29919364     0              15.590209      0.21917378     4096         
    466000   103.96899     -0.2992593      0              12.664374      0.23464156     4096         
    467000   84.955013     -0.30004674     0              10.292781      2.6763503      4096         
    468000   69.683798     -0.29887814     0              8.3898204      3.4698273      4096         
    469000   57.156401     -0.29237891     0              6.8343098      3.7056145      4096         
    470000   46.884878     -0.29853319     0              5.5474251      2.1516447      4096         
    471000   38.519655     -0.29832903     0              4.5045904      4.7184586      4096         
    472000   31.705444     -0.29856558     0              3.654707      -1.206437       4096         
    473000   25.996547     -0.29731465     0              2.9441298      3.7006497      4096         
    474000   21.468243     -0.29629649     0              2.3805251     -2.5662653      4096         
    475000   17.580261     -0.29755051     0              1.8944883     -0.03869584     4096         
    476000   14.499769     -0.29048061     0              1.5174594      0.087365915    4096         
    477000   11.95055      -0.29544891     0              1.1946353     -3.0719492      4096         
    478000   9.8912866     -0.29790684     0              0.93541296    -0.44645911     4096         
    479000   8.1395889     -0.29771326     0              0.71719172    -7.3074277      4096         
    480000   6.7331694     -0.29776036     0              0.5417817     -3.8708373      4096         
    481000   5.5676197     -0.29944711     0              0.39476546    -1.7696029      4096         
    482000   4.5913766     -0.2977934      0              0.27469387     2.3720212      4096         
    483000   3.8304439     -0.29702402     0              0.18058445    -1.7832299      4096         
    484000   3.2141461     -0.29829942     0              0.10246442    -1.7110673      4096         
    485000   2.6833151     -0.29855287     0              0.036022985    3.1795953      4096         
    486000   2.2692648     -0.29762897     0             -0.014680018    0.55469774     4096         
    487000   1.9396771     -0.29688275     0             -0.055029269    0.66314665     4096         
    488000   1.655325      -0.29632954     0             -0.089931197   -5.2658453      4096         
    489000   1.4439956     -0.29862799     0             -0.11857978    -2.1286161      4096         
    490000   1.2284268     -0.29790675     0             -0.14473728    -1.7404965      4096         
    491000   1.0677685     -0.29301394     0             -0.15987656     1.469416       4096         
    492000   0.93636656    -0.29414036     0             -0.17738715     4.2137736      4096         
    493000   0.81899924    -0.2924858      0             -0.19036683    -6.0400425      4096         
    494000   0.72309907    -0.29726032     0             -0.2070989     -5.4110657      4096         
    495000   0.64489905    -0.29023027     0             -0.20981942     1.2205359      4096         
    496000   0.60262123    -0.29865499     0             -0.22351565     1.3526812      4096         
    497000   0.56329369    -0.28313609     0             -0.21290041    -2.8795664      4096         
    498000   0.54105721    -0.29753567     0             -0.2300726     -1.2900615      4096         
    499000   0.5362952     -0.29479782     0             -0.22792852    -0.78396197     4096         
    500000   0.50118884    -0.28954716     0             -0.22705517    -1.9342407      4096         
    501000   0.49975192    -0.29547212     0             -0.2331593      5.6432182      4096         
    502000   0.47154464    -0.29556297     0             -0.23676725    -3.1963582      4096         
    503000   0.45044861    -0.2948893      0             -0.23872399    -4.3906518      4096         
    504000   0.43887623    -0.29412345     0             -0.23940107    -6.5055802      4096         
    505000   0.43405693    -0.2925554      0             -0.23843393     3.2207153      4096         
    506000   0.42410175    -0.29560157     0             -0.24272138     1.7801163      4096         
    507000   0.41201444    -0.28638198     0             -0.23500893     2.5801335      4096         
    508000   0.39373279    -0.29509093     0             -0.24599737    -2.703128       4096         
    509000   0.39494529    -0.29605844     0             -0.2468137      1.4701756      4096         
    510000   0.40039936    -0.2956717      0             -0.24574691    -0.87331034     4096         
    511000   0.39344241    -0.29380396     0             -0.24474661     2.1578673      4096         
    512000   0.40775885    -0.28530245     0             -0.23446002    -0.81946163     4096         
    513000   0.40538911    -0.29078285     0             -0.24023589     0.53967332     4096         
    514000   0.40992509    -0.29584015     0             -0.24472761    -3.4628592      4096         
    515000   0.39823118    -0.29615653     0             -0.24650208    -1.7752367      4096         
    516000   0.38178476    -0.29631303     0             -0.24870924    -2.0844095      4096         
    517000   0.38136893    -0.29674415     0             -0.24919221     1.490688       4096         
    518000   0.38369719    -0.29821101     0             -0.25036877     4.7480748      4096         
    519000   0.3960067     -0.29893582     0             -0.24955874    -3.0393723      4096         
    520000   0.39492652    -0.29898114     0             -0.24973874    -1.2298097      4096         
    521000   0.39265217    -0.29879856     0             -0.24983974    -0.40461556     4096         
    522000   0.40061207    -0.29815117     0             -0.24819986    -4.3366745      4096         
    523000   0.39135247    -0.28379492     0             -0.23499816    -3.2874172      4096         
    524000   0.38228157    -0.29720173     0             -0.24953599     1.1680457      4096         
    525000   0.38787475    -0.29823277     0             -0.24986963    -2.7380218      4096         
    526000   0.37585982    -0.29842744     0             -0.25156242    -1.4091596      4096         
    527000   0.37674665    -0.29800665     0             -0.25103105    -1.1710617      4096         
    528000   0.37597683    -0.2991267      0             -0.25224709     5.4420567      4096         
    529000   0.37867628    -0.29919976     0             -0.25198356     1.7929704      4096         
    530000   0.39448875    -0.3016616      0             -0.25247378    -3.8935281      4096         
    531000   0.39328699    -0.30075751     0             -0.25171954    -0.025315721    4096         
    532000   0.38704044    -0.29994914     0             -0.25169004    -4.0966555      4096         
    533000   0.38979449    -0.30093321     0             -0.25233071    -6.0792692      4096         
    534000   0.37653112    -0.29994903     0             -0.25300031    -0.29117116     4096         
    535000   0.36936712    -0.3014666      0             -0.25541114    -2.1689868      4096         
    536000   0.36445943    -0.29515818     0             -0.24971464    -4.2190262      4096         
    537000   0.36900771    -0.2958188      0             -0.24980816    -4.026353       4096         
    538000   0.35863688    -0.30004059     0             -0.25532305    -2.0043103      4096         
    539000   0.35924283    -0.30083946     0             -0.25604637     1.0798397      4096         
    540000   0.3556724     -0.30103529     0             -0.25668739     2.1102159      4096         
    541000   0.38046151    -0.30077674     0             -0.25333795    -1.5366179      4096         
    542000   0.36877269    -0.29373077     0             -0.24774943     1.506794       4096         
    543000   0.39848371    -0.29887506     0             -0.24918912    -6.7894342      4096         
    544000   0.39793849    -0.30085524     0             -0.25123728    -7.2127212      4096         
    545000   0.38290763    -0.3003769      0             -0.2526331     -2.3872982      4096         
    546000   0.38948847    -0.30126147     0             -0.25269713    -2.4988392      4096         
    547000   0.38114763    -0.29576093     0             -0.24823658     0.59255877     4096         
    548000   0.3716683     -0.30106786     0             -0.25472547    -2.5507914      4096         
    549000   0.36881158    -0.29622644     0             -0.25024024    -1.1893615      4096         
    550000   0.3999155     -0.29961234     0             -0.24974787    -1.2625111      4096         
    551000   1009.2677     -0.29467588     0              125.54839      34.605133      4096         
    552000   827.05216     -0.30107676     0              102.82199      27.097685      4096         
    553000   677.30638     -0.3001151      0              84.151524      19.700617      4096         
    554000   554.93212     -0.30114449     0              68.891955      20.67728       4096         
    555000   454.43175     -0.29817143     0              56.363787      16.633332      4096         
    556000   372.15473     -0.30085303     0              46.10219       10.078109      4096         
    557000   304.73532     -0.30126744     0              37.695417      9.0773512      4096         
    558000   249.84191     -0.30125833     0              30.850905      7.990885       4096         
    559000   204.35244     -0.30173212     0              25.178462      11.953357      4096         
    560000   167.23942     -0.30263456     0              20.550031      9.7777008      4096         
    561000   136.88168     -0.3026699      0              16.764765      7.5500821      4096         
    562000   111.97935     -0.30303734     0              13.659388     -0.58262699     4096         
    563000   91.82615      -0.30175225     0              11.147821      2.9514274      4096         
    564000   75.293614     -0.30207251     0              9.0861         3.9900709      4096         
    565000   61.566361     -0.30152731     0              7.3750283     -1.8752611      4096         
    566000   50.429457     -0.30266658     0              5.9852563      4.2658959      4096         
    567000   41.289466     -0.30195526     0              4.8463251      4.4597477      4096         
    568000   33.787015     -0.3024424      0              3.9103761      0.85386138     4096         
    569000   27.63539      -0.30152242     0              3.1442652      1.1956082      4096         
    570000   22.7377       -0.30173946     0              2.5333675     -0.21353878     4096         
    571000   18.729976     -0.30226831     0              2.0331256      0.001348556    4096         
    572000   15.327823     -0.30122717     0              1.6099608      2.358904       4096         
    573000   12.615243     -0.30218073     0              1.2707824      5.7115634      4096         
    574000   10.415231     -0.30219782     0              0.9964513      0.0064539976   4096         
    575000   8.6191916     -0.30236101     0              0.77234444     3.2892303      4096         
    576000   7.1607142     -0.30291104     0              0.58994051    -2.3142384      4096         
    577000   5.9565482     -0.298928       0              0.44377911    -2.6203283      4096         
    578000   4.9637783     -0.30238633     0              0.31653477     7.3003498      4096         
    579000   4.1457715     -0.30292257     0              0.21400331    -2.5290656      4096         
    580000   3.436328      -0.30298395     0              0.1254832      0.030312952    4096         
    581000   2.9072011     -0.30239931     0              0.060092319    4.6458096      4096         
    582000   2.4161326     -0.29683382     0              0.004427717    7.3794914      4096         
    583000   2.0242243     -0.29967879     0             -0.047283322   -4.1860135      4096         
    584000   1.7329914     -0.29618306     0             -0.080100696    0.35599448     4096         
    585000   1.5049474     -0.29201018     0             -0.10436206    -0.93788318     4096         
    586000   1.2959402     -0.30096645     0             -0.13937891    -2.4979769      4096         
    587000   1.1211914     -0.29514717     0             -0.15534862     2.3194423      4096         
    588000   1.0022613     -0.30207117     0             -0.17710172     0.91348686     4096         
    589000   0.88065316    -0.2976052      0             -0.18779876     2.9011644      4096         
    590000   0.79183478    -0.30247157     0             -0.20373967     6.4984416      4096         
    591000   0.71778255    -0.30226011     0             -0.21276159    -2.9537576      4096         
    592000   0.65494327    -0.30347692     0             -0.22181368    -0.070043641    4096         
    593000   0.60434975    -0.30291626     0             -0.2275614      1.3872787      4096         
    594000   0.55185313    -0.30333209     0             -0.2345229      2.4961162      4096         
    595000   0.51229229    -0.30350099     0             -0.23962455    -0.70421088     4096         
    596000   0.47639003    -0.3007428      0             -0.24134292     3.4926995      4096         
    597000   0.45592267    -0.30393305     0             -0.24708519    -0.47312228     4096         
    598000   0.42751575    -0.30354444     0             -0.25023857    -3.6592269      4096         
    599000   0.41621825    -0.30314571     0             -0.2512485     -1.2493428      4096         
    600000   0.41388424    -0.30332994     0             -0.25172375    -4.7458804      4096         
    601000   0.39765523    -0.30382144     0             -0.2542388      8.7852991      4096         
    602000   0.39361526    -0.30421541     0             -0.2551365     -5.8135459      4096         
    603000   0.38920648    -0.30349863     0             -0.25496944     2.0546724      4096         
    604000   0.38790437    -0.30034648     0             -0.25197965    -5.5640062      4096         
    605000   0.38373661    -0.3042932      0             -0.25644604    -2.3216912      4096         
    606000   0.37239253    -0.30342425     0             -0.25699155    -0.015777858    4096         
    607000   0.367574      -0.30423662     0             -0.25840474     6.5752852      4096         
    608000   0.36227007    -0.30505364     0             -0.25988309    -5.9672006      4096         
    609000   0.34551202    -0.30332836     0             -0.26024733    -5.1937541      4096         
    610000   0.35657131    -0.30347391     0             -0.25901392     1.3103183      4096         
    611000   0.35854449    -0.30399914     0             -0.25929312    -1.3742031      4096         
    612000   0.38079794    -0.29562746     0             -0.24814672     4.854652       4096         
    613000   0.37679521    -0.30382736     0             -0.25684571     5.4298352      4096         
    614000   0.36989841    -0.30507069     0             -0.25894898     5.5102936      4096         
    615000   0.359945      -0.30459545     0             -0.25971481     4.3615433      4096         
    616000   0.36073967    -0.30493303     0             -0.25995331     4.1422491      4096         
    617000   0.3689198     -0.30575843     0             -0.25975874     0.034680759    4096         
    618000   0.35164603    -0.30520142     0             -0.26135555    -1.1854695      4096         
    619000   0.36480316    -0.3023663      0             -0.25687991    -4.5440268      4096         
    620000   0.36930717    -0.30454206     0             -0.25849407     3.3122054      4096         
    621000   0.38133118    -0.30006837     0             -0.25252114    -8.1141933      4096         
    622000   0.37132327    -0.30595614     0             -0.25965677    -0.53694134     4096         
    623000   0.37511744    -0.30575719     0             -0.25898473    -0.23974158     4096         
    624000   0.36260958    -0.30480864     0             -0.25959575    -1.9330291      4096         
    625000   0.36036383    -0.30584203     0             -0.26090917    -1.0875239      4096         
    626000   0.36485049    -0.30426311     0             -0.25877081    -5.2744815      4096         
    627000   0.36524977    -0.30598548     0             -0.2604434     -7.4798053      4096         
    628000   0.36485418    -0.30571278     0             -0.26022003     6.4278972      4096         
    629000   0.3541881     -0.30562943     0             -0.2614666     -2.1813375      4096         
    630000   0.35184099    -0.30464038     0             -0.26077021     1.7933461      4096         
    631000   0.35562121    -0.30573819     0             -0.26139667     4.1645486      4096         
    632000   0.36813585    -0.30387081     0             -0.25796888     3.27413        4096         
    633000   0.35927708    -0.30338897     0             -0.25859161     2.2531681      4096         
    634000   0.37852888    -0.30513497     0             -0.25793715     0.75268607     4096         
    635000   0.3811249     -0.29960606     0             -0.25208455     1.4026203      4096         
    636000   0.44174762    -0.30466729     0             -0.24958688    -2.4692397      4096         
    637000   0.42514577    -0.30271349     0             -0.24970313     4.5808243      4096         
    638000   0.40123409    -0.2968697      0             -0.24684082     4.022576       4096         
    639000   0.39850895    -0.30403292     0             -0.25434384     0.88297394     4096         
    640000   0.40079899    -0.30476787     0             -0.25479325     2.5283405      4096         
    641000   0.41451905    -0.30332974     0             -0.2516444      0.81196148     4096         
    642000   0.44632927    -0.30053612     0             -0.24488444     1.4342725      4096         
    643000   0.44628129    -0.30133656     0             -0.24569086    -2.8995475      4096         
    644000   0.43824792    -0.30162404     0             -0.24698001     2.1949046      4096         
    645000   0.4230283     -0.30100592     0             -0.24825958    -0.14769538     4096         
    646000   0.41234662    -0.30239972     0             -0.25098525     7.7119825      4096         
    647000   0.39295767    -0.30190934     0             -0.25291243     1.2019254      4096         
    648000   0.38817727    -0.30099765     0             -0.2525968     -0.48538832     4096         
    649000   0.38146984    -0.2977462      0             -0.25018168    -5.008594       4096         
    650000   0.37091228    -0.30158602     0             -0.2553379     -2.1297724      4096         
    651000   922.11446     -0.29581915     0              114.68033      28.282714      4096         
    652000   755.8746      -0.30123276     0              93.946882      25.437709      4096         
    653000   619.249       -0.30230441     0              76.910306      20.60468       4096         
    654000   507.25655     -0.30203521     0              62.946516      16.560302      4096         
    655000   415.74182     -0.30248831     0              51.53532       23.072234      4096         
    656000   340.67383     -0.29547401     0              42.182294      12.957946      4096         
    657000   279.1534      -0.30105289     0              34.505886      9.8151675      4096         
    658000   228.7019      -0.30173602     0              28.214532      10.932983      4096         
    659000   187.29917     -0.29376444     0              23.0601        6.0303326      4096         
    660000   153.42247     -0.2999995      0              18.829865      4.0997638      4096         
    661000   125.79604     -0.30228918     0              15.382905      6.9760054      4096         
    662000   103.04728     -0.30014536     0              12.548562      7.7906759      4096         
    663000   84.574808     -0.30121974     0              10.244202      6.9572371      4096         
    664000   69.281445     -0.2998294      0              8.3387008     -1.051314       4096         
    665000   56.824384     -0.30186391     0              6.7834265      3.1522548      4096         
    666000   46.685254     -0.29536275     0              5.5257049     -1.8158752      4096         
    667000   38.37641      -0.30173425     0              4.4833243      0.74438179     4096         
    668000   31.570385     -0.30012752     0              3.6363048     -1.7512813      4096         
    669000   25.81242      -0.30107451     0              2.9174116      5.3778154      4096         
    670000   21.214623     -0.29867566     0              2.3465226      9.7876627      4096         
    671000   17.475364     -0.30117082     0              1.8777887     -8.144695       4096         
    672000   14.416522     -0.30081392     0              1.4967462     -2.1851537      4096         
    673000   11.912283     -0.30118703     0              1.1841258      3.25986        4096         
    674000   9.7909433     -0.30124997     0              0.91955827     6.1721565      4096         
    675000   8.0383336     -0.30141656     0              0.70086316    -0.75442246     4096         
    676000   6.6659533     -0.30259497     0              0.52856608    -5.1657636      4096         
    677000   5.4902078     -0.3017513      0              0.38280899    -6.6787349      4096         
    678000   4.5405736     -0.30150673     0              0.26464604    -7.4973135      4096         
    679000   3.7917283     -0.30236867     0              0.17041246     1.5443252      4096         
    680000   3.1546358     -0.3033295      0              0.090014158    0.1798179      4096         
    681000   2.637461      -0.29953418     0              0.029324235    3.9538881      4096         
    682000   2.2325996     -0.30199673     0             -0.023619464    1.1722062      4096         
    683000   1.8811155     -0.29692747     0             -0.062375882    0.77095678     4096         
    684000   1.5976076     -0.30286947     0             -0.10366777    -11.182242      4096         
    685000   1.3899062     -0.30131735     0             -0.12801343    -3.170766       4096         
    686000   1.1926512     -0.2976674      0             -0.1489587     -1.1518744      4096         
    687000   1.04817       -0.30149688     0             -0.17080318     0.2766826      4096         
    688000   0.93179809    -0.30283897     0             -0.1866554      0.36852807     4096         
    689000   0.82854279    -0.3023416      0             -0.19903267     2.1490826      4096         
    690000   0.7436262     -0.3019164      0             -0.20919551     0.70848811     4096         
    691000   0.6800178     -0.30226428     0             -0.21747456    -3.102938       4096         
    692000   0.61942629    -0.29484187     0             -0.21760716    -5.1285449      4096         
    693000   0.58541473    -0.3013193      0             -0.2283254      3.3093887      4096         
    694000   0.54033884    -0.30173474     0             -0.23436124    -1.1212433      4096         
    695000   0.5210065     -0.30161833     0             -0.23665534     1.0507775      4096         
    696000   0.49341999    -0.30136667     0             -0.23984337    -3.6462444      4096         
    697000   0.47945169    -0.30151054     0             -0.24172891    -6.6211938      4096         
    698000   0.46123513    -0.30006184     0             -0.24255159     5.5875635      4096         
    699000   0.44508023    -0.30114625     0             -0.24565031    -3.2085836      4096         
    700000   0.42435509    -0.30124405     0             -0.24833228     1.008711       4096         
    701000   0.40434729    -0.29988787     0             -0.24947082     2.23551        4096         
    702000   0.40727428    -0.29984313     0             -0.24906112    -2.1652473      4096         
    703000   0.41717286    -0.29361222     0             -0.24159598     3.2905714      4096         
    704000   0.40588482    -0.29077192     0             -0.24016316     2.0648696      4096         
    705000   0.39359341    -0.29732859     0             -0.24825241    -6.6072242      4096         
    706000   0.38955712    -0.28576859     0             -0.23719569    -3.391779       4096         
    707000   0.40468646    -0.2984477      0             -0.24798836     2.6870298      4096         
    708000   0.39678875    -0.29831872     0             -0.24884413    -4.784056       4096         
    709000   0.39123236    -0.29833786     0             -0.24955608     2.7581316      4096         
    710000   0.36916124    -0.2974626      0             -0.25143281     1.3353054      4096         
    711000   0.37645374    -0.29698063     0             -0.25004155     0.58445385     4096         
    712000   0.37990552    -0.29780146     0             -0.25043199    -4.7994365      4096         
    713000   0.38599324    -0.29809121     0             -0.24996268     1.6923542      4096         
    714000   0.39975845    -0.29342864     0             -0.24358375    -0.89190427     4096         
    715000   0.39561107    -0.2981631      0             -0.24883535     5.7135928      4096         
    716000   0.3849149     -0.29742943     0             -0.24943535     3.9353006      4096         
    717000   0.38367441    -0.29515893     0             -0.24731952    -7.0260928      4096         
    718000   0.38766724    -0.29678478     0             -0.24844752     2.2356527      4096         
    719000   0.38722969    -0.29620977     0             -0.24792707     1.5807384      4096         
    720000   0.39778512    -0.29710358     0             -0.24750475     6.270551       4096         
    721000   0.38315622    -0.28438632     0             -0.23661153     6.7861977      4096         
    722000   0.37207157    -0.29703392     0             -0.25064125    -2.6614113      4096         
    723000   0.37182384    -0.29636004     0             -0.24999825    -2.7645619      4096         
    724000   0.37872161    -0.29735594     0             -0.25013409    -1.8400322      4096         
    725000   0.37594177    -0.29803154     0             -0.2511563      3.2783602      4096         
    726000   0.37209852    -0.29724909     0             -0.25085306     1.1003271      4096         
    727000   0.38340565    -0.29219166     0             -0.24438577     5.1953302      4096         
    728000   0.38622783    -0.29911564     0             -0.25095786     3.9535229      4096         
    729000   0.38581939    -0.29786458     0             -0.24975772     1.8839035      4096         
    730000   0.39419571    -0.29823167     0             -0.24908039     9.1261556      4096         
    731000   0.38078892    -0.29836266     0             -0.25088304     1.6354265      4096         
    732000   0.38043689    -0.29842811     0             -0.25099239     0.13980676     4096         
    733000   0.37079316    -0.29839268     0             -0.25215941     5.2393631      4096         
    734000   0.3684141     -0.29859214     0             -0.25265551    -3.9592628      4096         
    735000   0.36630964    -0.29858918     0             -0.25291495    -6.7849787      4096         
    736000   0.36547055    -0.29272039     0             -0.24715078    -2.4273544      4096         
    737000   0.3652644     -0.29872933     0             -0.25318542     5.3569247      4096         
    738000   0.37209244    -0.29948082     0             -0.25308554     4.1445154      4096         
    739000   0.38013315    -0.30067436     0             -0.25327651    -4.182953       4096         
    740000   0.37216306    -0.29972099     0             -0.2533169     -0.537967       4096         
    741000   0.37135484    -0.30020786     0             -0.25390455     2.1147664      4096         
    742000   0.35037833    -0.29835948     0             -0.25467168     0.64907685     4096         
    743000   0.36335939    -0.30039717     0             -0.25509079    -2.8302717      4096         
    744000   0.3560351     -0.29480333     0             -0.2504102      6.3749705      4096         
    745000   0.35352726    -0.29988604     0             -0.25580561    -2.8352648      4096         
    746000   0.34289154    -0.29986863     0             -0.25711434    -0.90846134     4096         
    747000   0.35438189    -0.30017677     0             -0.25598978     10.162447      4096         
    748000   0.34734665    -0.29997653     0             -0.25666675     4.4149703      4096         
    749000   0.39148807    -0.28820209     0             -0.23938842    -6.2003937      4096         
    750000   0.38516859    -0.28702374     0             -0.23899803    -2.1432503      4096         
    751000   6776.9077     -0.29805605     0              844.69763      224.14167      4096         
    752000   5548.1344     -0.29822244     0              691.48478      178.49319      4096         
    753000   4543.4311     -0.29882649     0              566.21024      147.80035      4096         
    754000   3719.7212     -0.29896596     0              463.50378      123.11124      4096         
    755000   3045.859      -0.29849134     0              379.48205      105.63303      4096         
    756000   2494.42       -0.29656356     0              310.72643      88.223389      4096         
    757000   2041.5037     -0.29802198     0              254.25197      63.731315      4096         
    758000   1671.888      -0.29186061     0              208.17167      60.821795      4096         
    759000   1369.4795     -0.29805337     0              170.45892      53.8519        4096         
    760000   1120.6985     -0.29705125     0              139.44004      39.633746      4096         
    761000   917.00252     -0.2968967      0              114.04186      25.570207      4096         
    762000   750.71234     -0.29633129     0              93.308114      28.171338      4096         
    763000   614.7087      -0.2912675      0              76.355224      12.17008       4096         
    764000   503.42902     -0.29803797     0              62.473268      19.480661      4096         
    765000   412.29536     -0.29754685     0              51.11053       6.092679       4096         
    766000   337.74817     -0.29690555     0              41.81607       6.9740552      4096         
    767000   276.65535     -0.29738266     0              34.198081      10.493502      4096         
    768000   226.43716     -0.28301548     0              27.950868      12.078075      4096         
    769000   185.52675     -0.29513326     0              22.837734      11.177602      4096         
    770000   151.67659     -0.28974843     0              18.622426      6.8487836      4096         
    771000   124.37459     -0.29544471     0              15.212512     -2.3122394      4096         
    772000   102.01586     -0.28438434     0              12.435718     -3.0047359      4096         
    773000   83.435167     -0.2966572      0              10.106665      5.3745667      4096         
    774000   68.221616     -0.29671246     0              8.2096703      0.23615269     4096         
    775000   55.831622     -0.29723336     0              6.664272       3.7914703      4096         
    776000   45.638377     -0.29129628     0              5.3992388      0.59399009     4096         
    777000   37.440226     -0.29617727     0              4.3721509      3.8706468      4096         
    778000   30.690375     -0.29687893     0              3.5298272      10.976497      4096         
    779000   25.187708     -0.29595697     0              2.8446353      8.3834364      4096         
    780000   20.764021     -0.29142147     0              2.2975924      3.2644608      4096         
    781000   17.101113     -0.29605235     0              1.8362427     -3.142431       4096         
    782000   14.03692      -0.29579425     0              1.4544342     -6.7812759      4096         
    783000   11.590733     -0.29612336     0              1.1490962     -1.880656       4096         
    784000   9.6088164     -0.29643414     0              0.90166515     0.90480329     4096         
    785000   7.9547738     -0.29664016     0              0.6952207      4.8017471      4096         
    786000   6.5996488     -0.29445643     0              0.52843729     6.4165576      4096         
    787000   5.4902671     -0.29427978     0              0.3902879     -0.72359698     4096         
    788000   4.5670671     -0.29587742     0              0.27357876     2.8270992      4096         
    789000   3.7835038     -0.29594032     0              0.17581531     2.7252635      4096         
    790000   3.1683259     -0.28749214     0              0.1075585     -4.7436898      4096         
    791000   2.6718062     -0.29626564     0              0.036875193   -5.2718183      4096         
    792000   2.2478833     -0.29638386     0             -0.016100908    8.4957262      4096         
    793000   1.9200111     -0.29493888     0             -0.055537499   -11.864139      4096         
    794000   1.6265752     -0.29611158     0             -0.093297983    2.8640207      4096         
    795000   1.4275519     -0.29628734     0             -0.11828947    -0.7749537      4096         
    796000   1.2221566     -0.29616855     0             -0.1437809     -3.2230522      4096         
    797000   1.0777613     -0.29602162     0             -0.16163826    -0.39437922     4096         
    798000   0.94941957    -0.29621292     0             -0.17783217    -0.032041541    4096         
    799000   0.86967929    -0.29630834     0             -0.18787021     1.6421102      4096         
    800000   0.78152192    -0.29561269     0             -0.19816668     0.46631442     4096         
    801000   0.69812301    -0.29537548     0             -0.20832827     7.3773657      4096         
    802000   0.64573353    -0.29660896     0             -0.21609406    -5.5266715      4096         
    803000   0.58764035    -0.29639522     0             -0.22312381    -4.9161322      4096         
    804000   0.55456549    -0.29675993     0             -0.22761254     1.3019588      4096         
    805000   0.5129758     -0.2965123      0             -0.23255063     4.6806787      4096         
    806000   0.47467914    -0.2968958      0             -0.23770924    -6.0737794      4096         
    807000   0.44216787    -0.29720897     0             -0.24207617     0.6820858      4096         
    808000   0.42881143    -0.29724719     0             -0.24377976    -4.8282542      4096         
    809000   0.4150462     -0.29776881     0             -0.24601773     1.6058336      4096         
    810000   0.41897063    -0.29725633     0             -0.24501593     1.9613968      4096         
    811000   0.4099434     -0.29632974     0             -0.24521492    -6.0121401      4096         
    812000   0.43088321    -0.2931036      0             -0.23937785     3.2155626      4096         
    813000   0.42141913    -0.29480341     0             -0.24225771     4.0153493      4096         
    814000   0.40418272    -0.28559607     0             -0.23519953     7.8056409      4096         
    815000   0.42275121    -0.29563182     0             -0.24292003     3.8367013      4096         
    816000   0.41183641    -0.29508355     0             -0.2437327     -4.4451503      4096         
    817000   0.42297567    -0.29602339     0             -0.24328361     4.3117389      4096         
    818000   0.43248881    -0.29462781     0             -0.24070186    -5.7703267      4096         
    819000   0.42027297    -0.29532388     0             -0.2429211     -3.9627382      4096         
    820000   0.43054957    -0.29591512     0             -0.24223097     1.5038865      4096         
    821000   0.4006594     -0.29546236     0             -0.24550514     0.89461494     4096         
    822000   0.400819      -0.29532407     0             -0.24534695    -3.9951826      4096         
    823000   0.39614751    -0.29566194     0             -0.2462673      1.5046984      4096         
    824000   0.39319113    -0.29642363     0             -0.24739761     7.2550854      4096         
    825000   0.36650552    -0.29550979     0             -0.24981113     7.7154539      4096         
    826000   0.37920278    -0.29469849     0             -0.24741664    -2.8416941      4096         
    827000   0.38662121    -0.29913251     0             -0.25092568    -1.6662121      4096         
    828000   0.37547012    -0.29632265     0             -0.24950622     11.526596      4096         
    829000   0.38366595    -0.29930915     0             -0.2514708      2.8172498      4096         
    830000   0.37725467    -0.29819332     0             -0.25115438    -2.6848028      4096         
    831000   0.38427014    -0.29879141     0             -0.25087773     4.3483651      4096         
    832000   0.36710782    -0.29681193     0             -0.25103817    -7.7068278      4096         
    833000   0.36702692    -0.2984581      0             -0.25269443     2.3139212      4096         
    834000   0.38286854    -0.29983525     0             -0.25209632    -2.5467773      4096         
    835000   0.3722726     -0.29843109     0             -0.25201335    -7.3343581      4096         
    836000   0.37363437    -0.2983087      0             -0.25172116    -3.5741386      4096         
    837000   0.3766071     -0.29100064     0             -0.24404245    -6.041343       4096         
    838000   0.3808624     -0.29715684     0             -0.24966806     0.10221022     4096         
    839000   0.37845598    -0.28939401     0             -0.24220528    -0.6290467      4096         
    840000   0.37176477    -0.2969185      0             -0.25056408     4.3407234      4096         
    841000   0.37656584    -0.29707633     0             -0.25012328    -10.013303      4096         
    842000   0.39053864    -0.29768776     0             -0.24899247     11.345631      4096         
    843000   0.38250531    -0.29844581     0             -0.25075217    -1.8046169      4096         
    844000   0.37170585    -0.29831799     0             -0.25197092    -4.5448788      4096         
    845000   0.36723675    -0.2990811      0             -0.25329126     2.2341712      4096         
    846000   0.3628392     -0.29985702     0             -0.25461551    -5.7805731      4096         
    847000   0.35547255    -0.29900111     0             -0.25467812     1.8292938      4096         
    848000   0.37176027    -0.30072482     0             -0.25437096     6.4966445      4096         
    849000   0.37798186    -0.30090255     0             -0.25377293     5.5215175      4096         
    850000   0.37996253    -0.30077639     0             -0.25339981    -5.9035448      4096         
    851000   2186.179      -0.29822942     0              272.29096      77.476841      4096         
    852000   1790.2103     -0.30005659     0              222.91679      56.64993       4096         
    853000   1465.1246     -0.29881091     0              182.38391      38.219399      4096         
    854000   1198.8192     -0.2991654      0              149.1786       35.87585       4096         
    855000   981.32373     -0.29914592     0              122.05966      35.899486      4096         
    856000   803.89122     -0.30011541     0              99.935071      29.865666      4096         
    857000   658.12638     -0.29973329     0              81.7604        27.089055      4096         
    858000   538.82645     -0.30041582     0              66.884507      20.311432      4096         
    859000   441.22099     -0.29961785     0              54.715125      16.207126      4096         
    860000   361.27318     -0.30060339     0              44.745647      11.117917      4096         
    861000   295.84971     -0.30092153     0              36.587839      9.8410978      4096         
    862000   242.29638     -0.30093951     0              29.910391      7.7040509      4096         
    863000   198.24583     -0.30139774     0              24.417379      1.8066716      4096         
    864000   162.56141     -0.30123175     0              19.968144     -1.2141635      4096         
    865000   133.2283      -0.30153267     0              16.310371      2.754559       4096         
    866000   109.05125     -0.30226422     0              13.295063      1.0723463      4096         
    867000   89.440343     -0.30212182     0              10.849971      0.57568561     4096         
    868000   73.369807     -0.30072914     0              8.8475687     -6.2106025      4096         
    869000   60.2153       -0.30268592     0              7.2054092     -6.0925217      4096         
    870000   49.453984     -0.30196109     0              5.8643326     -3.7049361      4096         
    871000   40.598936     -0.30270191     0              4.759478       1.3371541      4096         
    872000   33.349091     -0.29919281     0              3.8590219      2.1756719      4096         
    873000   27.41797      -0.30165748     0              3.1170206      2.5089907      4096         
    874000   22.609753     -0.30214723     0              2.5170063      8.6527765      4096         
    875000   18.594079     -0.29989818     0              2.0185511      5.3439505      4096         
    876000   15.259361     -0.2972253      0              1.6054262     -3.4262787      4096         
    877000   12.541494     -0.30068525     0              1.2630823      3.9349959      4096         
    878000   10.293165     -0.30100231     0              0.9824267     -4.4649734      4096         
    879000   8.4738044     -0.30020994     0              0.75636754     0.30087079     4096         
    880000   7.1022182     -0.30096815     0              0.58458967     4.7867023      4096         
    881000   5.9013185     -0.28982659     0              0.44599406    -5.2271443      4096         
    882000   4.935931      -0.30219193     0              0.31325697     1.166058       4096         
    883000   4.1086488     -0.30098313     0              0.21131402    -1.908574       4096         
    884000   3.4368076     -0.30149397     0              0.12703297     5.2041242      4096         
    885000   2.8516838     -0.3013041      0              0.054265226    0.30385147     4096         
    886000   2.3977741     -0.30072049     0             -0.0017480407   1.8873276      4096         
    887000   2.0479843     -0.3011438      0             -0.045785765    5.0174447      4096         
    888000   1.7515448     -0.30262421     0             -0.08422847    -4.5834153      4096         
    889000   1.5048973     -0.30315041     0             -0.11550852    -2.2553036      4096         
    890000   1.303651      -0.30271021     0             -0.14016123     3.7134145      4096         
    891000   1.1413075     -0.30135805     0             -0.15905128     6.964471       4096         
    892000   0.99756222    -0.30119151     0             -0.17680797    -1.3004575      4096         
    893000   0.87098309    -0.30163229     0             -0.19303159    -15.165571      4096         
    894000   0.78089588    -0.29658673     0             -0.19921877    -4.7742604      4096         
    895000   0.71116646    -0.30256731     0             -0.21389374    -3.8481113      4096         
    896000   0.64502945    -0.30208106     0             -0.22165395     3.9336337      4096         
    897000   0.58164329    -0.3014169      0             -0.22889325    -2.9934174      4096         
    898000   0.58060207    -0.30277039     0             -0.23037657     10.353061      4096         
    899000   0.52562568    -0.30178363     0             -0.23624468     4.2120713      4096         
    900000   0.51168513    -0.30057511     0             -0.23677437    -5.9311686      4096         
    901000   0.49270963    -0.29487871     0             -0.23344398    -0.67068838     4096         
    902000   0.46115552    -0.30020308     0             -0.24270275     7.1020241      4096         
    903000   0.45716153    -0.28997724     0             -0.23297491    -9.9538417      4096         
    904000   0.44373073    -0.30128297     0             -0.24595529    -1.214366       4096         
    905000   0.40832203    -0.29958403     0             -0.24867138     1.0824533      4096         
    906000   0.4161592     -0.30152836     0             -0.24963851    -8.5533942      4096         
    907000   0.39582953    -0.30097983     0             -0.25162484    -10.471533      4096         
    908000   0.39392795    -0.30064884     0             -0.25153094     6.2455284      4096         
    909000   0.38133876    -0.30001558     0             -0.25246741     3.6566365      4096         
    910000   0.39152403    -0.30197856     0             -0.25316041    -3.9754769      4096         
    911000   0.38546713    -0.30153319     0             -0.25347026    -4.3125806      4096         
    912000   0.37347785    -0.30062383     0             -0.25405581    -2.5582978      4096         
    913000   0.38068486    -0.29633472     0             -0.24886808    -0.42441644     4096         
    914000   0.371515      -0.3024648      0             -0.25614153    -4.2085448      4096         
    915000   0.37831868    -0.30213253     0             -0.25496092     3.563522       4096         
    916000   0.39456077    -0.2894909      0             -0.2402941     -6.5747565      4096         
    917000   0.38291705    -0.30238916     0             -0.25464419    -5.2249732      4096         
    918000   0.36521752    -0.30224636     0             -0.2567083     -3.1798961      4096         
    919000   0.36141351    -0.29670672     0             -0.25164297     1.6921528      4096         
    920000   0.36574304    -0.30336164     0             -0.25775805    -4.8247319      4096         
    921000   0.35393401    -0.30339528     0             -0.25926414    -4.0182766      4096         
    922000   0.36353761    -0.30273744     0             -0.25740884    -8.229984       4096         
    923000   0.37981306    -0.30328456     0             -0.25592662    -0.17867982     4096         
    924000   0.36528501    -0.30155322     0             -0.25600675     3.2356019      4096         
    925000   0.35625915    -0.30318584     0             -0.25876478    -6.0540827      4096         
    926000   0.36283492    -0.30397618     0             -0.2587352     -0.82392511     4096         
    927000   0.36933958    -0.30370944     0             -0.25765741    -7.6288958      4096         
    928000   0.34914582    -0.30265584     0             -0.25912172    -3.3087815      4096         
    929000   0.35799492    -0.30351215     0             -0.25887466     2.450313       4096         
    930000   0.35263157    -0.30151593     0             -0.25754718    -2.4989655      4096         
    931000   0.35742828    -0.30263093     0             -0.25806409     6.8359078      4096         
    932000   0.3613558     -0.30329722     0             -0.25824067    -3.885521       4096         
    933000   0.36084068    -0.30298154     0             -0.25798922    -1.3404501      4096         
    934000   0.3495459     -0.30276007     0             -0.25917607     4.4765367      4096         
    935000   0.35970541    -0.2970899      0             -0.25223913    -3.232903       4096         
    936000   0.35963769    -0.2916826      0             -0.24684028    -4.3516434      4096         
    937000   0.38316302    -0.30274718     0             -0.25497154     2.8857489      4096         
    938000   0.37319945    -0.30310555     0             -0.25657224    -1.8098623      4096         
    939000   0.37054331    -0.30391374     0             -0.25771162     3.1998498      4096         
    940000   0.36250907    -0.30339365     0             -0.2581933      7.0264648      4096         
    941000   0.35257678    -0.30256678     0             -0.25860486     0.69907068     4096         
    942000   0.34787197    -0.30291701     0             -0.25954172    -0.14835024     4096         
    943000   0.35394416    -0.30364822     0             -0.25951581    -1.1364105      4096         
    944000   0.3526142     -0.30393132     0             -0.25996474    -3.8896106      4096         
    945000   0.36217774    -0.30444316     0             -0.25928413     2.3046717      4096         
    946000   0.35966679    -0.29599701     0             -0.25115105     1.8832413      4096         
    947000   0.35083388    -0.30422615     0             -0.26048155     2.8590205      4096         
    948000   0.36088753    -0.30540375     0             -0.26040559    -0.28508298     4096         
    949000   0.35652416    -0.30554494     0             -0.26109083     6.0335325      4096         
    950000   0.35941548    -0.30557409     0             -0.26075947     2.0849039      4096         
    951000   2759.4731     -0.30514386     0              343.76666      85.578137      4096         
    952000   2259.6965     -0.30186807     0              281.45404      82.936901      4096         
    953000   1849.3933     -0.30387637     0              230.29235      57.094865      4096         
    954000   1514.6017     -0.30048926     0              188.5514       48.053198      4096         
    955000   1239.411      -0.30113185     0              154.23793      38.328296      4096         
    956000   1014.1522     -0.30048618     0              126.15161      22.599744      4096         
    957000   830.07721     -0.30060833     0              103.19964      29.21175       4096         
    958000   679.83083     -0.29687717     0              84.469529      20.996123      4096         
    959000   557.26691     -0.30029394     0              69.183924      22.462055      4096         
    960000   456.59713     -0.30057985     0              56.631375      12.544328      4096         
    961000   373.92231     -0.30193078     0              46.321508      11.488435      4096         
    962000   306.16559     -0.3020425      0              37.872979      2.1586139      4096         
    963000   251.01933     -0.30161219     0              30.997361      1.0668605      4096         
    964000   205.58877     -0.29788082     0              25.336469      13.471908      4096         
    965000   168.48281     -0.30159807     0              20.706102      10.964634      4096         
    966000   137.94729     -0.30140596     0              16.898896     -0.3473971      4096         
    967000   113.04617     -0.30138625     0              13.794058      1.9205067      4096         
    968000   92.364811     -0.30275424     0              11.213983      5.11953        4096         
    969000   75.620246     -0.30267709     0              9.1262223     -0.32104638     4096         
    970000   62.012066     -0.30255027     0              7.4295792      8.9896878      4096         
    971000   50.87663      -0.30226188     0              6.041418       7.1958881      4096         
    972000   41.824149     -0.30245164     0              4.9124969      4.0678399      4096         
    973000   34.543217     -0.30216415     0              4.0049432      2.5537114      4096         
    974000   28.217291     -0.29899506     0              3.2193484      3.4630848      4096         
    975000   23.129738     -0.30308436     0              2.5809049      8.5071762      4096         
    976000   19.148518     -0.30318817     0              2.0843927     -3.5691333      4096         
    977000   15.79987      -0.30269568     0              1.6673507     -0.049461202    4096         
    978000   13.035807     -0.29903021     0              1.326372      -5.6269109      4096         
    979000   10.820464     -0.30198928     0              1.0471873      6.5187045      4096         
    980000   8.955987      -0.29789083     0              0.8188088     -11.156041      4096         
    981000   7.3962085     -0.30389459     0              0.61832016    -8.0971421      4096         
    982000   6.1009034     -0.2974045      0              0.46330189    -5.343465       4096         
    983000   5.0772617     -0.30334811     0              0.32972295    -14.906292      4096         
    984000   4.2351679     -0.30280642     0              0.22526607     2.4095363      4096         
    985000   3.5636324     -0.2933966      0              0.15094381    -4.8867623      4096         
    986000   3.0080894     -0.30333383     0              0.071737324   -1.5691577      4096         
    987000   2.5138112     -0.29863244     0              0.014808397   -0.70417919     4096         
    988000   2.1456163     -0.30341026     0             -0.035878729    3.4259275      4096         
    989000   1.8060178     -0.30277215     0             -0.077584304   -4.5965414      4096         
    990000   1.5495207     -0.30234002     0             -0.10913415    -3.1832489      4096         
    991000   1.3456651     -0.3042093      0             -0.13642169     1.8407997      4096         
    992000   1.1530922     -0.3031696      0             -0.15939342    -0.1813701      4096         
    993000   1.0217279     -0.30340777     0             -0.17601107     2.6285807      4096         
    994000   0.88978203    -0.29894034     0             -0.18799565     0.89283485     4096         
    995000   0.79343546    -0.29351548     0             -0.19458399    -5.1185518      4096         
    996000   0.7333527     -0.30364515     0             -0.21220523    -7.4769239      4096         
    997000   0.67194018    -0.30586878     0             -0.22208624     0.54545492     4096         
    998000   0.62127659    -0.30570571     0             -0.22824029    -0.59727369     4096         
    999000   0.57759868    -0.30518874     0             -0.2331694     -7.0224614      4096         
   1000000   0.532477      -0.30427297     0             -0.23787974     5.3785641      4096         
Loop time of 326.856 on 8 procs for 1000000 steps with 1600 atoms

Performance: 264336.374 tau/day, 3059.449 timesteps/s, 4.895 Matom-step/s
91.7% CPU use with 8 MPI tasks x 1 OpenMP threads

MPI task timing breakdown:
Section |  min time  |  avg time  |  max time  |%varavg| %total
---------------------------------------------------------------
Pair    | 16.803     | 22.408     | 26.743     |  72.1 |  6.86
Bond    | 0.064767   | 0.069901   | 0.074967   |   1.1 |  0.02
Neigh   | 1.8116     | 1.8131     | 1.8141     |   0.1 |  0.55
Comm    | 31.92      | 35.897     | 41.453     |  55.2 | 10.98
Output  | 0.25295    | 0.29583    | 0.3364     |   5.1 |  0.09
Modify  | 246.01     | 246.64     | 247.32     |   2.4 | 75.46
Other   |            | 19.73      |            |       |  6.04

Nlocal:            200 ave         304 max         140 min
Histogram: 1 2 0 2 1 1 0 0 0 1
Nghost:        877.875 ave         905 max         851 min
Histogram: 1 1 0 1 2 0 1 0 1 1
Neighs:              0 ave           0 max           0 min
Histogram: 8 0 0 0 0 0 0 0 0 0
FullNghs:         3378 ave        6374 max        1851 min
Histogram: 2 1 1 1 2 0 0 0 0 1

Total # of neighbors = 27024
Ave neighs/atom = 16.89
Ave special neighs/atom = 2.3125
Neighbor list builds = 1404
Dangerous builds = 10

Total wall time: 0:05:43
