LAMMPS (27 Jun 2024)
OMP_NUM_THREADS environment is not set. Defaulting to 1 thread. (src/comm.cpp:98)
  using 1 OpenMP thread(s) per MPI task
package omp 0
using multi-threaded neighbor list subroutines
units lj
dimension 3
boundary p p p

atom_style bond
bond_style zero nocoeff
pair_style hybrid/overlay/omp zero 0.0 lj/cut/omp 1.12 table/omp linear 5000000 threebody/table
newton on

region simulation_box block -10 10 -10 10 -10 10
create_box 4 simulation_box bond/types 1 extra/bond/per/atom 4 extra/special/per/atom 5
Created orthogonal box = (-10 -10 -10) to (10 10 10)
  1 by 2 by 2 MPI processor grid

mass 1 1.0
mass 2 1.0
mass 3 0.5
mass 4 0.5

bond_coeff * nocoeff
pair_coeff 1 3 zero
pair_coeff 1 4 zero
pair_coeff 2 3 zero
pair_coeff 2 4 zero
pair_coeff 3 3 zero
pair_coeff 1 1 lj/cut/omp 1.0 1.0 1.12
pair_coeff 2 2 lj/cut/omp 1.0 1.0 1.12
pair_coeff 1 2 lj/cut/omp 1.0 1.0 1.12
pair_modify shift yes
pair_coeff 3 4 table/omp pachTab.table POT 0.6
Reading pair table potential file pachTab.table with DATE: 2024-07-08
WARNING: 2 of 5000000 force values in table POT are inconsistent with -dE/dr.
WARNING:  Should only be flagged at inflection points (src/pair_table.cpp:466)
pair_coeff 4 4 table/omp pachTab.table POT 0.6
Reading pair table potential file pachTab.table with DATE: 2024-07-08
WARNING: 2 of 5000000 force values in table POT are inconsistent with -dE/dr.
WARNING:  Should only be flagged at inflection points (src/pair_table.cpp:466)
pair_coeff * * threebody/table swapMech.3b NULL NULL PA PB

molecule CL molecule.patchy.CL
Read molecule template CL:
# Patchy Cross-Linker
  1 molecules
  0 fragments
  5 atoms with max type 3
  4 bonds with max type 1
  0 angles with max type 0
  0 dihedrals with max type 0
  0 impropers with max type 0
molecule MO molecule.patchy.MO
Read molecule template MO:
# Patchy Monomer
  1 molecules
  0 fragments
  3 atoms with max type 4
  2 bonds with max type 1
  0 angles with max type 0
  0 dihedrals with max type 0
  0 impropers with max type 0

region spawn_box block -10 10 -10 10 -10 10

create_atoms 0 random 50 34512 spawn_box mol CL 34512 overlap 1.0 maxtry 5000
Created 250 atoms
  using lattice units in orthogonal box = (-10 -10 -10) to (10 10 10)
  create_atoms CPU = 0.002 seconds
create_atoms 0 random 450 31245 spawn_box mol MO 31245 overlap 1.0 maxtry 5000
Created 1350 atoms
  using lattice units in orthogonal box = (-10 -10 -10) to (10 10 10)
  create_atoms CPU = 0.009 seconds

group CrossLinker type 1 3
250 atoms in group CrossLinker
group Monomer type 2 4
1350 atoms in group Monomer
group Patches type 3 4
1100 atoms in group Patches
group CL type 1
50 atoms in group CL
group MO type 2
450 atoms in group MO
group CM type 1 2
500 atoms in group CM
group Energy empty
0 atoms in group Energy

fix pCL CrossLinker rigid/small/omp molecule
  create bodies CPU = 0.000 seconds
  50 rigid bodies with 250 atoms
  0.46400431 = max distance from body owner to body atom
fix pMO Monomer rigid/small/omp molecule
  create bodies CPU = 0.000 seconds
  450 rigid bodies with 1350 atoms
  0.5 = max distance from body owner to body atom

neighbor 1.8 bin
neigh_modify exclude molecule/intra CrossLinker
neigh_modify exclude molecule/intra Monomer

fix langevinFix all langevin 0.05 0.05 0.5 12345
thermo 1000

compute t all temp
compute ep all pe
compute ek all ke
compute cluster all aggregate/atom 0.6
compute cc1 all chunk/atom c_cluster compress yes pbc yes
compute size all property/chunk cc1 count
compute vorCompSimple CM voronoi/atom only_group
compute vorCompHisto CM voronoi/atom only_group edge_histo 18 edge_threshold 0

dump dumpID all atom 1000 info/patchyParticles_assembly.dumpf
dump_modify dumpID pbc yes
dump dumpNew all custom 10000000 newdata_assembly.dumpf id type mol x y z c_cluster
dump_modify dumpNew delay 10000000
dump dumpVor CM custom 10000000 info/voronoiSimple_assembly.dumpf c_vorCompSimple[1] c_vorCompSimple[2]
dump_modify dumpVor delay 10000000

fix fixvorHisto CM ave/time 1 1 10000000 c_vorCompHisto file info/vorHisto_assembly.fixf mode vector
fix fixEng Energy ave/time 1 1 10 c_t c_ep c_ek file info/energy_assembly.fixf
fix 1 all ave/time 1 1 10000000 c_size file info/sizeCluster_assembly.fixf mode vector

timestep 0.005
 run 10000000
WARNING: Using a manybody potential with bonds/angles/dihedrals and special_bond exclusions (src/pair.cpp:242)
Hybrid pair style last /omp style table/omp
Last active /omp style is pair_style table/omp
WARNING: More than one fix rigid command (src/RIGID/fix_rigid_small.cpp:529)
WARNING: More than one fix rigid command (src/RIGID/fix_rigid_small.cpp:529)
Neighbor list info ...
  update: every = 1 steps, delay = 0 steps, check = yes
  max neighbors/atom: 2000, page size: 100000
  master list distance cutoff = 2.92
  ghost atom cutoff = 2.92
  binsize = 1.46, bins = 14 14 14
  7 neighbor lists, perpetual/occasional/extra = 6 1 0
  (1) pair zero, perpetual, skip from (6)
      attributes: half, newton on, omp
      pair build: skip/omp
      stencil: none
      bin: none
  (2) pair lj/cut/omp, perpetual, skip from (6)
      attributes: half, newton on, omp
      pair build: skip/omp
      stencil: none
      bin: none
  (3) pair table/omp, perpetual, skip from (6)
      attributes: half, newton on, omp, cut 2.4
      pair build: skip/omp
      stencil: none
      bin: none
  (4) pair threebody/table, perpetual, skip from (7)
      attributes: full, newton on, omp, cut 2.4
      pair build: skip/omp
      stencil: none
      bin: none
  (5) compute aggregate/atom, occasional
      attributes: full, newton on, omp
      pair build: full/bin/omp
      stencil: full/bin/3d
      bin: standard
  (6) neighbor class addition, perpetual
      attributes: half, newton on, omp
      pair build: half/bin/newton/omp
      stencil: half/bin/3d
      bin: standard
  (7) neighbor class addition, perpetual
      attributes: full, newton on, omp, cut 2.4
      pair build: full/bin/omp
      stencil: full/bin/3d
      bin: standard
WARNING: Dump dumpVor includes no atom IDs and is not sorted by ID. This may complicate post-processing tasks or visualization (src/dump.cpp:219)
Per MPI rank memory allocation (min/avg/max) = 20.29 | 20.3 | 20.3 Mbytes
   Step          Temp          E_pair         E_mol          TotEng         Press     
         0   0              4.7648482e-05  0              4.7648482e-05  0.0023423259 
      1000   0.051112892   -0.0089011285   0              0.031781539    0.0057203282 
      2000   0.050820922   -0.027981416    0              0.012468861    0.00012762806
      3000   0.051778501   -0.041485638    0             -0.00027318755  0.0051830376 
      4000   0.051504309   -0.055611017    0             -0.014616807    0.0024240367 
      5000   0.053194313   -0.069144948    0             -0.026805599    0.0038968488 
      6000   0.051052328   -0.082807591    0             -0.042173129    0.0027605348 
      7000   0.050371262   -0.097403154    0             -0.057310778    0.0062749156 
      8000   0.049680777   -0.10403375     0             -0.064490961    0.002665788  
      9000   0.05130619    -0.10302057     0             -0.062184048    0.0032444164 
     10000   0.051560672   -0.11751627     0             -0.0764772      0.0017206809 
     11000   0.049386794   -0.12471853     0             -0.085409725    0.0065871474 
     12000   0.051471138   -0.13040384     0             -0.089436028    0.00025361115
     13000   0.049039277   -0.13072711     0             -0.091694914    0.005720144  
     14000   0.04934839    -0.13931364     0             -0.1000354      0.0059034687 
     15000   0.051799365   -0.14458677     0             -0.10335771     0.011987863  
     16000   0.051576415   -0.14478535     0             -0.10373375    -0.0050236911 
     17000   0.051775523   -0.15371121     0             -0.11250113    -0.00019544072
     18000   0.050913997   -0.15581579     0             -0.11529143     0.0052307182 
     19000   0.048938961   -0.15888569     0             -0.11993333     0.0018419679 
     20000   0.052017942   -0.16071374     0             -0.11931071     0.0061442985 
     21000   0.049875486   -0.16150461     0             -0.12180684     0.0074463732 
     22000   0.050021393   -0.16546202     0             -0.12564812    -0.0040823722 
     23000   0.0486849     -0.1693333      0             -0.13058316     0.0052573743 
     24000   0.051986225   -0.17348959     0             -0.1321118      0.0094576973 
     25000   0.050030196   -0.18147813     0             -0.14165722     0.0056529749 
     26000   0.050912595   -0.18328378     0             -0.14276054    -0.0024893642 
     27000   0.050967998   -0.18487221     0             -0.14430487     0.0019091889 
     28000   0.051447708   -0.1889311      0             -0.14798194     0.0019361071 
     29000   0.052334701   -0.18973384     0             -0.14807869    -0.0024163846 
     30000   0.050835753   -0.19192018     0             -0.1514581      0.0027474984 
     31000   0.048902753   -0.19447547     0             -0.15555194     0.0021890006 
     32000   0.051137517   -0.19398246     0             -0.15328019     0.00013888264
     33000   0.051864156   -0.19906061     0             -0.15777999    -0.0012925444 
     34000   0.049354732   -0.20379782     0             -0.16451454     0.0011232389 
     35000   0.051321428   -0.20657386     0             -0.16572521     0.0031281778 
     36000   0.04712328    -0.20834403     0             -0.17083685    -0.00088157267
     37000   0.050306297   -0.21060383     0             -0.17056316     0.0018456689 
     38000   0.048420735   -0.21233822     0             -0.17379834    -0.0040697683 
     39000   0.051730991   -0.21566658     0             -0.17449195     0.0043512954 
     40000   0.048334697   -0.21801641     0             -0.17954501     0.0011331973 
     41000   0.049489475   -0.21843747     0             -0.17904694     0.0019318229 
     42000   0.050529054   -0.21988263     0             -0.17966466     0.00067354399
     43000   0.051179961   -0.22169629     0             -0.18096024     0.0029271633 
     44000   0.051915118   -0.2210956      0             -0.17977441     0.00025102854
     45000   0.052680688   -0.22589429     0             -0.18396376     0.0047228194 
     46000   0.05110243    -0.20567878     0             -0.16500444     9.0366525e-05
     47000   0.050563291   -0.22974379     0             -0.18949857     0.0039839397 
     48000   0.052392783   -0.23003297     0             -0.18833159     0.0029804085 
     49000   0.047598465   -0.23264327     0             -0.19475787     0.0037545825 
     50000   0.050166414   -0.23308669     0             -0.19315736     0.0022109941 
     51000   0.049801434   -0.23504931     0             -0.19541048    -0.0028369129 
     52000   0.050032694   -0.23493677     0             -0.19511387     0.0018522246 
     53000   0.051550983   -0.22955465     0             -0.18852329     0.0019921688 
     54000   0.049883385   -0.23716157     0             -0.19745751     0.0063865626 
     55000   0.049001969   -0.23855097     0             -0.19954846    -0.0056994498 
     56000   0.050749124   -0.23866856     0             -0.19827543    -0.0063700438 
     57000   0.050588465   -0.23814968     0             -0.19788442     0.0033915123 
     58000   0.049074788   -0.23990245     0             -0.20084198     0.0083085441 
     59000   0.051100477   -0.24068673     0             -0.20001394     0.00052716946
     60000   0.048599315   -0.23721478     0             -0.19853277     0.0018175074 
     61000   0.052802703   -0.24247463     0             -0.20044698     0.0055814351 
     62000   0.046951483   -0.24231235     0             -0.20494191     0.00621392   
     63000   0.050747879   -0.23483724     0             -0.1944451      0.0018752293 
     64000   0.047765386   -0.24177296     0             -0.20375469     0.0053425108 
     65000   0.051856898   -0.24252057     0             -0.20124572     0.0010863955 
     66000   0.050330941   -0.24564832     0             -0.20558804     0.0030825718 
     67000   0.049366217   -0.24370668     0             -0.20441426    -0.0038182014 
     68000   0.051931944   -0.2441589      0             -0.20282432     0.0019060427 
     69000   0.048936618   -0.24487838     0             -0.20592789     0.01100131   
     70000   0.0513836     -0.24716817     0             -0.20627004    -0.0059819984 
     71000   0.051792241   -0.24763798     0             -0.20641459    -0.0013268096 
     72000   0.05318111    -0.24945585     0             -0.20712701     0.0046700908 
     73000   0.050972446   -0.25031723     0             -0.20974635    -0.0071529045 
     74000   0.051292536   -0.25144916     0             -0.2106235      0.0027809005 
     75000   0.048773384   -0.25359227     0             -0.2147717      0.0096373462 
     76000   0.049216411   -0.25363203     0             -0.21445884    -0.0013081295 
     77000   0.049833022   -0.25439449     0             -0.21473052     0.0039983606 
     78000   0.047649618   -0.25436946     0             -0.21644334     0.0025943452 
     79000   0.050916347   -0.25321598     0             -0.21268975     0.0023199691 
     80000   0.050258083   -0.25355659     0             -0.2135543      0.0041023198 
     81000   0.050247178   -0.25365154     0             -0.21365793    -0.0024343286 
     82000   0.050119867   -0.25282927     0             -0.21293699     0.0023300725 
     83000   0.050916968   -0.2570164      0             -0.21648967    -0.004847922  
     84000   0.050032031   -0.25770639     0             -0.21788402     0.0014133487 
     85000   0.048386691   -0.25896037     0             -0.22044759     0.0020606243 
     86000   0.046137577   -0.25879322     0             -0.22207059    -0.0019239242 
     87000   0.049678865   -0.25897735     0             -0.21943608    -0.0058512764 
     88000   0.048408034   -0.24775648     0             -0.20922671     0.0019988656 
     89000   0.050430132   -0.24953036     0             -0.20939112     0.0055876883 
     90000   0.04969503    -0.25645914     0             -0.216905      -0.0024384241 
     91000   0.049723261   -0.26291957     0             -0.22334297     0.00013494916
     92000   0.050601005   -0.26211291     0             -0.22183767     0.0030319645 
     93000   0.049965542   -0.26161639     0             -0.22184694    -0.0061433375 
     94000   0.047275533   -0.26383055     0             -0.22620218     0.0067523021 
     95000   0.049151344   -0.26465773     0             -0.22553633    -0.0010160429 
     96000   0.048024473   -0.26461647     0             -0.22639199    -0.0016630004 
     97000   0.051498591   -0.25952008     0             -0.21853042     0.0067573687 
     98000   0.049881955   -0.25976791     0             -0.22006499     0.00014198835
     99000   0.053725318   -0.26552124     0             -0.22275924    -0.003060616  
    100000   0.048825236   -0.26560064     0             -0.2267388      0.005232665  
    101000   0.050676286   -0.26559175     0             -0.2252566     -0.0018907419 
    102000   0.050395283   -0.26610084     0             -0.22598935     0.0051517432 
    103000   0.051695987   -0.2666614      0             -0.22551462     0.0097405775 
    104000   0.051383756   -0.26840504     0             -0.22750678    -0.0012679955 
    105000   0.050652068   -0.26915585     0             -0.22883997     0.003296987  
    106000   0.050962516   -0.26848902     0             -0.22792604     0.0037825192 
    107000   0.050633243   -0.26890196     0             -0.22860106    -0.0055326654 
    108000   0.047400012   -0.26938838     0             -0.23166093     0.0040359037 
    109000   0.051956916   -0.26524698     0             -0.22389252     0.0032334785 
    110000   0.050349765   -0.26988812     0             -0.22981285     0.0014530902 
    111000   0.049804277   -0.27087869     0             -0.23123759     0.0090758255 
    112000   0.048097139   -0.26867606     0             -0.23039374     0.0074164386 
    113000   0.050702455   -0.27062287     0             -0.23026688    -0.0040488409 
    114000   0.049357552   -0.26789849     0             -0.22861296     0.001885483  
    115000   0.051373519   -0.2707002      0             -0.22981009     0.011986984  
    116000   0.049880455   -0.26772076     0             -0.22801904     0.0027715047 
    117000   0.051351954   -0.26936343     0             -0.22849048    -0.0064765786 
    118000   0.052737533   -0.27166357     0             -0.22968779    -0.0022277414 
    119000   0.053425465   -0.27087678     0             -0.22835345     0.0044955596 
    120000   0.052093136   -0.27145959     0             -0.22999671    -0.0013484785 
    121000   0.047830297   -0.27207448     0             -0.23400456    -0.0033050182 
    122000   0.050141025   -0.27420752     0             -0.2342984      0.0015901834 
    123000   0.051131978   -0.2730083      0             -0.23231044    -0.00098452089
    124000   0.049828624   -0.27466036     0             -0.23499989     0.00021530846
    125000   0.051592674   -0.27345739     0             -0.23239284    -0.00032508699
    126000   0.052645842   -0.27365583     0             -0.23175303     0.0039776609 
    127000   0.048698954   -0.27437        0             -0.23560868     0.00086381872
    128000   0.048444129   -0.2732248      0             -0.2346663     -0.0015942069 
    129000   0.052009576   -0.27400188     0             -0.23260551    -0.0040241591 
    130000   0.051895235   -0.27414191     0             -0.23283655     0.0043594241 
    131000   0.047811349   -0.2749674      0             -0.23691256    -0.00018644041
    132000   0.051657928   -0.274776       0             -0.23365952     0.0020021283 
    133000   0.050057279   -0.2756606      0             -0.23581814     0.0026550923 
    134000   0.049693908   -0.27773692     0             -0.23818367    -0.0041461715 
    135000   0.048568436   -0.27237928     0             -0.23372184    -0.0033326926 
    136000   0.047059418   -0.27664582     0             -0.23918947    -0.0013532172 
    137000   0.049709622   -0.27566639     0             -0.23610064    -0.0082519859 
    138000   0.05289542    -0.27616454     0             -0.2340631     -0.0039506147 
    139000   0.049625459   -0.27699517     0             -0.23749641     0.0021237001 
    140000   0.051491071   -0.27671997     0             -0.23573629    -0.00093277692
    141000   0.049339393   -0.27709536     0             -0.23782429    -6.3799242e-05
    142000   0.051879046   -0.27638167     0             -0.23508919     0.0021370867 
    143000   0.050759801   -0.27667753     0             -0.23627591    -0.00053537137
    144000   0.051437003   -0.27688408     0             -0.23594344     0.0030080313 
    145000   0.053016792   -0.27207721     0             -0.22987916     0.0020211713 
    146000   0.049124927   -0.27300241     0             -0.23390204     0.0099334481 
    147000   0.049213082   -0.27769676     0             -0.23852622     0.00030039717
    148000   0.051858057   -0.27776715     0             -0.23649138    -0.0020111946 
    149000   0.050254569   -0.2764352      0             -0.2364357      0.0062673772 
    150000   0.048727707   -0.27855442     0             -0.23977021     0.0011114432 
    151000   0.050395644   -0.2802513      0             -0.24013951    -0.000987888  
    152000   0.052608735   -0.27954133     0             -0.23766806    -0.0034920884 
    153000   0.051201676   -0.27284197     0             -0.23208864    -0.0056068143 
    154000   0.050505871   -0.27904422     0             -0.2388447      0.0036119065 
    155000   0.049069788   -0.2796323      0             -0.24057582     0.00041731364
    156000   0.051901158   -0.27908362     0             -0.23777354     0.0054563945 
    157000   0.049939328   -0.28077496     0             -0.24102638    -0.00029756244
    158000   0.0503746     -0.27149459     0             -0.23139956     0.002838499  
    159000   0.053773435   -0.27838403     0             -0.23558373     0.0029321056 
    160000   0.053350868   -0.2838644      0             -0.24140044     0.0060375118 
    161000   0.04853105    -0.27757635     0             -0.23894867    -0.0018310286 
    162000   0.049056799   -0.28171492     0             -0.24266877    -0.0041056334 
    163000   0.051190092   -0.28325263     0             -0.24250852     0.0092914321 
    164000   0.049852034   -0.28271837     0             -0.24303927     0.0049329766 
    165000   0.04944286    -0.28197784     0             -0.24262441     0.002710275  
    166000   0.052263117   -0.2824828      0             -0.24088463     0.00012101083
    167000   0.052577686   -0.28263981     0             -0.24079126    -0.0041507404 
    168000   0.050595568   -0.28265175     0             -0.24238084    -0.0012347094 
    169000   0.04965066    -0.28476129     0             -0.24524246    -0.001641014  
    170000   0.053296466   -0.28358806     0             -0.24116741    -4.7312978e-05
    171000   0.051528961   -0.27337581     0             -0.23236198     0.0058083046 
    172000   0.049522344   -0.28463775     0             -0.24522106     0.00033221672
    173000   0.049488784   -0.28412676     0             -0.24473678    -0.0018624631 
    174000   0.049794596   -0.282805       0             -0.24317161     0.0030251203 
    175000   0.047705508   -0.27842309     0             -0.24045249     0.00024377594
    176000   0.049016025   -0.28014858     0             -0.24113489     0.0056479804 
    177000   0.052015632   -0.28396501     0             -0.24256382    -0.0044034564 
    178000   0.047546808   -0.28438027     0             -0.24653598     0.0085980203 
    179000   0.048977436   -0.28347643     0             -0.24449345    -0.004995981  
    180000   0.049948211   -0.28450242     0             -0.24474676    -0.0013112215 
    181000   0.049379881   -0.27839839     0             -0.23909509    -0.0093580415 
    182000   0.049272019   -0.28427746     0             -0.24506001     0.0068132594 
    183000   0.048256821   -0.28514348     0             -0.24673407     0.0030863318 
    184000   0.052196894   -0.28566128     0             -0.24411582    -0.0023758696 
    185000   0.051731424   -0.28515077     0             -0.24397578     0.00027885765
    186000   0.050302178   -0.28491234     0             -0.24487495     0.0017663117 
    187000   0.050450251   -0.28515687     0             -0.24500162     0.001688108  
    188000   0.049507746   -0.28630606     0             -0.24690099     0.0018868379 
    189000   0.050316432   -0.28178013     0             -0.2417314      0.00075405308
    190000   0.049706667   -0.28667498     0             -0.24711158    -0.0028641653 
    191000   0.05076642    -0.28087393     0             -0.24046703    -0.0025902049 
    192000   0.049332074   -0.28599333     0             -0.24672808    -0.0016843798 
    193000   0.050156316   -0.28657129     0             -0.24665       -0.00028111061
    194000   0.048969062   -0.28391492     0             -0.24493861    -0.0065193297 
    195000   0.048720894   -0.2874918      0             -0.24871301    -0.0047739128 
    196000   0.051433245   -0.28575135     0             -0.2448137     -0.0086799876 
    197000   0.050320304   -0.28574272     0             -0.24569091     0.0099526211 
    198000   0.050724942   -0.28495355     0             -0.24457967     0.00016137832
    199000   0.050908862   -0.28757978     0             -0.2470595      0.0039536288 
    200000   0.050127698   -0.28815003     0             -0.24825152    -0.00031050818
    201000   0.05072855    -0.28622871     0             -0.24585196     0.0011210266 
    202000   0.051708159   -0.28603244     0             -0.24487598     0.0014876121 
    203000   0.050472038   -0.28670764     0             -0.24653505     0.0054453711 
    204000   0.05209727    -0.28077633     0             -0.23931016    -0.00067370322
    205000   0.047654556   -0.28254276     0             -0.24461271    -0.00043127515
    206000   0.04817983    -0.28736704     0             -0.24901891    -0.0020159943 
    207000   0.051147965   -0.28808867     0             -0.24737809    -0.0022555237 
    208000   0.049996861   -0.28736295     0             -0.24756858    -0.0021617155 
    209000   0.049274458   -0.28682205     0             -0.24760267    -0.0031411811 
    210000   0.048632659   -0.28879944     0             -0.25009089    -0.0072157109 
    211000   0.047001537   -0.28688109     0             -0.2494708      0.0024170223 
    212000   0.047754168   -0.28754234     0             -0.249533      -0.0037233022 
    213000   0.051265077   -0.28782307     0             -0.24701927     0.0044725305 
    214000   0.04851755    -0.28575314     0             -0.24713621    -0.00056629906
    215000   0.050833894   -0.29018553     0             -0.24972492    -0.0012945951 
    216000   0.048298114   -0.28905094     0             -0.25060866     0.00242317   
    217000   0.050913174   -0.28295007     0             -0.24242637    -0.0049166974 
    218000   0.049052356   -0.2877066      0             -0.24866399    -0.0067170621 
    219000   0.049475177   -0.28853215     0             -0.249153       0.0037920245 
    220000   0.049803074   -0.28808892     0             -0.24844878     0.0025802084 
    221000   0.051969464   -0.2885204      0             -0.24715596    -0.0017503975 
    222000   0.051761794   -0.28794737     0             -0.24674821    -0.0027071229 
    223000   0.048163237   -0.28826026     0             -0.24992533     0.0008270488 
    224000   0.049642334   -0.28826403     0             -0.24875183     0.0024949606 
    225000   0.051197591   -0.28753797     0             -0.24678788    -0.0023433995 
    226000   0.051877895   -0.28902986     0             -0.2477383      0.00080504277
    227000   0.050724299   -0.2882094      0             -0.24783603     0.00057372881
    228000   0.048071495   -0.28869549     0             -0.25043359    -0.0063141288 
    229000   0.050084785   -0.28904185     0             -0.24917749     0.0086649918 
    230000   0.05128526    -0.28876784     0             -0.24794798     0.00063298669
    231000   0.049108422   -0.2889702      0             -0.24988297    -0.0042389932 
    232000   0.050196477   -0.28777499     0             -0.24782173    -0.0017473581 
    233000   0.052944584   -0.28876017     0             -0.24661959     0.0019112593 
    234000   0.051383364   -0.28438273     0             -0.24348479     0.0040945024 
    235000   0.052107675   -0.2846819      0             -0.24320745    -0.0055345039 
    236000   0.051931893   -0.28786858     0             -0.24653404    -0.0015642305 
    237000   0.049382645   -0.29120674     0             -0.25190124     0.00059325368
    238000   0.052033135   -0.28590336     0             -0.24448824     0.0050368134 
    239000   0.051004717   -0.29197886     0             -0.25138229    -0.0075251911 
    240000   0.048646189   -0.29098006     0             -0.25226074     0.0051532222 
    241000   0.049484499   -0.2862351      0             -0.24684853    -0.0030893256 
    242000   0.048000994   -0.29266718     0             -0.25446139     0.0046822968 
    243000   0.052045603   -0.29146426     0             -0.25003921     0.0024402094 
    244000   0.050165382   -0.28764499     0             -0.24771648    -0.0069349458 
    245000   0.04932816    -0.28903301     0             -0.24977088    -0.0018918224 
    246000   0.051374794   -0.28860822     0             -0.2477171     -0.0036902125 
    247000   0.05059095    -0.28664694     0             -0.2463797      0.0017765445 
    248000   0.048099531   -0.28689344     0             -0.24860921     1.6545819e-05
    249000   0.05032659    -0.29294081     0             -0.25288399     0.0019066721 
    250000   0.048261321   -0.29389963     0             -0.25548664     0.00056485679
    251000   0.049291248   -0.29298216     0             -0.25374941     0.0081853579 
    252000   0.04879225    -0.2941558      0             -0.25532022    -0.00051874084
    253000   0.053425027   -0.28824916     0             -0.24572618    -0.0018870836 
    254000   0.049249946   -0.29306749     0             -0.25386762     0.0095751649 
    255000   0.049221457   -0.29361592     0             -0.25443872    -0.00064767711
    256000   0.049125236   -0.29326385     0             -0.25416323     0.0043448123 
    257000   0.0470373     -0.29323868     0             -0.25579993    -0.0070556148 
    258000   0.049172334   -0.29334143     0             -0.25420333     0.0055816555 
    259000   0.051651063   -0.29396099     0             -0.25284997    -0.0023075601 
    260000   0.050367186   -0.29437432     0             -0.25428519     0.0034854062 
    261000   0.052737296   -0.29268948     0             -0.25071389    -0.0016152753 
    262000   0.049069509   -0.29359786     0             -0.2545416     -0.0051261463 
    263000   0.052873279   -0.29383055     0             -0.25174673    -0.0036347968 
    264000   0.052866086   -0.29394437     0             -0.25186627     0.0083524202 
    265000   0.051160007   -0.29406213     0             -0.25334196     0.0017573561 
    266000   0.053108931   -0.29356721     0             -0.25129582    -0.0037259077 
    267000   0.052220501   -0.29306001     0             -0.25149575    -0.0014480841 
    268000   0.051114245   -0.28366795     0             -0.2429842      0.0026622348 
    269000   0.048191843   -0.29339672     0             -0.25503902    -0.0024572824 
    270000   0.049961891   -0.29328205     0             -0.25351551    -0.0013810769 
    271000   0.049592037   -0.29315088     0             -0.25367872    -0.0031044934 
    272000   0.049038023   -0.2928106      0             -0.2537794     -0.0024251057 
    273000   0.049407487   -0.29340184     0             -0.25407657     0.0023370306 
    274000   0.050782752   -0.29447383     0             -0.25405394    -0.0046163321 
    275000   0.049232937   -0.29260784     0             -0.2534215      0.0012403993 
    276000   0.04995712    -0.2934729      0             -0.25371015     0.00089820836
    277000   0.051698739   -0.29403935     0             -0.25289038     0.0014254747 
    278000   0.050178296   -0.29266858     0             -0.25272979     6.8275605e-06
    279000   0.0488355     -0.29378845     0             -0.25491844    -0.0029214616 
    280000   0.051426416   -0.29352252     0             -0.25259031     0.00063742936
    281000   0.05210475    -0.29212575     0             -0.25065363     0.0026935877 
    282000   0.050556424   -0.28749072     0             -0.24725097    -0.002871598  
    283000   0.051641745   -0.2911566      0             -0.250053       0.0018104846 
    284000   0.051522266   -0.29506687     0             -0.25405836    -0.0028891798 
    285000   0.051113969   -0.29501454     0             -0.25433102     0.0046821087 
    286000   0.048656172   -0.28824252     0             -0.24951525    -0.0022784733 
    287000   0.050555519   -0.2951046      0             -0.25486556     0.00086337716
    288000   0.05115134    -0.29543858     0             -0.25472531     0.0038294943 
    289000   0.048260422   -0.29585641     0             -0.25744414     0.0064006076 
    290000   0.051488473   -0.29568694     0             -0.25470533    -0.0023819495 
    291000   0.04870256    -0.29558599     0             -0.2568218      0.0030977935 
    292000   0.049245694   -0.29384201     0             -0.25464551     0.0076876798 
    293000   0.04766716    -0.29706049     0             -0.25912041     0.0058634158 
    294000   0.049271048   -0.29645346     0             -0.25723678     0.0037052527 
    295000   0.051504233   -0.29604597     0             -0.25505182     0.0010201818 
    296000   0.047745885   -0.29794731     0             -0.25994457    -0.0027584368 
    297000   0.050667234   -0.29696312     0             -0.25663517     0.0027515321 
    298000   0.051436768   -0.29602501     0             -0.25508456     0.001065593  
    299000   0.049989198   -0.29677027     0             -0.25698199    -0.0055868058 
    300000   0.050420062   -0.29771102     0             -0.2575798      0.010479158  
    301000   0.049209657   -0.29818782     0             -0.25902001     0.0012037662 
    302000   0.053357749   -0.29782786     0             -0.25535842    -0.001739266  
    303000   0.047697749   -0.29792921     0             -0.25996479     0.0012173049 
    304000   0.051168621   -0.29785215     0             -0.25712513    -0.0048653185 
    305000   0.051595968   -0.29826042     0             -0.25719325    -0.0059823516 
    306000   0.049860404   -0.29798387     0             -0.2582981     -0.0007067745 
    307000   0.051254654   -0.29839982     0             -0.25760432     0.0034124531 
    308000   0.051232737   -0.2978592      0             -0.25708114    -0.002814114  
    309000   0.050248062   -0.29860964     0             -0.25861532     0.0018418268 
    310000   0.048298035   -0.29725276     0             -0.25881054     0.0022316929 
    311000   0.049048874   -0.29869228     0             -0.25965245     0.0010250384 
    312000   0.050952404   -0.29843433     0             -0.2578794      0.0022695065 
    313000   0.050127159   -0.29813968     0             -0.25824159     0.0032706419 
    314000   0.050988032   -0.29865956     0             -0.25807627     0.0018718935 
    315000   0.050324249   -0.29843074     0             -0.25837578     0.0023861568 
    316000   0.051935558   -0.29689275     0             -0.25555529     0.003533054  
    317000   0.049447811   -0.29800631     0             -0.25864894     0.00022586906
    318000   0.050650977   -0.29704341     0             -0.2567284     -0.0044223121 
    319000   0.050271488   -0.29296509     0             -0.25295213     0.00081829967
    320000   0.048890315   -0.29680292     0             -0.25788928     0.0011836056 
    321000   0.04884369    -0.29756263     0             -0.25868611     0.0024126618 
    322000   0.050166677   -0.29708985     0             -0.25716031     0.0013923637 
    323000   0.048906278   -0.2974803      0             -0.25855396     0.0016792161 
    324000   0.050763222   -0.29689944     0             -0.25649509     0.0043774606 
    325000   0.048598933   -0.2973179      0             -0.25863619    -0.0025724493 
    326000   0.050173441   -0.29044873     0             -0.25051381    -0.0014293737 
    327000   0.050313339   -0.29675031     0             -0.25670403     0.0038852331 
    328000   0.051518947   -0.29686002     0             -0.25585416     0.0038208513 
    329000   0.047820286   -0.29742126     0             -0.25935931    -0.0006473201 
    330000   0.051371699   -0.2952225      0             -0.25433384     0.0013581051 
    331000   0.05082364    -0.29434234     0             -0.2538899     -0.01228996   
    332000   0.050434936   -0.29870254     0             -0.25855948     0.0021547486 
    333000   0.049123661   -0.29316643     0             -0.25406707     0.0061242763 
    334000   0.052734659   -0.29890754     0             -0.25693404    -0.0073339351 
    335000   0.051647422   -0.29838196     0             -0.25727385    -0.0010102385 
    336000   0.048562662   -0.29791152     0             -0.25925868     0.0048167255 
    337000   0.049701752   -0.29924074     0             -0.25968125    -0.0044374474 
    338000   0.04953371    -0.29842891     0             -0.25900318    -0.0073329965 
    339000   0.052786852   -0.29832158     0             -0.25630655    -0.0016387809 
    340000   0.049460802   -0.29929789     0             -0.25993018    -0.0012809215 
    341000   0.051239854   -0.29907193     0             -0.25828821     0.0019372257 
    342000   0.050323626   -0.29954986     0             -0.2594954      0.0053924533 
    343000   0.051293507   -0.29986725     0             -0.25904082     0.0010282991 
    344000   0.050150776   -0.29322595     0             -0.25330907     0.0020973844 
    345000   0.047933656   -0.3003458      0             -0.26219361    -0.002892769  
    346000   0.049129132   -0.29937448     0             -0.26027076     0.0090187214 
    347000   0.049641229   -0.2940119      0             -0.25450058     0.0057998126 
    348000   0.049939913   -0.30120297     0             -0.26145392    -0.001324914  
    349000   0.04906338    -0.29882755     0             -0.25977616     0.0020210837 
    350000   0.052925139   -0.30000614     0             -0.25788103     0.0075275513 
    351000   0.04884214    -0.2998856      0             -0.26101031    -0.0026341413 
    352000   0.050854112   -0.29986393     0             -0.25938724    -0.0020530744 
    353000   0.049256664   -0.29983873     0             -0.26063351     0.0019947229 
    354000   0.049905014   -0.30053919     0             -0.26081792     0.0037667133 
    355000   0.048926568   -0.29702928     0             -0.25808679     0.0015735936 
    356000   0.049603793   -0.29968672     0             -0.2602052     -0.0037850114 
    357000   0.050530277   -0.29941322     0             -0.25919428    -0.0088457297 
    358000   0.051536567   -0.2929266      0             -0.25190672    -0.010787127  
    359000   0.04889951    -0.29938984     0             -0.26046889     0.00017283232
    360000   0.0492548     -0.29952473     0             -0.26032099    -0.0046389826 
    361000   0.051884926   -0.29966063     0             -0.25836347    -0.0010444751 
    362000   0.048980946   -0.30020616     0             -0.26122038    -0.00079269882
    363000   0.049010161   -0.29953287     0             -0.26052384     0.0037528947 
    364000   0.046407606   -0.29964932     0             -0.26271176    -0.00048837382
    365000   0.049693697   -0.29870432     0             -0.25915124     0.0019935597 
    366000   0.050218379   -0.29831483     0             -0.25834414     0.0076032057 
    367000   0.050600273   -0.29379895     0             -0.25352429    -0.0015892229 
    368000   0.047176731   -0.29858215     0             -0.26103242    -0.0014806983 
    369000   0.048536724   -0.29906672     0             -0.26043453    -8.0311535e-05
    370000   0.049193871   -0.29682623     0             -0.25767098     0.0029816883 
    371000   0.050428451   -0.29909954     0             -0.25896164     0.0084786866 
    372000   0.050660339   -0.29809309     0             -0.25777063     0.003912425  
    373000   0.051681398   -0.2975621      0             -0.25642694     0.0043811203 
    374000   0.050741819   -0.29869989     0             -0.25831257    -0.0046596547 
    375000   0.049927631   -0.29892457     0             -0.25918529    -0.001733095  
    376000   0.049124417   -0.29874273     0             -0.25964276     0.0049214521 
    377000   0.051267489   -0.29505986     0             -0.25425414    -0.0054257912 
    378000   0.051425632   -0.29950089     0             -0.2585693     -0.0033524646 
    379000   0.05465281    -0.29968063     0             -0.25618041     0.0091367367 
    380000   0.049370774   -0.29720919     0             -0.25791314    -0.0020576919 
    381000   0.049953684   -0.30003092     0             -0.26027091    -0.0024715823 
    382000   0.05262631    -0.29929628     0             -0.25740903     0.0003766639 
    383000   0.047478582   -0.30082803     0             -0.26303804    -0.0031297241 
    384000   0.04779658    -0.30136727     0             -0.26332418    -0.00024197685
    385000   0.049131685   -0.30205309     0             -0.26294734    -0.0066693589 
    386000   0.050396086   -0.30168924     0             -0.26157711     0.0036523876 
    387000   0.050542175   -0.30211252     0             -0.2618841      0.0055075191 
    388000   0.050293169   -0.30215375     0             -0.26212354    -0.0012116354 
    389000   0.051535988   -0.30224008     0             -0.26122066    -0.0024836549 
    390000   0.052792041   -0.29706186     0             -0.2550427     -0.00029271781
    391000   0.052703674   -0.30231279     0             -0.26036396    -0.0021557742 
    392000   0.049621669   -0.30081602     0             -0.26132027     0.00666475   
    393000   0.05156677    -0.30388399     0             -0.26284007    -0.0040789434 
    394000   0.050799557   -0.30171405     0             -0.26128078    -0.00098989236
    395000   0.050273978   -0.29750492     0             -0.25748998     0.0079331117 
    396000   0.051749544   -0.3021802      0             -0.26099079     0.00031304086
    397000   0.051398251   -0.30164461     0             -0.26073482     0.0034707306 
    398000   0.05255918    -0.30259244     0             -0.26075862     0.0021100578 
    399000   0.049771283   -0.30193881     0             -0.26232398    -0.0044088878 
    400000   0.051402827   -0.30191501     0             -0.26100158     0.0012706654 
    401000   0.050804681   -0.30260632     0             -0.26216897     0.0021849871 
    402000   0.05223655    -0.30247135     0             -0.26089433     0.0085425043 
    403000   0.053432499   -0.30338796     0             -0.26085903     0.0029341053 
    404000   0.048443967   -0.30209034     0             -0.26353197    -0.00047785171
    405000   0.048876973   -0.30265477     0             -0.26375175     0.00096039995
    406000   0.048391332   -0.30268056     0             -0.26416408    -0.0063832987 
    407000   0.048928185   -0.30195467     0             -0.26301089    -0.0016737392 
    408000   0.048403947   -0.3022195      0             -0.26369298     0.00052591902
    409000   0.050867343   -0.3018008      0             -0.26131358    -0.0060046095 
    410000   0.051032234   -0.3027576      0             -0.26213913     0.001627724  
    411000   0.04999351    -0.30356642     0             -0.26377471     0.0053276618 
    412000   0.051857443   -0.30188925     0             -0.26061397    -0.0043108557 
    413000   0.04884074    -0.30250014     0             -0.26362596     0.0084850354 
    414000   0.050439931   -0.30333522     0             -0.26318819    -0.0019996399 
    415000   0.05062373    -0.30335063     0             -0.26305731     0.0006631692 
    416000   0.0492987     -0.30246392     0             -0.26322524     0.0032020778 
    417000   0.050555727   -0.30264047     0             -0.26240127     0.005749852  
    418000   0.050193007   -0.30343094     0             -0.26348045    -0.002072632  
    419000   0.048863355   -0.30208617     0             -0.26319399     0.0028434062 
    420000   0.050700198   -0.30129688     0             -0.26094269    -0.0031492696 
    421000   0.049369231   -0.30185077     0             -0.26255595     0.010748336  
    422000   0.051620481   -0.30203962     0             -0.26095294    -0.0021913171 
    423000   0.05199469    -0.30292209     0             -0.26153756     0.0016847907 
    424000   0.049588314   -0.30215899     0             -0.26268979     0.013045385  
    425000   0.049943296   -0.30210378     0             -0.26235204    -0.0050394394 
    426000   0.050453214   -0.3010887      0             -0.2609311     -0.0094214964 
    427000   0.053381043   -0.30164972     0             -0.25916174    -0.0021704994 
    428000   0.051064094   -0.30325274     0             -0.26260891    -0.00038738899
    429000   0.049152057   -0.30285382     0             -0.26373185    -8.5900078e-05
    430000   0.049106214   -0.30179075     0             -0.26270527     0.0024180215 
    431000   0.047978451   -0.30144081     0             -0.26325296    -0.0092250904 
    432000   0.048923159   -0.3015922      0             -0.26265242    -0.0062154085 
    433000   0.052877786   -0.30235169     0             -0.26026427    -0.0088884896 
    434000   0.048025655   -0.29933041     0             -0.26110499    -0.0077513134 
    435000   0.051394581   -0.30262038     0             -0.2617135     -4.9995355e-06
    436000   0.054245073   -0.30271613     0             -0.25954045    -0.0088182014 
    437000   0.049860834   -0.30270475     0             -0.26301864    -0.00027655584
    438000   0.047865118   -0.30416061     0             -0.26606297     0.0013002908 
    439000   0.051627989   -0.30274572     0             -0.26165307    -0.0025824693 
    440000   0.045887645   -0.30412709     0             -0.26760339    -0.006124401  
    441000   0.049033013   -0.29758063     0             -0.25855342    -0.0022546421 
    442000   0.052086778   -0.30431149     0             -0.26285367    -0.00066821014
    443000   0.048913879   -0.29520573     0             -0.25627334    -0.00033089364
    444000   0.050175629   -0.30419186     0             -0.26425519     0.00019055568
    445000   0.048667875   -0.29710816     0             -0.25837158    -0.0037153881 
    446000   0.050901026   -0.30345535     0             -0.26294132     0.0090899156 
    447000   0.050614189   -0.29970454     0             -0.2594188      0.0041489046 
    448000   0.047675969   -0.30306137     0             -0.26511428    -0.0049120032 
    449000   0.050401277   -0.30297595     0             -0.26285968    -0.0033277141 
    450000   0.049187184   -0.30227228     0             -0.26312236    -0.0052496884 
    451000   0.049312258   -0.3032021      0             -0.26395262    -0.0013045286 
    452000   0.051027279   -0.30171341     0             -0.26109889     0.0033990933 
    453000   0.050900691   -0.30248548     0             -0.26197171    -0.00024161619
    454000   0.051649681   -0.30235254     0             -0.26124262     0.0087560413 
    455000   0.049732368   -0.30190868     0             -0.26232483    -0.00080414664
    456000   0.048093814   -0.29570209     0             -0.25742242     0.0038131172 
    457000   0.049492617   -0.30176632     0             -0.26237329    -0.00069220706
    458000   0.047854185   -0.30207491     0             -0.26398597    -0.00071368674
    459000   0.05038359    -0.30160493     0             -0.26150274    -0.0092191245 
    460000   0.048102694   -0.30197119     0             -0.26368445    -0.002868133  
    461000   0.049512604   -0.3012013      0             -0.26179236     0.0029062713 
    462000   0.04946281    -0.30079443     0             -0.26142512    -0.00074149939
    463000   0.052483624   -0.30096024     0             -0.25918656     3.3457733e-05
    464000   0.049307726   -0.30040531     0             -0.26115944    -0.0034398368 
    465000   0.048710178   -0.30109938     0             -0.26232912    -0.0056807288 
    466000   0.047317538   -0.30254184     0             -0.26488004     0.0011776667 
    467000   0.052578547   -0.30110911     0             -0.25925987     0.0032621482 
    468000   0.050332503   -0.2969256      0             -0.25686408     0.00091018468
    469000   0.0505409     -0.29852513     0             -0.25829773     0.001210315  
    470000   0.050226502   -0.30138086     0             -0.2614037     -0.0038745691 
    471000   0.05172805    -0.30092837     0             -0.25975608    -0.0045946508 
    472000   0.051288618   -0.30111425     0             -0.26029172    -0.0013292373 
    473000   0.0528626     -0.29433819     0             -0.25226287     0.0055961751 
    474000   0.050354575   -0.30059077     0             -0.26051167     0.0075104289 
    475000   0.050213786   -0.30162598     0             -0.26165894     0.0050525788 
    476000   0.048011451   -0.30035972     0             -0.2621456     -0.0058221131 
    477000   0.049513635   -0.30191957     0             -0.26250981    -0.0038227677 
    478000   0.049844993   -0.30048133     0             -0.26080783     0.0006781161 
    479000   0.051290722   -0.30131062     0             -0.26048642     0.0018210673 
    480000   0.048023285   -0.30095098     0             -0.26272745    -0.0062572243 
    481000   0.052248241   -0.29894271     0             -0.25735638     0.0018918552 
    482000   0.052385841   -0.30011723     0             -0.25842138     0.00060892896
    483000   0.049695781   -0.30146077     0             -0.26190604     0.0072591336 
    484000   0.050283084   -0.30151666     0             -0.26149446    -0.0017775378 
    485000   0.050163507   -0.30055364     0             -0.26062663     0.0020776649 
    486000   0.048005786   -0.29530603     0             -0.25709643     0.0026035708 
    487000   0.049715487   -0.30065511     0             -0.26108469    -0.0088757739 
    488000   0.049887693   -0.29877796     0             -0.25907047    -0.0035382326 
    489000   0.049973585   -0.30028979     0             -0.26051394     0.0078019868 
    490000   0.051266994   -0.30060526     0             -0.25979994     0.0023593215 
    491000   0.048128641   -0.30114997     0             -0.26284258     0.0054603285 
    492000   0.048755759   -0.30145259     0             -0.26264605    -0.0029626054 
    493000   0.051350453   -0.30162315     0             -0.2607514     -0.0025560342 
    494000   0.051952583   -0.30177144     0             -0.26042043    -0.003941759  
    495000   0.051671907   -0.30238301     0             -0.2612554     -0.0013312018 
    496000   0.048865692   -0.30149243     0             -0.26259839     0.0070771402 
    497000   0.051370132   -0.29442188     0             -0.25353447    -0.004383106  
    498000   0.048948082   -0.30105037     0             -0.26209076    -0.00016248469
    499000   0.049583993   -0.30011007     0             -0.26064431     0.004886741  
    500000   0.049090091   -0.30247878     0             -0.26340614    -0.0026896582 
    501000   0.049587395   -0.30088234     0             -0.26141388     0.005620486  
    502000   0.049106179   -0.3004333      0             -0.26134785    -4.0396332e-05
    503000   0.050659248   -0.30086523     0             -0.26054363     0.0080940632 
    504000   0.0507395     -0.30051686     0             -0.26013139     0.0067381812 
    505000   0.052284588   -0.30116065     0             -0.25954538     0.0018275741 
    506000   0.048737203   -0.30078462     0             -0.26199285     1.8442716e-05
    507000   0.04891407    -0.29981397     0             -0.26088143     0.0065825461 
    508000   0.049404081   -0.2993371      0             -0.26001454    -0.0014689754 
    509000   0.05159748    -0.29503078     0             -0.25396241    -0.011434367  
    510000   0.049173543   -0.29831648     0             -0.25917742    -0.003788676  
    511000   0.051718058   -0.28313797     0             -0.24197362    -0.0022964918 
    512000   0.048405569   -0.29960082     0             -0.26107302    -0.0011220946 
    513000   0.049664841   -0.29926358     0             -0.25973347    -0.0030988439 
    514000   0.050860476   -0.29719893     0             -0.25671717     0.00078457271
    515000   0.052304158   -0.29693662     0             -0.25530578    -0.0003693988 
    516000   0.053172351   -0.29877869     0             -0.25645683    -0.0065856904 
    517000   0.051995675   -0.29964485     0             -0.25825954     0.0013723582 
    518000   0.051203791   -0.2993759      0             -0.25862088    -0.0047514624 
    519000   0.049037862   -0.29254508     0             -0.25351401     0.0062380435 
    520000   0.04904955    -0.29805536     0             -0.25901498    -0.0027141767 
    521000   0.049613494   -0.2999283      0             -0.26043906    -0.0027525496 
    522000   0.05232043    -0.30049263     0             -0.25884884     0.0093348137 
    523000   0.048325711   -0.29941418     0             -0.26094994     0.006127435  
    524000   0.050239016   -0.30054143     0             -0.26055431     0.0041398918 
    525000   0.052560685   -0.29956274     0             -0.25772772    -0.0019442232 
    526000   0.052367477   -0.29981118     0             -0.25812994    -0.0037023117 
    527000   0.050204932   -0.3000385      0             -0.26007851    -0.0049309284 
    528000   0.052541985   -0.30040262     0             -0.25858248    -0.0044988983 
    529000   0.050488545   -0.30088612     0             -0.26070039    -0.0036294736 
    530000   0.049404252   -0.29822503     0             -0.25890234     0.0012876289 
    531000   0.047478042   -0.30108418     0             -0.26329463     0.0019005049 
    532000   0.049756392   -0.30042058     0             -0.2608176     -0.0033952501 
    533000   0.049539498   -0.30047297     0             -0.26104262    -0.0007756126 
    534000   0.050677925   -0.29263304     0             -0.25229658     0.0016954706 
    535000   0.050148456   -0.28538387     0             -0.24546884     8.9960464e-05
    536000   0.051564398   -0.30210467     0             -0.26106263    -0.0019939563 
    537000   0.049409788   -0.30216001     0             -0.2628329     -0.00066152666
    538000   0.051506259   -0.30294279     0             -0.26194703     0.00043778657
    539000   0.049277604   -0.30312984     0             -0.26390795    -0.0020160481 
    540000   0.047940509   -0.30272877     0             -0.26457112    -0.0034235048 
    541000   0.050127094   -0.30291354     0             -0.26301551    -3.1453815e-05
    542000   0.049899161   -0.29628052     0             -0.2565639      0.00058787624
    543000   0.048207962   -0.30255286     0             -0.26418233     0.0037881623 
    544000   0.051505526   -0.30246135     0             -0.26146617    -0.0045266221 
    545000   0.049952617   -0.30276585     0             -0.26300669    -0.0030762319 
    546000   0.047664883   -0.30283155     0             -0.26489328     0.0015931742 
    547000   0.05071932    -0.30389279     0             -0.26352338     0.0042590698 
    548000   0.049724817   -0.30267229     0             -0.26309444     0.0016390295 
    549000   0.050890227   -0.30343558     0             -0.26293014    -0.0094441496 
    550000   0.053848873   -0.30365931     0             -0.26079898    -0.0027596731 
    551000   0.051321129   -0.30348571     0             -0.2626373     -0.0037346902 
    552000   0.050269808   -0.30262486     0             -0.26261323    -0.0022312746 
    553000   0.050676437   -0.29890415     0             -0.25856888     0.0034091814 
    554000   0.050499781   -0.29777603     0             -0.25758136    -0.0038671856 
    555000   0.049298383   -0.3031995      0             -0.26396107    -0.0015857207 
    556000   0.049976894   -0.29879073     0             -0.25901225     0.00012706523
    557000   0.051160341   -0.29995129     0             -0.25923086     0.00078000989
    558000   0.049062095   -0.29734256     0             -0.2582922      8.7306101e-05
    559000   0.048176176   -0.29921453     0             -0.26086931     0.0027075868 
    560000   0.0494132     -0.30167471     0             -0.2623449      0.0090900128 
    561000   0.050268223   -0.30136162     0             -0.26135125     0.0065130009 
    562000   0.050304011   -0.30144632     0             -0.26140747     0.0011775117 
    563000   0.048600303   -0.30089232     0             -0.26220952    -0.0070784626 
    564000   0.051631628   -0.29934195     0             -0.2582464     -0.0042520374 
    565000   0.048175902   -0.30194077     0             -0.26359576    -0.0036434548 
    566000   0.0510744     -0.30189794     0             -0.26124591    -0.0023656558 
    567000   0.051289171   -0.30256934     0             -0.26174636    -0.0031265854 
    568000   0.047557457   -0.30126331     0             -0.26341054     0.0047688234 
    569000   0.048380197   -0.29449625     0             -0.25598864     0.0036864532 
    570000   0.049846838   -0.30057499     0             -0.26090002     0.0080531713 
    571000   0.054538052   -0.30070289     0             -0.25729401     0.0077689728 
    572000   0.049788765   -0.30190589     0             -0.26227714    -0.0053958415 
    573000   0.049982169   -0.29138486     0             -0.25160217     0.0025491983 
    574000   0.047014243   -0.30167554     0             -0.26425514    -0.0033762005 
    575000   0.050322267   -0.30215676     0             -0.26210338     0.0012045587 
    576000   0.048241273   -0.30140941     0             -0.26301237     0.0022301845 
    577000   0.051713602   -0.30192713     0             -0.26076633    -0.0093132243 
    578000   0.049113945   -0.30159123     0             -0.2624996      0.0046781716 
    579000   0.04970022    -0.30150839     0             -0.26195012    -0.0044389136 
    580000   0.050006897   -0.30286373     0             -0.26306136    -0.0016336208 
    581000   0.051651632   -0.3033304      0             -0.26221893     0.003510289  
    582000   0.05154653    -0.30293227     0             -0.26190445    -0.0030272264 
    583000   0.049716467   -0.30318915     0             -0.26361795    -0.0065868379 
    584000   0.049919152   -0.30313198     0             -0.26339946     0.001142206  
    585000   0.048718641   -0.30212443     0             -0.26334744     0.0016889817 
    586000   0.050009349   -0.3036063      0             -0.26380199     0.002351938  
    587000   0.052461928   -0.30519207     0             -0.26343565     0.0018922342 
    588000   0.05037801    -0.30401509     0             -0.26391734    -0.0021311474 
    589000   0.051718029   -0.303839       0             -0.26267468     0.0037740184 
    590000   0.047869542   -0.30290032     0             -0.26479916    -0.0089694889 
    591000   0.052512187   -0.30358641     0             -0.26178999     0.0030599931 
    592000   0.04854335    -0.30289084     0             -0.26425337     0.0041947431 
    593000   0.052283324   -0.30411504     0             -0.26250078     0.0016388823 
    594000   0.04934744    -0.30415517     0             -0.26487769    -0.0074147823 
    595000   0.048592926   -0.30083323     0             -0.2621563      0.0010089669 
    596000   0.047666781   -0.30347057     0             -0.26553079    -0.002012707  
    597000   0.048910927   -0.30412174     0             -0.2651917     -0.00047495308
    598000   0.051173945   -0.30433887     0             -0.2636076     -0.009178056  
    599000   0.05210007    -0.3038898      0             -0.2624214     -0.0009320918 
    600000   0.047545989   -0.30420336     0             -0.26635973    -0.0033677245 
    601000   0.048492058   -0.30264427     0             -0.26404763    -0.0077441084 
    602000   0.049551447   -0.29923182     0             -0.25979196    -0.00033144318
    603000   0.050790729   -0.30421684     0             -0.26379059     0.00025843744
    604000   0.050869728   -0.30338964     0             -0.26290051     0.0055317662 
    605000   0.05022022    -0.30327969     0             -0.26330753    -0.00048925741
    606000   0.051192584   -0.30162348     0             -0.26087738     0.0012895253 
    607000   0.050696618   -0.30318481     0             -0.26283347    -0.0047365935 
    608000   0.050285333   -0.30427874     0             -0.26425476     0.00093349822
    609000   0.051374704   -0.30410474     0             -0.26321369    -0.0059251621 
    610000   0.048448894   -0.29973082     0             -0.26116853    -0.00013345754
    611000   0.0510882     -0.30299572     0             -0.26233271     0.0020743707 
    612000   0.049466034   -0.29806344     0             -0.25869157     0.0012270922 
    613000   0.051322899   -0.30316211     0             -0.26231229     0.003152765  
    614000   0.0491483     -0.30294276     0             -0.26382379    -0.00734504   
    615000   0.049639007   -0.30218043     0             -0.26267088     0.0060720502 
    616000   0.050272426   -0.30217809     0             -0.26216438    -0.0067011897 
    617000   0.051008605   -0.30294159     0             -0.26234193    -0.0039552196 
    618000   0.047741397   -0.30204729     0             -0.26404812     0.0064290131 
    619000   0.047799065   -0.30172551     0             -0.26368044    -0.00010224804
    620000   0.050311816   -0.29682469     0             -0.25677963    -0.0039902021 
    621000   0.048478637   -0.30255704     0             -0.26397108    -0.0037209879 
    622000   0.052689967   -0.30261276     0             -0.26067484    -0.0052634858 
    623000   0.05029695    -0.3007374      0             -0.26070418     0.00034585861
    624000   0.050455259   -0.30229658     0             -0.26213735    -0.00092139033
    625000   0.049049876   -0.30305347     0             -0.26401283    -0.0005103391 
    626000   0.048752596   -0.30351927     0             -0.26471525    -0.002058884  
    627000   0.051003711   -0.30317498     0             -0.26257921     0.0021701819 
    628000   0.052419971   -0.3022269      0             -0.26050388     0.0017913784 
    629000   0.049717606   -0.30227554     0             -0.26270343     0.0021497444 
    630000   0.050666337   -0.30195454     0             -0.2616273      0.0086466746 
    631000   0.048611393   -0.30108714     0             -0.26239551    -0.0013984091 
    632000   0.051379997   -0.30154186     0             -0.26064659     0.0025388838 
    633000   0.048248464   -0.30258571     0             -0.26418295     0.0041962913 
    634000   0.051891331   -0.30180273     0             -0.26050047    -0.00542028   
    635000   0.048296374   -0.3015813      0             -0.2631404     -0.0017323807 
    636000   0.050732886   -0.30167747     0             -0.26129726     0.0015523656 
    637000   0.047722543   -0.29372731     0             -0.25574315    -0.0025559896 
    638000   0.052048299   -0.30315296     0             -0.26172577     0.00044982241
    639000   0.051994723   -0.30220837     0             -0.26082382    -0.0026824955 
    640000   0.051405721   -0.293847       0             -0.25293125    -0.003390179  
    641000   0.049285452   -0.30349019     0             -0.26426205    -0.00041266811
    642000   0.050543276   -0.29802514     0             -0.25779585     0.0073085597 
    643000   0.049431041   -0.30403705     0             -0.26469303     0.0048969679 
    644000   0.04995951    -0.30389533     0             -0.26413068    -0.0048324238 
    645000   0.050374072   -0.30530674     0             -0.26521213    -0.00096722629
    646000   0.04986029    -0.30369277     0             -0.2640071      0.01096813   
    647000   0.050542431   -0.30370768     0             -0.26347907    -0.0045579413 
    648000   0.049135379   -0.30292439     0             -0.2638157      0.0024309576 
    649000   0.049555744   -0.30525877     0             -0.2658155      0.0013892791 
    650000   0.052360977   -0.3034606      0             -0.26178454     0.0060022724 
    651000   0.051098677   -0.29794147     0             -0.25727011    -0.00093430459
    652000   0.048037138   -0.30362895     0             -0.26539439    -0.0074861126 
    653000   0.050563737   -0.30452708     0             -0.2642815     -0.0087862252 
    654000   0.049797388   -0.30313121     0             -0.2634956      0.0030311477 
    655000   0.05191071    -0.30450634     0             -0.26318866     0.00020127935
    656000   0.048565352   -0.30515006     0             -0.26649508    -0.0081060925 
    657000   0.050708732   -0.30406435     0             -0.26370337     0.008931236  
    658000   0.05145273    -0.30483264     0             -0.26387948     0.001901521  
    659000   0.052222019   -0.30121621     0             -0.25965075    -0.013303335  
    660000   0.048510425   -0.30267585     0             -0.26406458    -0.00014166439
    661000   0.049760817   -0.2982076      0             -0.2586011      0.0021602283 
    662000   0.04971866    -0.30371266     0             -0.26413971    -0.0020939739 
    663000   0.050392741   -0.30355892     0             -0.26344945    -0.0031420674 
    664000   0.051704782   -0.30512208     0             -0.26396831    -0.00071578999
    665000   0.050110608   -0.30477044     0             -0.26488553    -0.0002211779 
    666000   0.049724487   -0.30454858     0             -0.26497099    -0.0048689761 
    667000   0.047911673   -0.30498679     0             -0.26685209    -0.0088861022 
    668000   0.051730135   -0.30446664     0             -0.26329268     0.0035456798 
    669000   0.048657339   -0.30433298     0             -0.26560478     0.00069343411
    670000   0.053195977   -0.30425134     0             -0.26191067    -0.003223017  
    671000   0.053222759   -0.30354988     0             -0.26118789    -0.0037745929 
    672000   0.050885268   -0.30460566     0             -0.26410417    -0.0014391473 
    673000   0.052102158   -0.30426817     0             -0.26279811    -0.0037975654 
    674000   0.05108627    -0.30440804     0             -0.26374657    -0.0052844585 
    675000   0.049740955   -0.30387651     0             -0.26428581     0.0014572045 
    676000   0.049146394   -0.30459175     0             -0.26547429    -0.0042031384 
    677000   0.047907972   -0.30409894     0             -0.26596718     0.0011701218 
    678000   0.051920167   -0.3033642      0             -0.26203899    -0.0025522695 
    679000   0.048756324   -0.30302285     0             -0.26421587     0.00087242198
    680000   0.049704469   -0.30261495     0             -0.2630533      0.0040812951 
    681000   0.048183245   -0.3006131      0             -0.26226225     0.005193702  
    682000   0.05117439    -0.30305849     0             -0.26232687    -0.0043724708 
    683000   0.050872262   -0.30272015     0             -0.26222901     0.007617167  
    684000   0.049677226   -0.30228672     0             -0.26274675    -0.0027879501 
    685000   0.050884667   -0.30072163     0             -0.26022062     0.0082810538 
    686000   0.049037447   -0.30453601     0             -0.26550526     0.0018585098 
    687000   0.050396594   -0.29679414     0             -0.2566816     -0.0010162905 
    688000   0.049086196   -0.30426817     0             -0.26519863     0.0038981022 
    689000   0.050944246   -0.30324185     0             -0.26269342     0.003462316  
    690000   0.04948383    -0.30377565     0             -0.26438961     0.005547394  
    691000   0.05116341    -0.30305035     0             -0.26232748     0.002364731  
    692000   0.052763247   -0.30465488     0             -0.26265863     0.0048954313 
    693000   0.04899895    -0.3050969      0             -0.2660968      0.0010397935 
    694000   0.049698532   -0.30419185     0             -0.26463492     0.0060784763 
    695000   0.052019565   -0.30370996     0             -0.26230564     0.002164928  
    696000   0.049627982   -0.30246625     0             -0.26296548    -0.0016682983 
    697000   0.051072224   -0.30281559     0             -0.26216529     0.0028370461 
    698000   0.050603495   -0.30101338     0             -0.26073616     0.0026935347 
    699000   0.048860326   -0.30121274     0             -0.26232298     0.0049879089 
    700000   0.050621024   -0.30247071     0             -0.26217954    -0.0021554886 
    701000   0.049555896   -0.30268706     0             -0.26324366    -0.0056847049 
    702000   0.052275085   -0.3020657      0             -0.260458       0.0027679767 
    703000   0.04898901    -0.30208236     0             -0.26309017     0.00080920404
    704000   0.051644105   -0.30175182     0             -0.26064634     0.0051815838 
    705000   0.051168917   -0.30029469     0             -0.25956743     0.0069777395 
    706000   0.049611749   -0.30172906     0             -0.26224121     0.00510753   
    707000   0.049161306   -0.30131564     0             -0.26218632     0.0092540818 
    708000   0.052225658   -0.30145579     0             -0.25988743     0.0066648298 
    709000   0.049811782   -0.29512763     0             -0.25548056     0.00025219105
    710000   0.048933258   -0.30310589     0             -0.26415807    -0.005489249  
    711000   0.053473224   -0.29578877     0             -0.25322743    -0.0029775084 
    712000   0.051358225   -0.30222079     0             -0.26134285    -0.00074860309
    713000   0.048717703   -0.30349047     0             -0.26471422     0.0032399773 
    714000   0.049568038   -0.30344964     0             -0.26399658     0.0078233816 
    715000   0.051255375   -0.3018835      0             -0.26108743     0.0089740806 
    716000   0.050365892   -0.30065163     0             -0.26056353     0.0085593851 
    717000   0.050425718   -0.29925459     0             -0.25911887     0.0023436346 
    718000   0.049521481   -0.30336886     0             -0.26395286    -0.0010134472 
    719000   0.048349779   -0.3019386      0             -0.2634552      0.004922526  
    720000   0.048672967   -0.30311643     0             -0.26437579     0.003760964  
    721000   0.053184389   -0.30411075     0             -0.2617793     -0.0069782153 
    722000   0.051391603   -0.30154225     0             -0.26063775     0.00053448256
    723000   0.051745141   -0.30226495     0             -0.26107905     0.0033003792 
    724000   0.049229687   -0.3039518      0             -0.26476805     0.00051906015
    725000   0.048016685   -0.30412398     0             -0.2659057      0.0038742218 
    726000   0.053837376   -0.30287008     0             -0.26001889    -0.0040090434 
    727000   0.052564604   -0.30279416     0             -0.26095602    -0.0015969589 
    728000   0.050506839   -0.30183879     0             -0.2616385     -0.0037083274 
    729000   0.051074356   -0.30347321     0             -0.26282121     0.0051896941 
    730000   0.050791403   -0.30298142     0             -0.26255464     0.00050648422
    731000   0.0508516     -0.30460699     0             -0.26413229    -0.011932153  
    732000   0.050498029   -0.30215642     0             -0.26196314     0.00047778142
    733000   0.052789807   -0.30340255     0             -0.26138517    -0.00048563948
    734000   0.050677894   -0.3021574      0             -0.26182097     0.0031408927 
    735000   0.048660537   -0.30110613     0             -0.26237538     0.00061572842
    736000   0.053077299   -0.29563254     0             -0.25338633    -0.002610623  
    737000   0.049092242   -0.30087506     0             -0.26180071    -0.0015909973 
    738000   0.047657006   -0.30274515     0             -0.26481315     0.0041099063 
    739000   0.049029524   -0.30365346     0             -0.26462903     0.0082593618 
    740000   0.048151158   -0.30488315     0             -0.26655783    -0.00556776   
    741000   0.053116935   -0.30290669     0             -0.26062893    -0.00023669374
    742000   0.050821863   -0.30311355     0             -0.26266252     0.0058065656 
    743000   0.053158466   -0.30196662     0             -0.25965581    -0.0026739552 
    744000   0.0505526     -0.30310876     0             -0.26287205    -0.0057987163 
    745000   0.049110361   -0.30334107     0             -0.26425229     0.0060059889 
    746000   0.050054164   -0.30427294     0             -0.26443295    -0.0011782055 
    747000   0.047345892   -0.3025884      0             -0.26490403     0.0081785538 
    748000   0.049582967   -0.3027626      0             -0.26329766     0.0015433928 
    749000   0.049877918   -0.30215677     0             -0.26245707     0.0002873615 
    750000   0.05101668    -0.30391964     0             -0.26331355    -0.0029212059 
    751000   0.050556351   -0.30303099     0             -0.26279129     0.0014461689 
    752000   0.050501859   -0.30432417     0             -0.26412785    -0.0017515721 
    753000   0.048529506   -0.30432643     0             -0.26569998     0.00167154   
    754000   0.049626314   -0.30317339     0             -0.26367395     4.3534802e-05
    755000   0.051814997   -0.30399923     0             -0.26275773    -0.0034902361 
    756000   0.048391361   -0.30399718     0             -0.26548068     0.0012503553 
    757000   0.052217689   -0.29845965     0             -0.25689763    -0.0028740682 
    758000   0.048091076   -0.29792768     0             -0.25965019     0.011162055  
    759000   0.052024442   -0.29878053     0             -0.25737233     0.0048169301 
    760000   0.049629104   -0.30506061     0             -0.26555894     0.0029185941 
    761000   0.048450891   -0.30249062     0             -0.26392673    -0.00069945026
    762000   0.049802271   -0.30314323     0             -0.26350374     0.0069745334 
    763000   0.052653649   -0.30399908     0             -0.26209007     0.0056312096 
    764000   0.051876529   -0.30302861     0             -0.26173814     0.0030393914 
    765000   0.050510661   -0.3024042      0             -0.26220087     0.010267226  
    766000   0.048854794   -0.3044124      0             -0.26552704     0.0026401559 
    767000   0.049907052   -0.30381532     0             -0.26409243     0.0045504424 
    768000   0.051683915   -0.30260646     0             -0.2614693     -0.0038434042 
    769000   0.051435219   -0.29683305     0             -0.25589383     0.00084116271
    770000   0.050102465   -0.30405938     0             -0.26418095     0.0062679187 
    771000   0.050755376   -0.30252595     0             -0.26212785     0.0040630568 
    772000   0.048404505   -0.30431957     0             -0.2657926     -0.0052354686 
    773000   0.051572023   -0.30529563     0             -0.26424752    -0.00042512668
    774000   0.048815158   -0.30492595     0             -0.26607214    -0.001318114  
    775000   0.049108822   -0.30455641     0             -0.26546886     0.0020541911 
    776000   0.049297742   -0.30452588     0             -0.26528796     0.0055910852 
    777000   0.051459574   -0.3038237      0             -0.2628651     -0.0016951859 
    778000   0.048116537   -0.30390099     0             -0.26560324     0.0015443206 
    779000   0.050919741   -0.30392069     0             -0.26339176    -0.00026605372
    780000   0.050456615   -0.30524576     0             -0.26508545    -0.0042127491 
    781000   0.051169549   -0.30357987     0             -0.26285211    -0.0064797078 
    782000   0.052572677   -0.30284562     0             -0.26100105     0.0072248963 
    783000   0.049829957   -0.30444254     0             -0.264781      -0.00080327909
    784000   0.048670595   -0.30493445     0             -0.2661957      0.0019556708 
    785000   0.049282963   -0.30346398     0             -0.26423782    -0.0059746376 
    786000   0.049621017   -0.30352758     0             -0.26403235     0.00062411003
    787000   0.050484241   -0.30363184     0             -0.26344954     0.0042090726 
    788000   0.050782658   -0.30384727     0             -0.26342745     0.0029441481 
    789000   0.049884978   -0.30239276     0             -0.26268744    -4.7959885e-05
    790000   0.050357549   -0.30321258     0             -0.26313111     0.0016658126 
    791000   0.05021559    -0.30183053     0             -0.26186206    -0.0044621221 
    792000   0.048204353   -0.30159838     0             -0.26323073     0.003569039  
    793000   0.047829339   -0.30263381     0             -0.26456465    -0.0021560858 
    794000   0.0479122     -0.30275723     0             -0.26462211    -0.00058109225
    795000   0.04924631    -0.30191156     0             -0.26271458     0.0019248618 
    796000   0.050129107   -0.30330848     0             -0.26340885    -0.0029453433 
    797000   0.050884209   -0.30271114     0             -0.26221049    -0.0028484699 
    798000   0.050909309   -0.30300847     0             -0.26248784    -0.0033886966 
    799000   0.05120524    -0.30295733     0             -0.26220116     0.0029097108 
    800000   0.049727327   -0.30349993     0             -0.26392009     0.0026488824 
    801000   0.051913105   -0.30249467     0             -0.26117509     0.0024463688 
    802000   0.051656208   -0.30342964     0             -0.26231453    -0.0042344731 
    803000   0.048515753   -0.30317366     0             -0.26455815    -0.00055012689
    804000   0.050842553   -0.30292388     0             -0.26245639    -0.0087670997 
    805000   0.050072287   -0.30256063     0             -0.26270622     0.0051738075 
    806000   0.04889284    -0.30327307     0             -0.26435743     0.0073288559 
    807000   0.051157591   -0.30297547     0             -0.26225723    -0.0021673934 
    808000   0.051877309   -0.30301474     0             -0.26172365     0.0011904811 
    809000   0.051197978   -0.30412235     0             -0.26337196     0.0062250875 
    810000   0.049229896   -0.30399996     0             -0.26481604     0.0084628671 
    811000   0.04946451    -0.30289594     0             -0.26352528    -2.6951914e-05
    812000   0.048800745   -0.30384392     0             -0.26500158     0.0040228153 
    813000   0.051059522   -0.29934275     0             -0.25870256    -0.0059046866 
    814000   0.048960126   -0.30405039     0             -0.26508119    -0.0031728262 
    815000   0.052144924   -0.30249663     0             -0.26099253    -0.0028337675 
    816000   0.048602963   -0.30337281     0             -0.26468789     0.003391259  
    817000   0.049823761   -0.30379245     0             -0.26413585    -0.0091626057 
    818000   0.049935595   -0.30351149     0             -0.26376588    -0.0010887324 
    819000   0.049753578   -0.30184875     0             -0.26224802     0.0052060318 
    820000   0.049678924   -0.30177457     0             -0.26223325    -0.0011220232 
    821000   0.050384195   -0.3007547      0             -0.26065203     0.0020921391 
    822000   0.052615571   -0.29098208     0             -0.24910337    -0.0029266846 
    823000   0.051156004   -0.2985474      0             -0.25783042     0.0026694854 
    824000   0.050610591   -0.3016357      0             -0.26135283     0.00021212025
    825000   0.049582078   -0.3015173      0             -0.26205307     0.003426652  
    826000   0.049359992   -0.29474647     0             -0.255459      -0.008876235  
    827000   0.051197836   -0.30090291     0             -0.26015263    -0.0046463991 
    828000   0.052255555   -0.30074846     0             -0.2591563      0.0012402676 
    829000   0.050155136   -0.3011587      0             -0.26123834    -0.0020580903 
    830000   0.049180961   -0.30326733     0             -0.26412236     0.0023773268 
    831000   0.051555741   -0.30241827     0             -0.26138312    -0.0055126377 
    832000   0.05224246    -0.30260256     0             -0.26102083    -0.0011589141 
    833000   0.051789353   -0.30219205     0             -0.26097097    -0.0054201073 
    834000   0.04997518    -0.30254813     0             -0.26277101     0.00071702205
    835000   0.052067856   -0.30277545     0             -0.26133269     0.003305294  
    836000   0.050338715   -0.30236179     0             -0.26229532     0.0043008021 
    837000   0.050894187   -0.30321208     0             -0.26270349    -0.0025251736 
    838000   0.049219551   -0.30260683     0             -0.26343114    -0.0096477016 
    839000   0.049442345   -0.30305191     0             -0.26369889    -0.004461408  
    840000   0.048796931   -0.30441646     0             -0.26557715     0.0059939573 
    841000   0.048153984   -0.30373031     0             -0.26540275    -0.0010359075 
    842000   0.048636251   -0.3033123      0             -0.26460088     0.0029110752 
    843000   0.049993461   -0.29770122     0             -0.25790955    -0.0061730921 
    844000   0.051504631   -0.30280468     0             -0.26181021     0.0021049429 
    845000   0.049713031   -0.3033483      0             -0.26377984    -0.0039008819 
    846000   0.051061574   -0.30337605     0             -0.26273423    -0.00034947486
    847000   0.049495996   -0.30163178     0             -0.26223606     0.0038341921 
    848000   0.052079851   -0.29668409     0             -0.25523178    -0.0056716707 
    849000   0.049549411   -0.30347454     0             -0.2640363     -0.0032355474 
    850000   0.049333205   -0.30312522     0             -0.26385908    -0.0023100303 
    851000   0.05064546    -0.30361498     0             -0.26330436     0.0095133178 
    852000   0.051081436   -0.30341274     0             -0.26275511     0.0048336819 
    853000   0.050428369   -0.30219397     0             -0.26205614    -0.0011638093 
    854000   0.051608192   -0.30312708     0             -0.26205018    -0.0024256655 
    855000   0.048626168   -0.30239641     0             -0.26369302    -0.00017857943
    856000   0.049188855   -0.30242097     0             -0.26326972     0.0010567206 
    857000   0.050518949   -0.30332137     0             -0.26311144     0.0027403268 
    858000   0.048619405   -0.30318545     0             -0.26448744     0.00090177   
    859000   0.052187255   -0.30238516     0             -0.26084737    -0.0060449256 
    860000   0.050890175   -0.30370144     0             -0.26319605     0.002619689  
    861000   0.053905295   -0.30247573     0             -0.25957049    -0.00063529282
    862000   0.051274852   -0.30413572     0             -0.26332414    -0.002842049  
    863000   0.04872646    -0.30322052     0             -0.2644373      0.0019612184 
    864000   0.053032152   -0.30482602     0             -0.26261574     0.0041319955 
    865000   0.051160128   -0.30376183     0             -0.26304157    -0.0060587648 
    866000   0.051390339   -0.29808081     0             -0.25717731    -0.0017351979 
    867000   0.051800184   -0.30462283     0             -0.26339312     0.0051694716 
    868000   0.051243731   -0.30458568     0             -0.26379887     0.00082679691
    869000   0.052644921   -0.30421944     0             -0.26231738    -0.0025433797 
    870000   0.052014116   -0.30376985     0             -0.26236987    -0.002954637  
    871000   0.049277249   -0.30270948     0             -0.26348787     0.0019937364 
    872000   0.051186591   -0.30298046     0             -0.26223913    -0.0028096916 
    873000   0.053260915   -0.30384662     0             -0.26145426    -0.0060002146 
    874000   0.051619053   -0.3026076      0             -0.26152206     0.0043665539 
    875000   0.049178369   -0.29786667     0             -0.25872377    -0.0056970157 
    876000   0.048212579   -0.3031876      0             -0.2648134      0.00364596   
    877000   0.048993589   -0.3030663      0             -0.26407047     0.0043657604 
    878000   0.048557651   -0.30077617     0             -0.26212731    -0.0064629356 
    879000   0.051653778   -0.30201285     0             -0.26089967     0.0061071926 
    880000   0.051230315   -0.30287611     0             -0.26209998    -0.0038640132 
    881000   0.051317007   -0.30176823     0             -0.2609231     -0.0076021685 
    882000   0.049148168   -0.29136019     0             -0.25224132     0.006565679  
    883000   0.050569171   -0.30327578     0             -0.26302588     0.0066977669 
    884000   0.05119036    -0.29867566     0             -0.25793133    -0.00088611493
    885000   0.048921175   -0.30315312     0             -0.26421492     0.0082167639 
    886000   0.048823352   -0.30273752     0             -0.26387718    -0.0079906934 
    887000   0.052306356   -0.30231399     0             -0.2606814     -0.0075560323 
    888000   0.049953503   -0.30267233     0             -0.26291246    -0.0063394245 
    889000   0.051901334   -0.30247212     0             -0.2611619      0.0072760552 
    890000   0.047306375   -0.30361358     0             -0.26596066    -0.00012615529
    891000   0.051213136   -0.30283551     0             -0.26207305     0.0068167255 
    892000   0.049119517   -0.30350717     0             -0.26441111    -0.0048163662 
    893000   0.048017836   -0.30406888     0             -0.26584968     0.0012664135 
    894000   0.048422249   -0.29477613     0             -0.25623505     0.0072349847 
    895000   0.049572942   -0.30323624     0             -0.26377928     0.0010286753 
    896000   0.050115193   -0.30367933     0             -0.26379077     0.0018463741 
    897000   0.048145459   -0.30152093     0             -0.26320016    -0.0019229915 
    898000   0.051291306   -0.30316354     0             -0.26233886     0.005030739  
    899000   0.053383235   -0.30259649     0             -0.26010677     0.0013493472 
    900000   0.049394783   -0.29866871     0             -0.25935355     0.0014149126 
    901000   0.049217969   -0.3029822      0             -0.26380777     0.0031261284 
    902000   0.053095949   -0.30364168     0             -0.26138063    -0.0038988797 
    903000   0.05097339    -0.30363877     0             -0.26306714     0.009471984  
    904000   0.049566697   -0.30340793     0             -0.26395593    -0.0018720056 
    905000   0.048484367   -0.30347594     0             -0.26488541    -0.0033913272 
    906000   0.048671724   -0.30342887     0             -0.26468922    -0.0045806374 
    907000   0.051568796   -0.30439016     0             -0.26334462    -0.0067278444 
    908000   0.04965344    -0.30396902     0             -0.26444798    -0.0013909463 
    909000   0.050957378   -0.30327611     0             -0.26271723    -0.0002448176 
    910000   0.048788248   -0.30362859     0             -0.26479619    -0.0052830258 
    911000   0.048834916   -0.3037283      0             -0.26485876     0.0059434019 
    912000   0.049928521   -0.30247902     0             -0.26273904     0.003081025  
    913000   0.04787081    -0.30349609     0             -0.26539391    -0.004770686  
    914000   0.05235935    -0.30449083     0             -0.26281606    -0.00089721217
    915000   0.053517766   -0.30368094     0             -0.26108415    -0.00028546957
    916000   0.048949873   -0.30070678     0             -0.26174574     0.0011775946 
    917000   0.049215731   -0.30320122     0             -0.26402857     0.0032281292 
    918000   0.052830595   -0.30365847     0             -0.26160862     2.4863442e-05
    919000   0.049567826   -0.30431161     0             -0.26485872     0.004827036  
    920000   0.050870616   -0.30385026     0             -0.26336043     0.0037107728 
    921000   0.049962746   -0.30347981     0             -0.26371258    -0.0049184907 
    922000   0.052959088   -0.30477629     0             -0.26262416     0.0041686654 
    923000   0.050370649   -0.29867197     0             -0.25858008    -0.0022236106 
    924000   0.051304005   -0.30400512     0             -0.26317034    -0.0025818018 
    925000   0.04872977    -0.30514203     0             -0.26635618    -0.00084887996
    926000   0.050420546   -0.30497046     0             -0.26483886    -0.00045338575
    927000   0.048908863   -0.3047525      0             -0.2658241      0.0011209803 
    928000   0.048100174   -0.29773683     0             -0.2594521      0.0010788613 
    929000   0.048160908   -0.30443017     0             -0.2660971      0.0077524148 
    930000   0.050569468   -0.30248713     0             -0.26223699    -0.0066565301 
    931000   0.047865062   -0.30189608     0             -0.26379848     0.00027484872
    932000   0.049137078   -0.30283918     0             -0.26372913     0.0050707848 
    933000   0.05275629    -0.30478025     0             -0.26278954    -0.00029506107
    934000   0.050527179   -0.30492964     0             -0.26471316     0.0027281001 
    935000   0.053741555   -0.30481326     0             -0.26203834    -0.0026827811 
    936000   0.05165827    -0.30319709     0             -0.26208033    -0.00049055344
    937000   0.050180645   -0.30554086     0             -0.2656002     -0.003572185  
    938000   0.048734488   -0.30668663     0             -0.26789702     0.0090020401 
    939000   0.047715      -0.30390689     0             -0.26592874     0.0028086146 
    940000   0.051063099   -0.30732125     0             -0.26667821     0.0038695188 
    941000   0.050165285   -0.30602769     0             -0.26609926     0.008330742  
    942000   0.050349546   -0.30709649     0             -0.2670214      0.0018785358 
    943000   0.048343999   -0.30726746     0             -0.26878866     0.0026523809 
    944000   0.052040741   -0.30805697     0             -0.2666358     -0.0040241756 
    945000   0.050542368   -0.30710531     0             -0.26687675     0.0023335782 
    946000   0.051467768   -0.30681024     0             -0.26584512     0.0037145533 
    947000   0.051873946   -0.30610101     0             -0.26481259     0.00033522481
    948000   0.05139148    -0.30687323     0             -0.26596882     0.0043325385 
    949000   0.048214779   -0.30663491     0             -0.26825896    -0.0051808638 
    950000   0.05088401    -0.30723319     0             -0.2667327      0.0051793936 
    951000   0.045907761   -0.30633305     0             -0.26979334    -0.00097418943
    952000   0.04893628    -0.30644113     0             -0.26749091     0.002815929  
    953000   0.04975813    -0.30324104     0             -0.26363668     0.0030244045 
    954000   0.049354235   -0.30616167     0             -0.26687878    -0.0017949347 
    955000   0.049285207   -0.30560392     0             -0.26637597     0.0046034183 
    956000   0.0525267     -0.30690762     0             -0.26509965     0.0012750259 
    957000   0.047750037   -0.30153092     0             -0.26352488     0.0028508232 
    958000   0.05415455    -0.3061089      0             -0.26300526    -0.00043664198
    959000   0.052891668   -0.3066068      0             -0.26450834     0.0076855983 
    960000   0.051146052   -0.30397423     0             -0.26326516    -0.0016636849 
    961000   0.050180213   -0.30771153     0             -0.26777122    -0.0015511759 
    962000   0.049406948   -0.30759889     0             -0.26827404    -0.0002826001 
    963000   0.051628919   -0.30690662     0             -0.26581323    -0.004712363  
    964000   0.050300749   -0.30692219     0             -0.26688594     0.0031748416 
    965000   0.050624244   -0.30781772     0             -0.26752399     0.0018294475 
    966000   0.049507525   -0.30746861     0             -0.26806371     0.0050817028 
    967000   0.051279499   -0.3069266      0             -0.26611133    -0.010348119  
    968000   0.048798232   -0.30665226     0             -0.26781192    -0.0037775657 
    969000   0.049539736   -0.30621433     0             -0.2667838      0.0031296225 
    970000   0.05106761    -0.30777077     0             -0.26712414     0.00070155548
    971000   0.05109064    -0.30133967     0             -0.26067472     0.0058293756 
    972000   0.051204805   -0.30876344     0             -0.26800762     0.0038654775 
    973000   0.046531674   -0.30566535     0             -0.26862904    -0.0034665238 
    974000   0.050834118   -0.30620512     0             -0.26574434     0.0076726144 
    975000   0.050058652   -0.30709986     0             -0.2672563     -0.0031320758 
    976000   0.051414843   -0.30061471     0             -0.25969171     0.003843018  
    977000   0.05044869    -0.30326461     0             -0.26311061    -0.007403688  
    978000   0.051577518   -0.30673443     0             -0.26568195     0.0017080842 
    979000   0.050596359   -0.30527315     0             -0.26500161     0.0031331732 
    980000   0.048122148   -0.30725812     0             -0.2689559     -0.012444144  
    981000   0.049373574   -0.30741995     0             -0.26812167    -0.0023467858 
    982000   0.051891693   -0.30055204     0             -0.2592495     -0.00058759051
    983000   0.049696866   -0.30720397     0             -0.26764837    -0.00015376881
    984000   0.049199503   -0.30653574     0             -0.26737601     0.00026591028
    985000   0.049388226   -0.30808804     0             -0.2687781      0.0035882659 
    986000   0.051728351   -0.30101622     0             -0.25984369    -0.0056867857 
    987000   0.050960835   -0.3081031      0             -0.26754146     0.006703315  
    988000   0.052029948   -0.30696541     0             -0.26555282    -0.0038822197 
    989000   0.052822655   -0.30753397     0             -0.26549044     0.0046676388 
    990000   0.04975451    -0.30780565     0             -0.26820417    -0.0019357172 
    991000   0.048433908   -0.30821455     0             -0.26966419    -0.0049926704 
    992000   0.049790401   -0.30797009     0             -0.26834004     0.00074937782
    993000   0.048964331   -0.30753852     0             -0.26856598    -0.0011755304 
    994000   0.050629099   -0.30715308     0             -0.26685548    -0.0036122916 
    995000   0.050709873   -0.30778408     0             -0.26742219     0.0017398908 
    996000   0.049720394   -0.30661368     0             -0.26703935     0.016645587  
    997000   0.050402894   -0.30614117     0             -0.26602362    -0.011624341  
    998000   0.051157161   -0.30763355     0             -0.26691565     0.0050583235 
    999000   0.050121566   -0.30846676     0             -0.26857313     0.0019417498 
   1000000   0.050236509   -0.30863825     0             -0.26865313    -0.0048911996 
   1001000   0.049591321   -0.30795929     0             -0.2684877      0.0019416136 
   1002000   0.047583499   -0.30775601     0             -0.26988252     0.0041875808 
   1003000   0.051051143   -0.30839295     0             -0.26775943     0.0012105236 
   1004000   0.049544034   -0.30947751     0             -0.27004355    -0.00090928004
   1005000   0.04968648    -0.30839136     0             -0.26884403     0.0023377621 
   1006000   0.053459665   -0.30827409     0             -0.26572353     0.0056285808 
   1007000   0.050707155   -0.3093778      0             -0.26901807    -0.0059477712 
   1008000   0.053929483   -0.30877223     0             -0.26584773    -0.0011991955 
   1009000   0.050325397   -0.30780927     0             -0.2677534     -0.00097287636
   1010000   0.049084703   -0.3067204      0             -0.26765205    -0.0048006838 
   1011000   0.048331719   -0.30766755     0             -0.26919852     0.0032211352 
   1012000   0.05029391    -0.30685541     0             -0.2668246      0.01062268   
   1013000   0.050716649   -0.30767488     0             -0.26730759     0.0023373187 
   1014000   0.050020545   -0.30733694     0             -0.26752371    -0.002583467  
   1015000   0.049654668   -0.30671627     0             -0.26719426    -0.0033656151 
   1016000   0.051328513   -0.30834196     0             -0.26748767     0.0022881208 
   1017000   0.051085351   -0.30821934     0             -0.2675586      0.0036943873 
   1018000   0.050169976   -0.30745208     0             -0.26751992     0.0045510425 
   1019000   0.050718894   -0.30653758     0             -0.26616851     0.0086726    
   1020000   0.049026933   -0.30749503     0             -0.26847266    -0.0052861361 
   1021000   0.050186811   -0.30791827     0             -0.2679727      0.0064764853 
   1022000   0.049314203   -0.30913003     0             -0.269879       0.002083317  
   1023000   0.050971002   -0.28932325     0             -0.24875352    -0.0016105167 
   1024000   0.049883763   -0.30882934     0             -0.26912498    -0.0010743745 
   1025000   0.048670725   -0.30848541     0             -0.26974655     0.00079345142
   1026000   0.052908785   -0.30825554     0             -0.26614346     0.002434475  
   1027000   0.050340799   -0.30820779     0             -0.26813966     0.0040012573 
   1028000   0.04638155    -0.30806021     0             -0.27114339    -0.0065763823 
   1029000   0.052960164   -0.30867766     0             -0.26652468    -0.0084026165 
   1030000   0.048208307   -0.30880205     0             -0.27043125     0.0031494658 
   1031000   0.047933293   -0.30225749     0             -0.26410558     0.012533083  
   1032000   0.050517726   -0.30794553     0             -0.26773658     0.0037675683 
   1033000   0.049920426   -0.30830324     0             -0.2685697      0.0031167882 
   1034000   0.049545226   -0.29612992     0             -0.25669502     0.0017173862 
   1035000   0.049324247   -0.30885665     0             -0.26959763    -0.00055041479
   1036000   0.050358662   -0.30824963     0             -0.26816728     0.0052155148 
   1037000   0.04835012    -0.30813994     0             -0.26965627    -0.0033018637 
   1038000   0.055432319   -0.30843645     0             -0.26431579    -0.0057236491 
   1039000   0.050580418   -0.30633429     0             -0.26607544     0.0047903025 
   1040000   0.051046234   -0.30791251     0             -0.26728289    -0.0069705419 
   1041000   0.049473416   -0.30724006     0             -0.26786231     0.00012352997
   1042000   0.052822517   -0.30819322     0             -0.2661498     -0.0024432204 
   1043000   0.050446438   -0.30839591     0             -0.2682437      0.0010466838 
   1044000   0.050573917   -0.30853687     0             -0.2682832     -0.0074950614 
   1045000   0.052257047   -0.30858446     0             -0.26699112    -0.0011942427 
   1046000   0.052674524   -0.30713316     0             -0.26520753    -0.0019927125 
   1047000   0.051466311   -0.3066006      0             -0.26563663    -0.0049867667 
   1048000   0.050574394   -0.30722836     0             -0.26697431    -0.00033402392
   1049000   0.053996225   -0.30779209     0             -0.26481447     0.00089285062
   1050000   0.049872353   -0.30672693     0             -0.26703166    -0.00048284103
   1051000   0.048043553   -0.30752097     0             -0.2692813     -0.0046463729 
   1052000   0.049874507   -0.30479611     0             -0.26509912    -0.0057438903 
   1053000   0.048895396   -0.30764378     0             -0.2687261     -0.00033777117
   1054000   0.049282863   -0.30752648     0             -0.2683004     -0.00014063215
   1055000   0.048771225   -0.3070082      0             -0.26818935    -0.00022146893
   1056000   0.047329146   -0.30780181     0             -0.27013077    -0.007837169  
   1057000   0.052208714   -0.30717674     0             -0.26562187    -0.0057873265 
   1058000   0.053159694   -0.30813711     0             -0.26582531    -0.00021457708
   1059000   0.049894809   -0.30775852     0             -0.26804537    -0.0053717416 
   1060000   0.050832811   -0.30649785     0             -0.26603811     0.0029760145 
   1061000   0.052329329   -0.30766796     0             -0.26601709    -0.0023471689 
   1062000   0.049684436   -0.30914662     0             -0.26960091    -0.0018189895 
   1063000   0.049839157   -0.30837302     0             -0.26870417    -0.0047106137 
   1064000   0.047238288   -0.30847839     0             -0.27087966    -0.00096312323
   1065000   0.049025658   -0.30871362     0             -0.26969226     0.0073503756 
   1066000   0.05102733    -0.30913748     0             -0.26852292    -0.0015335588 
   1067000   0.049953334   -0.30775331     0             -0.26799358    -0.0060670651 
   1068000   0.049519393   -0.3091898      0             -0.26977546    -0.0014236385 
   1069000   0.050397807   -0.30707208     0             -0.26695858    -0.0031309121 
   1070000   0.05287781    -0.30157691     0             -0.25948948     0.009224656  
   1071000   0.050567616   -0.30804844     0             -0.26779977     0.0026795326 
   1072000   0.049063264   -0.30774126     0             -0.26868997    -0.00089582596
   1073000   0.051505674   -0.3079404      0             -0.2669451      0.0026805723 
   1074000   0.051482497   -0.3084376      0             -0.26746075     0.0031130541 
   1075000   0.04997515    -0.30723705     0             -0.26745996    -0.0078850977 
   1076000   0.050138189   -0.30881471     0             -0.26890785    -0.0052482343 
   1077000   0.047985718   -0.30922351     0             -0.27102988     0.0011679046 
   1078000   0.047538588   -0.30845027     0             -0.27061252    -0.0049498757 
   1079000   0.050471453   -0.30861342     0             -0.26844129    -0.0025048429 
   1080000   0.049594408   -0.30242219     0             -0.26294814    -0.0041921148 
   1081000   0.05138182    -0.30734856     0             -0.26645184    -0.0036687094 
   1082000   0.050269501   -0.30661451     0             -0.26660313    -0.0069090221 
   1083000   0.048794388   -0.30817217     0             -0.26933488    -0.0012917106 
   1084000   0.048802027   -0.3086883      0             -0.26984494     0.0044177454 
   1085000   0.051871994   -0.30388715     0             -0.26260029     0.00025601502
   1086000   0.049481782   -0.30866834     0             -0.26928394    -0.000808296  
   1087000   0.046130099   -0.3080109      0             -0.27129422    -0.0021819525 
   1088000   0.046504791   -0.30643182     0             -0.26941691     0.0087606628 
   1089000   0.050319528   -0.30791247     0             -0.26786127    -0.0048519866 
   1090000   0.048828426   -0.30775109     0             -0.26888671    -0.0030994609 
   1091000   0.049699352   -0.29939538     0             -0.2598378     -0.0074448771 
   1092000   0.051318793   -0.30979055     0             -0.268944      -0.0022742104 
   1093000   0.050605068   -0.30870636     0             -0.26842789    -0.0010271168 
   1094000   0.050249009   -0.30926416     0             -0.26926909    -0.00012948176
   1095000   0.049635915   -0.30876515     0             -0.26925807    -0.0032053746 
   1096000   0.048635138   -0.3083727      0             -0.26966217     0.0016390572 
   1097000   0.047409617   -0.30956995     0             -0.27183485     0.0038851862 
   1098000   0.049825663   -0.30896304     0             -0.26930492     0.0048988273 
   1099000   0.050711375   -0.30833925     0             -0.26797616     0.0026992583 
   1100000   0.05102608    -0.30921065     0             -0.26859708    -0.0063092948 
   1101000   0.048462031   -0.30938574     0             -0.270813      -0.0032400865 
   1102000   0.050142876   -0.30956468     0             -0.26965408    -0.0037882843 
   1103000   0.052339012   -0.30813582     0             -0.26647724     0.0071199835 
   1104000   0.051937594   -0.3090572      0             -0.26771813    -0.0038575848 
   1105000   0.049113236   -0.30940217     0             -0.2703111      0.00057754984
   1106000   0.051410738   -0.30776228     0             -0.26684254     0.0017507752 
   1107000   0.048974254   -0.30814485     0             -0.2691644      2.4645371e-05
   1108000   0.049545523   -0.30844189     0             -0.26900675    -0.008954774  
   1109000   0.049202544   -0.30899762     0             -0.26983547     0.0010291059 
   1110000   0.04917944    -0.30850908     0             -0.26936532     0.0013281616 
   1111000   0.049323588   -0.30869758     0             -0.26943909     0.0038253483 
   1112000   0.050717449   -0.30890703     0             -0.26853911    -0.0036096919 
   1113000   0.046620613   -0.30856581     0             -0.27145872    -0.0018452488 
   1114000   0.051246411   -0.30236858     0             -0.26157964    -1.7592696e-05
   1115000   0.048979138   -0.30913529     0             -0.27015095    -0.0026956286 
   1116000   0.050215664   -0.30892263     0             -0.2689541      0.0039699531 
   1117000   0.048221029   -0.30902967     0             -0.27064874     0.0097131137 
   1118000   0.050213064   -0.30832749     0             -0.26836103     0.0011752553 
   1119000   0.051098128   -0.3090443      0             -0.26837338     0.005261362  
   1120000   0.05069401    -0.30535214     0             -0.26500288    -0.0028440715 
   1121000   0.049876232   -0.30444737     0             -0.26474901    -0.0029548005 
   1122000   0.048944751   -0.3090387      0             -0.27008174     0.0047450299 
   1123000   0.049572989   -0.30873518     0             -0.26927818     0.0013777005 
   1124000   0.051495061   -0.31027216     0             -0.26928531    -0.0028859372 
   1125000   0.050300729   -0.30806835     0             -0.26803212     0.0040263055 
   1126000   0.046842398   -0.30902484     0             -0.27174122    -0.0001368102 
   1127000   0.050335484   -0.31016708     0             -0.27010318    -0.0043925991 
   1128000   0.050056286   -0.30884232     0             -0.26900064     0.00026398705
   1129000   0.053105072   -0.30998273     0             -0.26771441    -0.00067776712
   1130000   0.052002894   -0.30907933     0             -0.26768827     0.0031410316 
   1131000   0.05210179    -0.30861059     0             -0.26714082    -0.0018675738 
   1132000   0.048381053   -0.30917954     0             -0.27067125     0.0038534812 
   1133000   0.050400238   -0.30875599     0             -0.26864055     0.002103029  
   1134000   0.050199805   -0.30944101     0             -0.2694851      0.0050713601 
   1135000   0.051287427   -0.30880883     0             -0.26798724     0.00041313057
   1136000   0.049260054   -0.31000585     0             -0.27079793    -0.0069547022 
   1137000   0.048516913   -0.30943188     0             -0.27081545     0.0037466376 
   1138000   0.049084254   -0.30803313     0             -0.26896513     0.00065577525
   1139000   0.047669466   -0.30833        0             -0.27038809    -0.0039701823 
   1140000   0.050898685   -0.30904583     0             -0.26853365     0.0016203546 
   1141000   0.051167724   -0.30880003     0             -0.26807372    -0.0036532821 
   1142000   0.049614003   -0.30284556     0             -0.26335592    -0.00094492858
   1143000   0.051380096   -0.30920396     0             -0.26830861     0.0018672532 
   1144000   0.047588161   -0.30958744     0             -0.27171023     0.0043992589 
   1145000   0.052170242   -0.30340828     0             -0.26188403     0.0041144075 
   1146000   0.0509661     -0.30982855     0             -0.26926272    -0.0025340969 
   1147000   0.048306007   -0.30902644     0             -0.27057788     0.0013175961 
   1148000   0.050289576   -0.30857531     0             -0.26854796    -0.011398963  
   1149000   0.050398803   -0.30926454     0             -0.26915024    -0.002613149  
   1150000   0.049360211   -0.30838312     0             -0.26909547     0.0036959238 
   1151000   0.047581651   -0.3090433      0             -0.27117128     0.0076227446 
   1152000   0.0494453     -0.30883508     0             -0.26947971     0.0013667067 
   1153000   0.0488865     -0.30862943     0             -0.26971883    -0.0092957799 
   1154000   0.05027149    -0.30797467     0             -0.2679617     -0.0026303141 
   1155000   0.049514979   -0.30775443     0             -0.2683436      0.00170903   
   1156000   0.051299633   -0.30838072     0             -0.26754942     0.001488244  
   1157000   0.050749558   -0.3079415      0             -0.26754802     0.0017435174 
   1158000   0.050310597   -0.3082033      0             -0.26815921     0.0022326475 
   1159000   0.049601133   -0.30790172     0             -0.26842232    -0.002616667  
   1160000   0.049241674   -0.30835635     0             -0.26916306     0.00075869763
   1161000   0.049501977   -0.31006754     0             -0.27066706     0.0020892558 
   1162000   0.047269719   -0.31034224     0             -0.2727185     -0.0040099593 
   1163000   0.049124706   -0.3099709      0             -0.2708707     -0.0056225173 
   1164000   0.048860245   -0.30920563     0             -0.27031593    -0.005078784  
   1165000   0.05034156    -0.30005107     0             -0.25998234     0.0015888972 
   1166000   0.049874434   -0.30813093     0             -0.268434       0.00058593637
   1167000   0.050453888   -0.3078698      0             -0.26771166     0.0027619548 
   1168000   0.049139592   -0.3071318      0             -0.26801976     0.01054519   
   1169000   0.050322638   -0.30973473     0             -0.26968105    -0.0035674681 
   1170000   0.05113849    -0.30430863     0             -0.26360559     0.0035067989 
   1171000   0.049719096   -0.30960494     0             -0.27003165     0.0019950745 
   1172000   0.049195205   -0.30444991     0             -0.2652936      0.0003261931 
   1173000   0.05023989    -0.30841019     0             -0.26842238    -0.0081693139 
   1174000   0.050204749   -0.30834908     0             -0.26838924     0.0076662328 
   1175000   0.050072993   -0.30850137     0             -0.26864639     0.0028869776 
   1176000   0.051469767   -0.30823772     0             -0.267271      -0.003496807  
   1177000   0.051742857   -0.30891558     0             -0.2677315     -0.0075631636 
   1178000   0.049021458   -0.30825655     0             -0.26923853    -0.010335553  
   1179000   0.050842701   -0.30883633     0             -0.26836872    -0.0055389863 
   1180000   0.05163486    -0.30858701     0             -0.26748888    -0.0044480733 
   1181000   0.049043054   -0.3031881      0             -0.2641529     -0.0076750193 
   1182000   0.050522373   -0.30921301     0             -0.26900036    -6.5102724e-06
   1183000   0.049691828   -0.30951284     0             -0.26996125     0.001838478  
   1184000   0.050022511   -0.30728797     0             -0.26747318     0.0046807552 
   1185000   0.049736021   -0.30911913     0             -0.26953236    -0.0077707387 
   1186000   0.049467096   -0.30782505     0             -0.26845234     0.0087315974 
   1187000   0.050566046   -0.30902872     0             -0.2687813      9.5990013e-05
   1188000   0.053206472   -0.30781305     0             -0.26546403    -0.0024654251 
   1189000   0.052251871   -0.30825735     0             -0.26666812     0.0057856802 
   1190000   0.050560036   -0.30797781     0             -0.26773518    -0.0043541792 
   1191000   0.047894314   -0.30890719     0             -0.27078631    -0.0033021037 
   1192000   0.052759282   -0.30821324     0             -0.26622015     0.00038599819
   1193000   0.052521898   -0.30707519     0             -0.26527105    -0.003164504  
   1194000   0.051718592   -0.30766863     0             -0.26650386     0.00022152145
   1195000   0.048799823   -0.30926608     0             -0.27042447    -0.0030966308 
   1196000   0.051213871   -0.30830481     0             -0.26754177    -0.0066780924 
   1197000   0.050410382   -0.30878603     0             -0.26866252     0.0011923146 
   1198000   0.049186277   -0.30803549     0             -0.26888629    -0.0012234249 
   1199000   0.048621891   -0.30824528     0             -0.26954529    -0.00077245707
   1200000   0.049054253   -0.30803258     0             -0.26898846     0.0054044039 
   1201000   0.050205563   -0.3003968      0             -0.26043631     0.00056105878
   1202000   0.04683934    -0.30797323     0             -0.27069204    -0.0050263323 
   1203000   0.051358366   -0.30769426     0             -0.26681621     0.0052100301 
   1204000   0.047259819   -0.30861879     0             -0.27100293     0.0019590382 
   1205000   0.049307111   -0.30872118     0             -0.2694758     -0.0017128093 
   1206000   0.051099065   -0.30524989     0             -0.26457823     0.0087806612 
   1207000   0.05062121    -0.31022601     0             -0.26993469     0.0039232955 
   1208000   0.048078598   -0.30948087     0             -0.27121332     0.0063300084 
   1209000   0.050466777   -0.30865531     0             -0.26848691    -0.0080273428 
   1210000   0.04848061    -0.30991571     0             -0.27132817    -0.00057605303
   1211000   0.050159904   -0.30946816     0             -0.26954401    -0.0020164489 
   1212000   0.048270496   -0.30962731     0             -0.27120702     0.00095934666
   1213000   0.050754242   -0.30977688     0             -0.26937968     0.0054160312 
   1214000   0.051594991   -0.30986918     0             -0.26880279    -0.0059379118 
   1215000   0.050385438   -0.2990106      0             -0.25890694    -0.0029665596 
   1216000   0.051275372   -0.30775479     0             -0.2669428     -0.0060341154 
   1217000   0.053094899   -0.30200808     0             -0.25974786    -0.0033514285 
   1218000   0.050978757   -0.30150547     0             -0.26092956     0.0036668716 
   1219000   0.047982435   -0.3079875      0             -0.26979648    -0.0086835673 
   1220000   0.04777707    -0.30883482     0             -0.27080726     0.0038721704 
   1221000   0.048727582   -0.29957011     0             -0.260786       0.0039291264 
   1222000   0.049778768   -0.30821665     0             -0.26859586     0.0053028945 
   1223000   0.048010459   -0.30843131     0             -0.27021798     0.00021577672
   1224000   0.049985793   -0.3086121      0             -0.26882653     0.0059522323 
   1225000   0.048911286   -0.30902633     0             -0.27009601     0.0042225938 
   1226000   0.047797824   -0.30879022     0             -0.27074614     0.009401505  
   1227000   0.051242638   -0.30858588     0             -0.26779995     0.0057901907 
   1228000   0.050043476   -0.30875984     0             -0.26892836     0.0059780202 
   1229000   0.049104502   -0.30923075     0             -0.27014664    -0.0014074906 
   1230000   0.04906711    -0.30969989     0             -0.27064554     0.0045322089 
   1231000   0.051105036   -0.30500088     0             -0.26432447     0.0078663209 
   1232000   0.050701678   -0.30777105     0             -0.26741568     0.0018524222 
   1233000   0.047135683   -0.30902851     0             -0.27151145    -0.0054318956 
   1234000   0.05048009    -0.30820037     0             -0.26802137     0.0046697202 
   1235000   0.050016119   -0.30892742     0             -0.26911772    -0.0034836704 
   1236000   0.05088999    -0.30922499     0             -0.26871974     0.0007572951 
   1237000   0.047397702   -0.30912174     0             -0.27139613    -0.0016458334 
   1238000   0.051305      -0.30865415     0             -0.26781858    -0.0047542133 
   1239000   0.050584618   -0.30901919     0             -0.268757       0.0023028015 
   1240000   0.046998913   -0.30891081     0             -0.27150261     0.00067903189
   1241000   0.051922672   -0.30912444     0             -0.26779723     0.0025698686 
   1242000   0.050869665   -0.30322193     0             -0.26273285     0.00041032627
   1243000   0.048612465   -0.30768078     0             -0.26898829     0.0074139796 
   1244000   0.051424993   -0.30840963     0             -0.26747855     0.0018081566 
   1245000   0.048846179   -0.30874368     0             -0.26986518     0.0033082651 
   1246000   0.050755654   -0.30908883     0             -0.2686905      0.0005672745 
   1247000   0.049591635   -0.30732173     0             -0.26784989    -7.6539908e-05
   1248000   0.050722752   -0.30834785     0             -0.2679757     -0.0010724999 
   1249000   0.050152767   -0.30800046     0             -0.26808199    -0.0046253036 
   1250000   0.048798522   -0.30920269     0             -0.27036211     0.0016312387 
   1251000   0.048234775   -0.30957542     0             -0.27118356    -0.0030923152 
   1252000   0.052016019   -0.30835109     0             -0.26694959    -0.0016279761 
   1253000   0.049964942   -0.30798967     0             -0.2682207     -0.0055845569 
   1254000   0.049028333   -0.30689852     0             -0.26787503     7.1221485e-05
   1255000   0.050731995   -0.30742635     0             -0.26704686     0.014030787  
   1256000   0.049642128   -0.30783806     0             -0.26832603     0.0027560807 
   1257000   0.047822909   -0.30718046     0             -0.26911642     0.010759036  
   1258000   0.050088262   -0.30820194     0             -0.26833481     0.0032409754 
   1259000   0.050151894   -0.30744578     0             -0.26752801     0.0027461339 
   1260000   0.052382688   -0.30827659     0             -0.26658325    -0.004269705  
   1261000   0.050847396   -0.3077655      0             -0.26729415     0.0018306548 
   1262000   0.051612792   -0.30827536     0             -0.2671948     -0.00071476095
   1263000   0.050918054   -0.30766607     0             -0.26713848    -0.0012850134 
   1264000   0.049887647   -0.30881664     0             -0.26910919     0.0022017872 
   1265000   0.05228702    -0.30874082     0             -0.26712361    -0.0034617019 
   1266000   0.05390719    -0.3087638      0             -0.26585705     0.0015683614 
   1267000   0.04839706    -0.30808499     0             -0.26956396    -0.0065078997 
   1268000   0.050960464   -0.30861258     0             -0.26805124    -0.0007222416 
   1269000   0.05115454    -0.30837137     0             -0.26765555    -0.0055863333 
   1270000   0.051197681   -0.30604801     0             -0.26529785    -0.00073160075
   1271000   0.052342409   -0.30910886     0             -0.26744758    -0.004916323  
   1272000   0.048868199   -0.30914946     0             -0.27025343    -0.00371812   
   1273000   0.051237691   -0.30692964     0             -0.26614764     0.0016032602 
   1274000   0.048069755   -0.30807843     0             -0.26981791     0.0047695941 
   1275000   0.048218818   -0.30760559     0             -0.26922642     0.00055494211
   1276000   0.051647356   -0.30892828     0             -0.26782022     0.0029188432 
   1277000   0.050421942   -0.30757673     0             -0.26744402    -0.010892726  
   1278000   0.049325608   -0.30731984     0             -0.26805974     0.0023013843 
   1279000   0.050810202   -0.30816557     0             -0.26772382    -0.00031803095
   1280000   0.0489206     -0.30845341     0             -0.26951567    -0.0093266821 
   1281000   0.049219822   -0.30669694     0             -0.26752104    -0.0047414896 
   1282000   0.050004576   -0.30852173     0             -0.26872121    -0.0018578115 
   1283000   0.052335283   -0.30883637     0             -0.26718076    -0.0044926981 
   1284000   0.047998738   -0.30809592     0             -0.26989192    -0.010444743  
   1285000   0.05026383    -0.30799822     0             -0.26799136     0.0020571921 
   1286000   0.050432585   -0.30704646     0             -0.26690528    -0.0023364186 
   1287000   0.048218528   -0.30964319     0             -0.27126426    -0.0045276952 
   1288000   0.051098675   -0.30709054     0             -0.26641919     0.004562709  
   1289000   0.050161381   -0.30796129     0             -0.26803597     0.0013260491 
   1290000   0.048829718   -0.30848716     0             -0.26962176     0.0014019896 
   1291000   0.051020356   -0.3088658      0             -0.26825678    -0.00019336006
   1292000   0.048231255   -0.30830248     0             -0.26991342     0.0034433194 
   1293000   0.050061777   -0.30878875     0             -0.2689427      0.0011131374 
   1294000   0.049795718   -0.30827909     0             -0.26864481     0.009257961  
   1295000   0.049582714   -0.3081408      0             -0.26867606     0.00065342186
   1296000   0.05064077    -0.30926666     0             -0.26895977    -0.0019047856 
   1297000   0.052022407   -0.30791032     0             -0.26650373    -0.0030213803 
   1298000   0.050838997   -0.30797284     0             -0.26750818    -0.002037794  
   1299000   0.050240427   -0.30842661     0             -0.26843837    -0.0056289758 
   1300000   0.049469358   -0.3089199      0             -0.26954538     0.00012887014
   1301000   0.050251865   -0.30863524     0             -0.26863789     0.0021953378 
   1302000   0.048952304   -0.3084135      0             -0.26945052     0.0068618667 
   1303000   0.048862427   -0.30857907     0             -0.26968763     0.0094553463 
   1304000   0.049586029   -0.30723203     0             -0.26776465    -0.0056879751 
   1305000   0.050659792   -0.30780578     0             -0.26748375     0.013027217  
   1306000   0.048677286   -0.30915141     0             -0.27040733    -0.00904809   
   1307000   0.04968485    -0.30959232     0             -0.27004629     0.0011665382 
   1308000   0.050368665   -0.30956218     0             -0.26947187    -0.0069723239 
   1309000   0.049619915   -0.30851953     0             -0.26902518    -0.0017107245 
   1310000   0.051309084   -0.30888827     0             -0.26804944     9.4515172e-05
   1311000   0.050764491   -0.30661775     0             -0.26621239     0.0031609491 
   1312000   0.049535985   -0.31035652     0             -0.27092897    -0.00019066399
   1313000   0.049541739   -0.30998541     0             -0.27055329     0.0012713446 
   1314000   0.051118145   -0.30923715     0             -0.2685503      0.0049527591 
   1315000   0.047393894   -0.31056699     0             -0.27284442    -0.0053242796 
   1316000   0.049632715   -0.30904347     0             -0.26953893    -0.003072198  
   1317000   0.047941794   -0.31029247     0             -0.2721338     -0.0031407723 
   1318000   0.051425019   -0.31064554     0             -0.26971444    -0.0058585262 
   1319000   0.048946874   -0.30988335     0             -0.2709247     -0.0013429687 
   1320000   0.048487847   -0.30875585     0             -0.27016256    -0.0038278836 
   1321000   0.048898499   -0.30544964     0             -0.2665295     -0.0039559762 
   1322000   0.049915259   -0.30999315     0             -0.27026373     0.0047960199 
   1323000   0.050207743   -0.3104996      0             -0.27053738     0.0025593532 
   1324000   0.051296043   -0.31031319     0             -0.26948474     0.0039685529 
   1325000   0.049049188   -0.30989758     0             -0.27085749     0.0048074271 
   1326000   0.051996886   -0.3106624      0             -0.26927612     0.0039235331 
   1327000   0.051812504   -0.31125588     0             -0.27001637     0.0030314929 
   1328000   0.049977893   -0.31114694     0             -0.27136766    -0.00060982893
   1329000   0.050758079   -0.31102889     0             -0.27062863    -0.00080255535
   1330000   0.048178576   -0.31117054     0             -0.27282341    -0.00026345267
   1331000   0.052298015   -0.30557967     0             -0.26395372     0.0061821534 
   1332000   0.051421994   -0.31077598     0             -0.26984729    -0.0017525408 
   1333000   0.051239318   -0.31161138     0             -0.27082809     0.0067154826 
   1334000   0.050316011   -0.30990888     0             -0.26986048    -0.00074241308
   1335000   0.050607136   -0.31046284     0             -0.27018272    -0.0066075478 
   1336000   0.051334975   -0.31117147     0             -0.27031203     0.0017223422 
   1337000   0.052205557   -0.31055027     0             -0.26899791     0.0059975208 
   1338000   0.0520365     -0.31099114     0             -0.26957334     0.0069203623 
   1339000   0.050830849   -0.31126466     0             -0.27080648    -0.0062959095 
   1340000   0.05164102    -0.31063194     0             -0.26952891     0.0010253492 
   1341000   0.049450951   -0.31157811     0             -0.27221824     0.0018659695 
   1342000   0.049296955   -0.31171655     0             -0.27247925    -0.0009375601 
   1343000   0.050611101   -0.31122124     0             -0.27093797    -0.0043574093 
   1344000   0.050626064   -0.31284095     0             -0.27254577     0.0047269389 
   1345000   0.050244857   -0.3128902      0             -0.27289844     0.0020970909 
   1346000   0.051003164   -0.30588474     0             -0.26528941     0.010956014  
   1347000   0.050640057   -0.31108047     0             -0.27077415    -0.00044041228
   1348000   0.052379452   -0.31067538     0             -0.26898461    -0.00064289949
   1349000   0.050594037   -0.31046104     0             -0.27019135    -0.00031915711
   1350000   0.049420191   -0.31128684     0             -0.27195146     0.0089195672 
   1351000   0.050557334   -0.31032529     0             -0.27008481    -0.0024661372 
   1352000   0.048561537   -0.31068433     0             -0.27203238     0.0040800623 
   1353000   0.050048126   -0.31145071     0             -0.27161553    -0.0080398638 
   1354000   0.050343309   -0.31130256     0             -0.27123243     0.0032592987 
   1355000   0.052061196   -0.31107179     0             -0.26963433     0.0036823371 
   1356000   0.051053211   -0.31249769     0             -0.27186252     0.001059054  
   1357000   0.049588045   -0.31091025     0             -0.27144127     0.00022889762
   1358000   0.049686806   -0.31034573     0             -0.27079814     0.0038048191 
   1359000   0.049278268   -0.31003897     0             -0.27081655    -0.0012214691 
   1360000   0.050734003   -0.30379295     0             -0.26341185     0.0016343064 
   1361000   0.049469948   -0.30935336     0             -0.26997837    -0.0059722243 
   1362000   0.051167876   -0.30997731     0             -0.26925088    -0.00070338832
   1363000   0.049532535   -0.30928951     0             -0.26986471     0.00053643175
   1364000   0.048968637   -0.30955718     0             -0.2705812      0.00018001591
   1365000   0.051156619   -0.30851864     0             -0.26780117     0.0033986189 
   1366000   0.050049999   -0.30736319     0             -0.26752652    -0.0058801243 
   1367000   0.049055595   -0.3089559      0             -0.26991071     0.0026651167 
   1368000   0.050981211   -0.30686611     0             -0.26628825    -0.0060201593 
   1369000   0.050099942   -0.308872       0             -0.26899558     0.00046803049
   1370000   0.050024663   -0.3086373      0             -0.26882079    -0.0018505361 
   1371000   0.051201243   -0.30912067     0             -0.26836768    -0.0090829921 
   1372000   0.051707735   -0.30891293     0             -0.2677568     -0.0012663583 
   1373000   0.049227651   -0.30883769     0             -0.26965555     0.0019021472 
   1374000   0.049793278   -0.30989755     0             -0.27026521     0.002955168  
   1375000   0.051134749   -0.30807777     0             -0.2673777     -0.001983682  
   1376000   0.049687355   -0.30905179     0             -0.26950376    -0.0033357684 
   1377000   0.051253477   -0.30888962     0             -0.26809506    -0.0022184649 
   1378000   0.052893239   -0.30985542     0             -0.26775571     0.0064844341 
   1379000   0.05095964    -0.30893423     0             -0.26837354    -0.0060202362 
   1380000   0.048914311   -0.30983862     0             -0.27090589     0.002339513  
   1381000   0.049600862   -0.30939673     0             -0.26991754     0.0018150034 
   1382000   0.049982037   -0.30875379     0             -0.26897121    -0.0032499161 
   1383000   0.053541951   -0.30794402     0             -0.26532797     0.0063762483 
   1384000   0.049539939   -0.30778526     0             -0.26835456    -0.00096692206
   1385000   0.051813178   -0.30834518     0             -0.26710513     0.0032095734 
   1386000   0.048680381   -0.30771319     0             -0.26896665     0.0016843195 
   1387000   0.05408814    -0.3021495      0             -0.25909872     0.00066796107
   1388000   0.050518731   -0.30780909     0             -0.26759934    -0.0003695937 
   1389000   0.04903389    -0.30927534     0             -0.27024743     0.0040140151 
   1390000   0.050336254   -0.30911964     0             -0.26905512    -0.0026765476 
   1391000   0.050735259   -0.30784109     0             -0.267459       0.00032552876
   1392000   0.049169288   -0.30858847     0             -0.26945279     8.7161633e-05
   1393000   0.051476566   -0.3091244      0             -0.26815227    -0.0030313835 
   1394000   0.05140729    -0.30268103     0             -0.26176405     0.003253488  
   1395000   0.049947967   -0.30340803     0             -0.26365257    -0.0048810446 
   1396000   0.049283923   -0.30972769     0             -0.27050077     0.0010100092 
   1397000   0.049273196   -0.30764703     0             -0.26842864    -0.00036237687
   1398000   0.048784498   -0.3100635      0             -0.27123408    -0.0075118491 
   1399000   0.051023367   -0.30830921     0             -0.2676978     -0.0019554896 
   1400000   0.052034461   -0.30859329     0             -0.26717711    -0.00043901955
   1401000   0.05221325    -0.30811287     0             -0.26655439    -0.0030374326 
   1402000   0.05053388    -0.30793437     0             -0.26771256     0.0021396996 
   1403000   0.050133579   -0.30772434     0             -0.26782115    -0.0034363187 
   1404000   0.049901375   -0.30807791     0             -0.26835953    -0.0032628571 
   1405000   0.052460833   -0.30692705     0             -0.2651715     -0.0074254713 
   1406000   0.049821351   -0.30749657     0             -0.26784189     0.0052510007 
   1407000   0.050204799   -0.30598662     0             -0.26602674     0.0041862169 
   1408000   0.051173692   -0.30660537     0             -0.26587431     0.0039992578 
   1409000   0.050288214   -0.30758591     0             -0.26755963     0.0059449091 
   1410000   0.049509086   -0.30790519     0             -0.26849905     0.0031623221 
   1411000   0.049080485   -0.30841717     0             -0.26935218     0.0054609585 
   1412000   0.05236283    -0.30701528     0             -0.26533774    -0.00304282   
   1413000   0.052155072   -0.30824029     0             -0.26672811    -0.0014454261 
   1414000   0.050601222   -0.30833715     0             -0.26806174    -0.0024255466 
   1415000   0.04914101    -0.30807342     0             -0.26896025    -0.00067913412
   1416000   0.048990068   -0.30861395     0             -0.26962092    -0.00025712323
   1417000   0.049760219   -0.30855294     0             -0.26894692    -0.00032408165
   1418000   0.048425808   -0.30805646     0             -0.26951255     0.0088997846 
   1419000   0.049100237   -0.30827828     0             -0.26919756     0.0022395886 
   1420000   0.052508739   -0.30821438     0             -0.26642071    -0.00070890659
   1421000   0.049378732   -0.30790783     0             -0.26860544    -0.00039415953
   1422000   0.051000137   -0.30778107     0             -0.26718815    -0.0026387158 
   1423000   0.050985277   -0.3088522      0             -0.26827111    -0.0030424268 
   1424000   0.049211889   -0.30719386     0             -0.26802427    -0.0017367727 
   1425000   0.051067856   -0.3079425      0             -0.26729568    -0.006909106  
   1426000   0.051567773   -0.30908786     0             -0.26804313     0.0053974592 
   1427000   0.049522151   -0.30014151     0             -0.26072497    -0.0018974511 
   1428000   0.049442282   -0.3081526      0             -0.26879963     0.0027090775 
   1429000   0.049153703   -0.30813641     0             -0.26901314    -0.0017750731 
   1430000   0.050406427   -0.30907679     0             -0.26895642    -0.0044954805 
   1431000   0.05247741    -0.3092657      0             -0.26749696     0.0030789402 
   1432000   0.049241697   -0.30869486     0             -0.26950154    -0.0008128286 
   1433000   0.05064232    -0.30861703     0             -0.26830891    -0.0022501205 
   1434000   0.047600033   -0.30894524     0             -0.27105859    -0.0031019099 
   1435000   0.050406643   -0.3086023      0             -0.26848176     0.0043468439 
   1436000   0.050642706   -0.30808374     0             -0.26777532     0.0032281235 
   1437000   0.049826307   -0.30023822     0             -0.26057959    -0.0079891499 
   1438000   0.050397844   -0.30823119     0             -0.26811765    -0.00045296893
   1439000   0.049414975   -0.30943621     0             -0.27010498     0.0034096677 
   1440000   0.050737151   -0.30848623     0             -0.26810263    -0.0016995639 
   1441000   0.048867928   -0.30884072     0             -0.26994491     0.0015189104 
   1442000   0.051034445   -0.30967039     0             -0.26905017    -0.0010506457 
   1443000   0.050058499   -0.29405909     0             -0.25421565     0.0015277247 
   1444000   0.049115879   -0.30745234     0             -0.26835917    -0.0019130555 
   1445000   0.050282713   -0.29974184     0             -0.25971994     0.0039263895 
   1446000   0.048903662   -0.30760622     0             -0.26868196     0.0086817004 
   1447000   0.05159262    -0.3064165      0             -0.265352       0.0036883622 
   1448000   0.048930457   -0.30693135     0             -0.26798577     0.001799188  
   1449000   0.048536398   -0.30505008     0             -0.26641815     0.006413344  
   1450000   0.047941137   -0.30800295     0             -0.2698448      0.0068518611 
   1451000   0.051748029   -0.30581402     0             -0.26462583     0.0012644019 
   1452000   0.049455571   -0.30755006     0             -0.26818652    -0.0068054598 
   1453000   0.048604943   -0.3081228      0             -0.2694363     -0.0010855471 
   1454000   0.048482756   -0.30764191     0             -0.26905267    -0.0038485371 
   1455000   0.048700174   -0.30858819     0             -0.2698259     -0.00032921594
   1456000   0.047759396   -0.30915216     0             -0.27113866     0.0031134839 
   1457000   0.051298199   -0.30855658     0             -0.26772642     0.0012858223 
   1458000   0.052438507   -0.30733724     0             -0.26559946     0.0045587631 
   1459000   0.051544638   -0.30833399     0             -0.26730768    -0.0064040057 
   1460000   0.049974768   -0.3062032      0             -0.26642641     0.0042286488 
   1461000   0.049973043   -0.30852969     0             -0.26875428     0.00032551237
   1462000   0.049389986   -0.3067083      0             -0.26739696    -0.0066775986 
   1463000   0.050880817   -0.30189775     0             -0.2613998      0.00040712979
   1464000   0.051455865   -0.30814854     0             -0.26719289     0.00032091371
   1465000   0.050728731   -0.30036086     0             -0.25998396     0.0055709918 
   1466000   0.052057765   -0.30743564     0             -0.26600092     0.0058405529 
   1467000   0.048402905   -0.30795962     0             -0.26943394     0.0020901189 
   1468000   0.046409246   -0.30828005     0             -0.27134119     0.00090913045
   1469000   0.050962227   -0.30822061     0             -0.26765786     0.0045618167 
   1470000   0.048811158   -0.30540078     0             -0.26655015    -0.0014551957 
   1471000   0.04840958    -0.3061891      0             -0.2676581      0.0042057351 
   1472000   0.050849872   -0.30724845     0             -0.26677513     0.0017497086 
   1473000   0.048760039   -0.30711907     0             -0.26830913    -0.0039477025 
   1474000   0.050853579   -0.30692399     0             -0.26644772     0.0032140986 
   1475000   0.048252434   -0.30163426     0             -0.26322834     0.00273237   
   1476000   0.050284307   -0.30628236     0             -0.26625919    -0.00026938094
   1477000   0.049973271   -0.30657072     0             -0.26679512    -0.0038301557 
   1478000   0.050876594   -0.30669413     0             -0.26619954    -0.00020315413
   1479000   0.048246303   -0.30722113     0             -0.26882009    -0.0045584634 
   1480000   0.052006      -0.30825212     0             -0.26685859     0.0034819941 
   1481000   0.051808105   -0.30785269     0             -0.26661668     0.00061843938
   1482000   0.052111215   -0.30903515     0             -0.26755788     0.0057338573 
   1483000   0.049320937   -0.30751257     0             -0.26825619    -0.0021498525 
   1484000   0.052263249   -0.30793011     0             -0.26633183    -0.0014819155 
   1485000   0.049440337   -0.30862415     0             -0.26927273    -0.0012992936 
   1486000   0.050784358   -0.308693       0             -0.26827182    -0.0039126352 
   1487000   0.048939739   -0.30087235     0             -0.26191938     0.011301761  
   1488000   0.048986801   -0.30742009     0             -0.26842966     0.0024733641 
   1489000   0.052996518   -0.30813679     0             -0.26595487    -0.0037771807 
   1490000   0.049826255   -0.30714934     0             -0.26749076     0.0007723959 
   1491000   0.050669892   -0.30814543     0             -0.26781536    -0.00068600252
   1492000   0.050906934   -0.30766097     0             -0.26714223    -0.0071556675 
   1493000   0.050462403   -0.30788026     0             -0.26771534    -0.0065736523 
   1494000   0.04927742    -0.30596361     0             -0.26674186     0.0059219145 
   1495000   0.049561687   -0.30768946     0             -0.26824146     0.0017857602 
   1496000   0.051861474   -0.3077205      0             -0.26644201     0.0024547106 
   1497000   0.049508079   -0.29958998     0             -0.26018465    -0.0036283983 
   1498000   0.052095732   -0.30863194     0             -0.26716699     0.0038046921 
   1499000   0.049533732   -0.30299138     0             -0.26356562    -0.0010402002 
   1500000   0.049803028   -0.30822862     0             -0.26858852    -0.0042605865 
   1501000   0.049405206   -0.30683394     0             -0.26751048     0.0013428225 
   1502000   0.048662461   -0.30500613     0             -0.26627385     0.0052057895 
   1503000   0.051871919   -0.30541944     0             -0.26413264     0.003935817  
   1504000   0.051837405   -0.30232504     0             -0.2610657     -0.0084154473 
   1505000   0.049262894   -0.30604981     0             -0.26683963     0.0028136385 
   1506000   0.050751028   -0.30509282     0             -0.26469818     0.0040941752 
   1507000   0.054142382   -0.30570742     0             -0.26261346    -0.0051259162 
   1508000   0.0496541     -0.29573332     0             -0.25621176    -0.0047438087 
   1509000   0.050950821   -0.30438488     0             -0.26383122    -0.0026497662 
   1510000   0.050819598   -0.30407413     0             -0.26362491    -0.0095114203 
   1511000   0.049151578   -0.30481691     0             -0.26569533     0.0016650003 
   1512000   0.050863155   -0.3053727      0             -0.26488881     0.0047176617 
   1513000   0.052752153   -0.3052417      0             -0.26325428     0.007037164  
   1514000   0.049678888   -0.30424157     0             -0.26470028     0.0018305286 
   1515000   0.052775843   -0.30582941     0             -0.26382314     0.0060667704 
   1516000   0.049702009   -0.30432361     0             -0.26476391     0.0017715332 
   1517000   0.049330057   -0.30490171     0             -0.26563807    -0.0013925876 
   1518000   0.050203627   -0.30528328     0             -0.26532433     0.00080095939
   1519000   0.048332414   -0.29537293     0             -0.25690335    -0.0079347061 
   1520000   0.051880279   -0.30576981     0             -0.26447635     0.0031350444 
   1521000   0.051056645   -0.30479289     0             -0.26415499     0.0041589462 
   1522000   0.051814701   -0.30497827     0             -0.26373701     0.0027083403 
   1523000   0.053525413   -0.29725682     0             -0.25465393    -0.00052564604
   1524000   0.052725427   -0.30384971     0             -0.26188356    -0.00034610908
   1525000   0.049949829   -0.30193956     0             -0.26218262     0.005491306  
   1526000   0.050037346   -0.30594808     0             -0.26612148    -0.0013141505 
   1527000   0.051040042   -0.30215258     0             -0.2615279      0.001467769  
   1528000   0.050946705   -0.30566425     0             -0.26511386    -0.0014011077 
   1529000   0.050164317   -0.30648413     0             -0.26655647    -0.0031700263 
   1530000   0.051488526   -0.30463404     0             -0.26365239    -0.0043213516 
   1531000   0.051873834   -0.30686864     0             -0.26558031    -0.0032053264 
   1532000   0.050711929   -0.30583102     0             -0.26546749    -0.0019757845 
   1533000   0.050093619   -0.29999469     0             -0.26012331    -0.0078109012 
   1534000   0.048256648   -0.3065649      0             -0.26815562     0.00065046916
   1535000   0.052786254   -0.30125977     0             -0.25924522     0.0039432113 
   1536000   0.050930992   -0.30085053     0             -0.26031264    -0.004323724  
   1537000   0.050578772   -0.30587973     0             -0.26562219     0.0061857598 
   1538000   0.050301249   -0.30550599     0             -0.26546934    -0.0060875309 
   1539000   0.049235193   -0.3064483      0             -0.26726017     0.00081829098
   1540000   0.05159189    -0.30824379     0             -0.26717987     0.0085594886 
   1541000   0.05048788    -0.3086412      0             -0.268456      -0.0022893641 
   1542000   0.050664597   -0.30217154     0             -0.26184568    -0.00088423641
   1543000   0.051385108   -0.30936122     0             -0.26846188    -0.0089993014 
   1544000   0.04999927    -0.30779333     0             -0.26799704    -0.0039133305 
   1545000   0.049362412   -0.30623063     0             -0.26694124     0.0052105873 
   1546000   0.050643229   -0.30731527     0             -0.26700642     0.0016628756 
   1547000   0.050231365   -0.30748151     0             -0.26750048    -0.0066323377 
   1548000   0.049817173   -0.30622063     0             -0.26656928     0.00028575323
   1549000   0.048540185   -0.30643963     0             -0.26780467     0.0046609357 
   1550000   0.053172811   -0.29656424     0             -0.25424201    -0.00083326471
   1551000   0.052135806   -0.30504118     0             -0.26354434    -0.0059894052 
   1552000   0.051098048   -0.29823037     0             -0.25755952    -0.00028475169
   1553000   0.051712961   -0.30044874     0             -0.25928846    -0.0031478699 
   1554000   0.049187633   -0.30536924     0             -0.26621895     0.0057073359 
   1555000   0.051034377   -0.30534644     0             -0.26472626    -0.00061427082
   1556000   0.049963241   -0.30570266     0             -0.26593504     0.0018013838 
   1557000   0.0490308     -0.29967012     0             -0.26064467    -0.0021990722 
   1558000   0.048056911   -0.30599897     0             -0.26774867    -0.0065096884 
   1559000   0.051691979   -0.30626828     0             -0.26512469    -0.0012187515 
   1560000   0.048168887   -0.30510705     0             -0.26676763     0.0030915784 
   1561000   0.051743035   -0.30638049     0             -0.26519626     0.00063454864
   1562000   0.051005514   -0.30613338     0             -0.26553618     0.0067339412 
   1563000   0.050382335   -0.30665619     0             -0.266555       0.010408225  
   1564000   0.05143164    -0.30304265     0             -0.26210628     0.00098125002
   1565000   0.05414611    -0.30767611     0             -0.26457919     0.0017447346 
   1566000   0.048616411   -0.30545318     0             -0.26675756     0.0021236655 
   1567000   0.052062754   -0.30659794     0             -0.26515924    -0.0012839411 
   1568000   0.051368621   -0.30576141     0             -0.2648752     -0.0044434241 
   1569000   0.050054893   -0.30704786     0             -0.26720729     0.0026261297 
   1570000   0.050108553   -0.3063622      0             -0.26647893    -0.0019836104 
   1571000   0.048371458   -0.30750003     0             -0.26899937    -0.0047562428 
   1572000   0.050798363   -0.30669112     0             -0.2662588     -0.0016222714 
   1573000   0.050470996   -0.30627762     0             -0.26610586     0.0034509826 
   1574000   0.049234043   -0.30653142     0             -0.2673442      0.0013457469 
   1575000   0.050037615   -0.30679816     0             -0.26697134     0.0010985292 
   1576000   0.051655704   -0.30732892     0             -0.26621421    -0.005500408  
   1577000   0.049608164   -0.30733736     0             -0.26785236     0.0084417294 
   1578000   0.049167789   -0.30688849     0             -0.267754       0.0011855237 
   1579000   0.049713874   -0.30102084     0             -0.2614517     -0.010031016  
   1580000   0.051197041   -0.30704199     0             -0.26629235    -0.0018220663 
   1581000   0.049795214   -0.30318811     0             -0.26355423     0.0056816079 
   1582000   0.05056402    -0.30676465     0             -0.26651885     0.0017488937 
   1583000   0.049308263   -0.29550418     0             -0.25625788    -0.0053164711 
   1584000   0.049364885   -0.30758454     0             -0.26829318     0.00027695986
   1585000   0.051687484   -0.30020063     0             -0.25906063    -0.005541385  
   1586000   0.05066995    -0.30680257     0             -0.26647246     0.0009178271 
   1587000   0.048937999   -0.30689411     0             -0.26794252     0.0039818535 
   1588000   0.049872672   -0.30685041     0             -0.26715488     0.0024858666 
   1589000   0.052868498   -0.3060875      0             -0.26400748     0.0038403868 
   1590000   0.050103085   -0.30779293     0             -0.267914       0.00029066787
   1591000   0.046983258   -0.30766832     0             -0.27027259     0.0026415564 
   1592000   0.048358479   -0.30158244     0             -0.26309211    -0.0027320087 
   1593000   0.049496909   -0.30864491     0             -0.26924846     0.00042795713
   1594000   0.048218646   -0.29889528     0             -0.26051626    -0.0015264119 
   1595000   0.049348749   -0.30810581     0             -0.26882729    -0.0033804598 
   1596000   0.048779005   -0.30954829     0             -0.27072325     0.00051824608
   1597000   0.049292352   -0.30791791     0             -0.26868427    -0.0079383615 
   1598000   0.051353831   -0.30220534     0             -0.2613309     -0.0063374814 
   1599000   0.052398566   -0.30870916     0             -0.26700318    -0.0042934341 
   1600000   0.049541723   -0.30877872     0             -0.26934661    -0.0045429953 
   1601000   0.049158332   -0.30907903     0             -0.26995207    -0.004152111  
   1602000   0.050115627   -0.30852142     0             -0.26863251    -0.0037923921 
   1603000   0.049027696   -0.3079545      0             -0.26893152    -0.0014991483 
   1604000   0.051336922   -0.30860374     0             -0.26774276    -0.0023544025 
   1605000   0.050022802   -0.30917313     0             -0.26935811    -0.0053694372 
   1606000   0.050184926   -0.30897551     0             -0.26903145    -0.0018525781 
   1607000   0.049772342   -0.30868589     0             -0.26907022    -0.0046684285 
   1608000   0.049881515   -0.30882712     0             -0.26912455     0.00054100124
   1609000   0.05034795    -0.308621       0             -0.26854718    -0.0026794227 
   1610000   0.048606069   -0.30750305     0             -0.26881565     0.0037130002 
   1611000   0.048111527   -0.30911872     0             -0.27082496     0.0041724951 
   1612000   0.05052897    -0.30849646     0             -0.26827856     0.0030813676 
   1613000   0.049080249   -0.30895654     0             -0.26989173    -0.0032889123 
   1614000   0.049294943   -0.30864631     0             -0.26941062     0.00098420501
   1615000   0.051858204   -0.30935017     0             -0.26807428     0.00024643312
   1616000   0.047933765   -0.30935196     0             -0.27119968     0.0063939506 
   1617000   0.052357247   -0.30910433     0             -0.26743124    -0.00087169108
   1618000   0.050183337   -0.30882574     0             -0.26888294     0.0015288433 
   1619000   0.050553458   -0.30869125     0             -0.26845386    -0.0069328916 
   1620000   0.048894888   -0.3094864      0             -0.27056913    -0.00078310768
   1621000   0.048529588   -0.309863       0             -0.27123648     0.0009192837 
   1622000   0.052080414   -0.31016956     0             -0.26871681    -0.0013920172 
   1623000   0.050333844   -0.30923532     0             -0.26917272     0.0053989076 
   1624000   0.049220404   -0.29653643     0             -0.25736006    -0.0034355807 
   1625000   0.048908677   -0.31056558     0             -0.27163733     0.002525828  
   1626000   0.04759065    -0.31047987     0             -0.27260069    -0.0034689361 
   1627000   0.047675336   -0.31028607     0             -0.27233949    -0.0092289691 
   1628000   0.050846615   -0.31051524     0             -0.27004451    -0.0029732417 
   1629000   0.048906496   -0.31138664     0             -0.27246012    -0.0034163015 
   1630000   0.050704634   -0.30986745     0             -0.26950973    -0.00014870726
   1631000   0.04997385    -0.3094697      0             -0.26969364     0.0085633149 
   1632000   0.051845519   -0.30441959     0             -0.26315379     0.00048188037
   1633000   0.049373561   -0.30763469     0             -0.26833642     0.0012170788 
   1634000   0.049730635   -0.31147611     0             -0.27189363    -0.0076986586 
   1635000   0.05095019    -0.31072897     0             -0.27017581    -0.0039706055 
   1636000   0.050328263   -0.31042084     0             -0.27036269     6.3662387e-05
   1637000   0.049747331   -0.31032088     0             -0.27072512    -0.00064889357
   1638000   0.050861208   -0.30925041     0             -0.26876807    -0.0007344191 
   1639000   0.049241277   -0.30937471     0             -0.27018173     0.0025129299 
   1640000   0.04997838    -0.31059216     0             -0.27081249    -0.0030762768 
   1641000   0.047862821   -0.30863698     0             -0.27054117     0.00064807684
   1642000   0.049388904   -0.30949305     0             -0.27018257    -0.0043849179 
   1643000   0.050509709   -0.30979396     0             -0.26959138    -0.0091786121 
   1644000   0.050998027   -0.30977655     0             -0.26918531     0.0074674545 
   1645000   0.050524967   -0.30943999     0             -0.26922527     0.0040167183 
   1646000   0.049994342   -0.31068704     0             -0.27089467    -0.0043483995 
   1647000   0.048897513   -0.30910251     0             -0.27018314    -0.0039955215 
   1648000   0.050204404   -0.30318413     0             -0.26322456     0.0099629901 
   1649000   0.048341278   -0.30728502     0             -0.26880838     0.0049928236 
   1650000   0.050309155   -0.30963973     0             -0.26959679    -0.0068998342 
   1651000   0.049421055   -0.30362272     0             -0.26428665    -0.0076671059 
   1652000   0.051793224   -0.30970444     0             -0.26848027    -0.002432083  
   1653000   0.053776425   -0.31035164     0             -0.26754897     0.0042867041 
   1654000   0.050321628   -0.31010225     0             -0.27004938    -0.0014913889 
   1655000   0.048836977   -0.30959654     0             -0.27072536     0.0036204644 
   1656000   0.048769904   -0.3103971      0             -0.27157931    -0.0023231598 
   1657000   0.05317652    -0.30930479     0             -0.26697961     0.0035719243 
   1658000   0.049959927   -0.31032995     0             -0.27056497    -0.0037356675 
   1659000   0.047904205   -0.30945105     0             -0.2713223      0.0050851616 
   1660000   0.053192607   -0.31082067     0             -0.26848268    -0.0047799421 
   1661000   0.048415475   -0.3102469      0             -0.2717112      0.00032656539
   1662000   0.049616978   -0.31052388     0             -0.27103187     0.0047473123 
   1663000   0.050634312   -0.31077827     0             -0.27047652     0.0036242758 
   1664000   0.050739732   -0.31017904     0             -0.26979339    -0.0042490278 
   1665000   0.048506422   -0.31045574     0             -0.27184766    -0.0062429232 
   1666000   0.049582881   -0.30798376     0             -0.26851888     0.0018068027 
   1667000   0.04868929    -0.30918128     0             -0.27042765    -0.0016656223 
   1668000   0.049529167   -0.31081939     0             -0.27139727    -0.0015343862 
   1669000   0.050232429   -0.30459075     0             -0.26460887     0.0037667325 
   1670000   0.047133944   -0.30932973     0             -0.27181406     0.00093253703
   1671000   0.050466235   -0.310433       0             -0.27026503     0.0041128325 
   1672000   0.048000295   -0.30990103     0             -0.2716958      0.0021053077 
   1673000   0.053001635   -0.31080906     0             -0.26862307    -0.0018900622 
   1674000   0.05213615    -0.31020288     0             -0.26870577    -0.0042389368 
   1675000   0.050515985   -0.30383256     0             -0.263625      -0.0059430514 
   1676000   0.051834604   -0.31042056     0             -0.26916345    -0.0049943128 
   1677000   0.050778888   -0.31144273     0             -0.27102591    -0.0070057663 
   1678000   0.051329193   -0.31107901     0             -0.27022418     0.0055411095 
   1679000   0.052367215   -0.31151923     0             -0.2698382      0.0073163804 
   1680000   0.051302828   -0.31175943     0             -0.27092559     0.0057922895 
   1681000   0.049577799   -0.30633938     0             -0.26687855    -0.00012481189
   1682000   0.051414286   -0.31171333     0             -0.27079077    -8.7041388e-05
   1683000   0.047625488   -0.30883301     0             -0.2709261     -0.0043066804 
   1684000   0.050475921   -0.31159463     0             -0.27141896    -0.0079729297 
   1685000   0.050450912   -0.31043874     0             -0.27028297     0.0029223027 
   1686000   0.049607238   -0.31014836     0             -0.2706641     -0.0027024784 
   1687000   0.050729804   -0.30979843     0             -0.26942068    -0.0044213191 
   1688000   0.049745425   -0.309568       0             -0.26997375    -0.0051689789 
   1689000   0.049949322   -0.30989335     0             -0.27013681     0.00018944136
   1690000   0.049507167   -0.31002743     0             -0.27062282     0.0013644785 
   1691000   0.052107248   -0.31020052     0             -0.26872641     0.0040010784 
   1692000   0.050533792   -0.31055209     0             -0.27033035     0.00093720925
   1693000   0.048025048   -0.31026279     0             -0.27203786    -0.0043564972 
   1694000   0.049839054   -0.31110687     0             -0.2714381      0.0050785081 
   1695000   0.050122658   -0.30949476     0             -0.26960026     0.00076989258
   1696000   0.048935442   -0.31030845     0             -0.27135889    -0.0032343747 
   1697000   0.049739947   -0.31022624     0             -0.27063635     0.00043807657
   1698000   0.049880824   -0.31143218     0             -0.27173016    -0.0011776597 
   1699000   0.048012322   -0.3114481      0             -0.27323329    -0.0059164777 
   1700000   0.046945822   -0.3116139      0             -0.27424796    -0.00021322967
   1701000   0.049286657   -0.3115777      0             -0.2723486      0.010317056  
   1702000   0.052576508   -0.31086346     0             -0.26901585     0.010084994  
   1703000   0.048898935   -0.31057731     0             -0.27165682    -0.0076360036 
   1704000   0.053759421   -0.31097659     0             -0.26818745     0.003064822  
   1705000   0.049575514   -0.31175155     0             -0.27229254     0.00019029784
   1706000   0.049775627   -0.31111419     0             -0.2714959      0.001454639  
   1707000   0.048612313   -0.31052016     0             -0.2718278     -0.0015228723 
   1708000   0.049189385   -0.31013649     0             -0.27098482    -0.0044118395 
   1709000   0.050058686   -0.31108837     0             -0.27124479    -0.0010979525 
   1710000   0.052262676   -0.31128936     0             -0.26969154     0.0008619359 
   1711000   0.049970336   -0.31083704     0             -0.27106377    -0.0040827538 
   1712000   0.051044321   -0.31047065     0             -0.26984256     0.0040751887 
   1713000   0.052479079   -0.31176202     0             -0.26999195     0.0050098513 
   1714000   0.050665224   -0.31153393     0             -0.27120758     0.0011982698 
   1715000   0.048038915   -0.30976228     0             -0.27152631     0.0050224967 
   1716000   0.049001993   -0.31050931     0             -0.27150679     0.0015383863 
   1717000   0.051423322   -0.30865601     0             -0.26772626    -0.0075533209 
   1718000   0.049288592   -0.3114473      0             -0.27221666    -0.00083774281
   1719000   0.050078673   -0.31109419     0             -0.2712347      0.00031646633
   1720000   0.049342627   -0.30979507     0             -0.27052142     0.0021639468 
   1721000   0.051672652   -0.31195384     0             -0.27082563    -0.0018537907 
   1722000   0.051668806   -0.31084401     0             -0.26971887     0.0016666098 
   1723000   0.049281109   -0.31058618     0             -0.2713615     -0.0041974172 
   1724000   0.048989648   -0.31109476     0             -0.27210207     0.00050177495
   1725000   0.050973817   -0.31035663     0             -0.26978466    -0.0024938572 
   1726000   0.048529254   -0.31192363     0             -0.27329738     0.002385617  
   1727000   0.050683263   -0.31044682     0             -0.27010611    -0.00026655099
   1728000   0.048716606   -0.30985651     0             -0.27108114     0.0034659707 
   1729000   0.050943145   -0.31034191     0             -0.26979435     0.0022867659 
   1730000   0.052102919   -0.30999827     0             -0.26852761     0.0028864816 
   1731000   0.048346294   -0.31172747     0             -0.27324685     0.0094212557 
   1732000   0.050587623   -0.31109311     0             -0.27082853     0.0032453809 
   1733000   0.04907511    -0.31100568     0             -0.27194496    -0.0017700746 
   1734000   0.050326117   -0.31092476     0             -0.27086832     2.9724163e-05
   1735000   0.050692962   -0.31165453     0             -0.2713061      0.0040970334 
   1736000   0.04933706    -0.31041079     0             -0.27114157     0.00033268707
   1737000   0.049092405   -0.31218179     0             -0.27310731     0.0053601923 
   1738000   0.050556229   -0.31107465     0             -0.27083506     0.001955921  
   1739000   0.052646398   -0.31091809     0             -0.26901484    -0.0061715658 
   1740000   0.047975119   -0.31033926     0             -0.27215407    -0.0019310105 
   1741000   0.049319826   -0.30489104     0             -0.26563554     0.0097861321 
   1742000   0.049185062   -0.30523102     0             -0.26608278     0.0019277778 
   1743000   0.051003827   -0.31047993     0             -0.26988407     0.0020439085 
   1744000   0.048490332   -0.31103862     0             -0.27244334    -0.0014877296 
   1745000   0.047881569   -0.31102635     0             -0.27291561    -0.0010861966 
   1746000   0.048980183   -0.31120641     0             -0.27222125    -0.0011973856 
   1747000   0.050253577   -0.298156       0             -0.2581573     -0.0025294336 
   1748000   0.051024323   -0.30718341     0             -0.26657123    -0.0031504188 
   1749000   0.050405925   -0.31154069     0             -0.27142072     0.004507709  
   1750000   0.050343638   -0.29545422     0             -0.25538383     0.0033199231 
   1751000   0.051241409   -0.30316348     0             -0.26237853     0.0081322605 
   1752000   0.050300881   -0.3091593      0             -0.26912294    -0.0033243878 
   1753000   0.049709273   -0.3092692      0             -0.26970373    -0.00050569613
   1754000   0.048584072   -0.30889181     0             -0.27022192     0.00065640686
   1755000   0.048556519   -0.30723055     0             -0.26858259    -0.0047815325 
   1756000   0.049318637   -0.30994314     0             -0.27068859     0.00650935   
   1757000   0.050236959   -0.30902502     0             -0.26903954     0.0016793786 
   1758000   0.050264637   -0.30873426     0             -0.26872675    -0.0026642574 
   1759000   0.051012549   -0.30707394     0             -0.26647114    -0.0036470993 
   1760000   0.052707278   -0.30323267     0             -0.26128097     0.00040507889
   1761000   0.050756326   -0.30967203     0             -0.26927317     0.0026680898 
   1762000   0.049832285   -0.30834997     0             -0.26868658     0.0026672433 
   1763000   0.052231845   -0.30216017     0             -0.26058688    -0.001114229  
   1764000   0.05020252    -0.30935518     0             -0.26939711    -0.0024357031 
   1765000   0.049950078   -0.30880653     0             -0.26904938    -0.0017548049 
   1766000   0.052835153   -0.30932084     0             -0.26726736     0.0011600414 
   1767000   0.050508119   -0.30782451     0             -0.26762321     0.0065199749 
   1768000   0.048288245   -0.30937588     0             -0.27094146    -0.0034724118 
   1769000   0.051318844   -0.30389159     0             -0.26304499    -0.0058779037 
   1770000   0.052286139   -0.30750671     0             -0.26589021     0.0034737453 
   1771000   0.048216953   -0.30899649     0             -0.27061881     0.0014191719 
   1772000   0.048967586   -0.30919887     0             -0.27022374    -0.0032714723 
   1773000   0.051482577   -0.3102747      0             -0.26929779     0.0050722472 
   1774000   0.049987528   -0.30758482     0             -0.26779787    -0.0016846521 
   1775000   0.051904955   -0.30324781     0             -0.26193471     0.00071442545
   1776000   0.051415398   -0.30792422     0             -0.26700078     0.0039388278 
   1777000   0.051930018   -0.303328       0             -0.26199495     0.00094986715
   1778000   0.050506594   -0.30895645     0             -0.26875636     0.0030287606 
   1779000   0.048362383   -0.30618608     0             -0.26769264     0.0015447137 
   1780000   0.04940081    -0.30906608     0             -0.26974612     0.0011656338 
   1781000   0.047227853   -0.30827765     0             -0.27068723    -0.010157596  
   1782000   0.050552242   -0.30907023     0             -0.26883381     0.0080142973 
   1783000   0.050951558   -0.30832959     0             -0.26777534    -0.0019395847 
   1784000   0.053112488   -0.30213309     0             -0.25985887    -0.0094567032 
   1785000   0.047383264   -0.30927035     0             -0.27155624    -0.00040187546
   1786000   0.050353829   -0.30958249     0             -0.26950399    -0.0033488175 
   1787000   0.05168374    -0.30840246     0             -0.26726543     0.002809242  
   1788000   0.049331572   -0.30908137     0             -0.26981652     0.0051485805 
   1789000   0.051196427   -0.30064978     0             -0.25990062     0.011450996  
   1790000   0.051427868   -0.31064532     0             -0.26971195    -0.0039054839 
   1791000   0.049076903   -0.31039205     0             -0.27132991    -0.0026753257 
   1792000   0.050607759   -0.31044323     0             -0.27016262     0.00108281   
   1793000   0.051400096   -0.31115881     0             -0.27024755    -0.0020909692 
   1794000   0.050235434   -0.30924667     0             -0.2692624      0.00013779968
   1795000   0.052062555   -0.3090197      0             -0.26758116     0.0095723034 
   1796000   0.051993752   -0.30870184     0             -0.26731806     0.00185697   
   1797000   0.05092788    -0.30996946     0             -0.26943405     0.0021298217 
   1798000   0.050577803   -0.31002237     0             -0.2697656     -0.0006655666 
   1799000   0.051305649   -0.30558294     0             -0.26474685     0.003788667  
   1800000   0.047353652   -0.30453932     0             -0.26684877    -0.0016305625 
   1801000   0.049249517   -0.31044486     0             -0.27124532    -0.0071157225 
   1802000   0.047511463   -0.3107575      0             -0.27294135    -0.002738087  
   1803000   0.050598555   -0.31108314     0             -0.27080986     0.00011605242
   1804000   0.05125353    -0.31060769     0             -0.26981309    -0.0013744869 
   1805000   0.048451368   -0.31106994     0             -0.27250568    -0.004565407  
   1806000   0.048908441   -0.31018532     0             -0.27125726     0.0095856425 
   1807000   0.052174548   -0.30935404     0             -0.26782636    -0.0032320309 
   1808000   0.049786455   -0.30349598     0             -0.26386907     0.0012019969 
   1809000   0.05101393    -0.30915835     0             -0.26855445     0.0043625127 
   1810000   0.050590114   -0.30912973     0             -0.26886317     0.0016408364 
   1811000   0.052115353   -0.30408177     0             -0.26260121    -0.0028891246 
   1812000   0.049347561   -0.31072455     0             -0.27144698     0.0028661763 
   1813000   0.049682569   -0.29819797     0             -0.25865375     0.012987001  
   1814000   0.051401005   -0.30946065     0             -0.26854866     0.0015304418 
   1815000   0.049508284   -0.31051365     0             -0.27110815    -4.8841829e-05
   1816000   0.050600582   -0.30926909     0             -0.26899419     0.0022508543 
   1817000   0.048203274   -0.31095381     0             -0.27258701    -0.005156587  
   1818000   0.04832934    -0.31041863     0             -0.27195149     0.0058565383 
   1819000   0.049930284   -0.30286073     0             -0.26311934     5.7649265e-05
   1820000   0.048989898   -0.31068393     0             -0.27169103     0.0054157022 
   1821000   0.050017237   -0.31017914     0             -0.27036855     0.0026708408 
   1822000   0.047254869   -0.31026208     0             -0.27265016    -0.0020393426 
   1823000   0.050038192   -0.30926773     0             -0.26944046     0.0050435029 
   1824000   0.051698723   -0.30966666     0             -0.2685177     -0.003488699  
   1825000   0.04910152    -0.30955452     0             -0.27047278    -0.0011167248 
   1826000   0.049854495   -0.30988021     0             -0.27019915     0.0027871559 
   1827000   0.049738194   -0.3105548      0             -0.2709663      0.0021829669 
   1828000   0.051409527   -0.30603655     0             -0.26511778     0.0074349909 
   1829000   0.050713488   -0.29695197     0             -0.25658721    -0.0051671824 
   1830000   0.050861025   -0.30965705     0             -0.26917486     0.0017746183 
   1831000   0.052936013   -0.30590399     0             -0.26377023     0.0077490043 
   1832000   0.04768333    -0.30250682     0             -0.26455387     0.0065808651 
   1833000   0.050051644   -0.30804547     0             -0.26820749     0.003547791  
   1834000   0.050495643   -0.31009661     0             -0.26990524    -0.0062780951 
   1835000   0.048460159   -0.30798906     0             -0.2694178      0.0021167376 
   1836000   0.049565      -0.30982278     0             -0.27037214     0.005774298  
   1837000   0.048628628   -0.30906119     0             -0.27035584    -0.0038554002 
   1838000   0.048077228   -0.30926046     0             -0.27099399    -0.0032913008 
   1839000   0.049531263   -0.30924643     0             -0.26982264     0.0043768752 
   1840000   0.049447077   -0.31043438     0             -0.27107759    -0.0017553998 
   1841000   0.050606217   -0.30996492     0             -0.26968553    -0.0038926319 
   1842000   0.052504969   -0.30894027     0             -0.2671496     -0.0043795703 
   1843000   0.048597503   -0.30998454     0             -0.27130397    -0.0048229406 
   1844000   0.049710479   -0.30833661     0             -0.26877017     0.0021179751 
   1845000   0.049732589   -0.30915401     0             -0.26956997    -0.0022620595 
   1846000   0.051319132   -0.3091613      0             -0.26831448     0.0018434612 
   1847000   0.05122296    -0.30290987     0             -0.26213959     0.0039449216 
   1848000   0.048418826   -0.30986333     0             -0.27132497    -0.0047634865 
   1849000   0.049068095   -0.3091814      0             -0.27012626     0.00037993562
   1850000   0.050616263   -0.30988653     0             -0.26959915     0.0054656648 
   1851000   0.047813452   -0.30809869     0             -0.27004217     0.0001304301 
   1852000   0.052055182   -0.30893291     0             -0.26750024    -0.0049482986 
   1853000   0.052030305   -0.30956988     0             -0.26815701    -0.0027582144 
   1854000   0.050559922   -0.30969745     0             -0.26945492     0.0072672309 
   1855000   0.051155156   -0.30944706     0             -0.26873076     0.003170038  
   1856000   0.051077088   -0.30876917     0             -0.268115       0.0011323265 
   1857000   0.048078806   -0.30398771     0             -0.26571999     0.0020043002 
   1858000   0.048233927   -0.30933707     0             -0.27094588     0.0086591522 
   1859000   0.051566209   -0.30984911     0             -0.26880563    -0.00070426805
   1860000   0.050708445   -0.30338519     0             -0.26302444     0.005718044  
   1861000   0.0505624     -0.31051971     0             -0.2702752      0.001562425  
   1862000   0.049594109   -0.30930147     0             -0.26982766    -0.002378916  
   1863000   0.050118315   -0.30899294     0             -0.26910189    -0.0020461385 
   1864000   0.049548979   -0.30914004     0             -0.26970215     0.0022684695 
   1865000   0.049907867   -0.30888966     0             -0.26916612    -0.0013915786 
   1866000   0.049704402   -0.30342877     0             -0.26386718    -0.00046476528
   1867000   0.048819618   -0.30387898     0             -0.26502161    -0.00016623006
   1868000   0.049628922   -0.31057661     0             -0.27107509     0.0072698103 
   1869000   0.048833529   -0.31043963     0             -0.27157119     0.0046084676 
   1870000   0.051553516   -0.30918009     0             -0.26814671    -0.0018582271 
   1871000   0.051621817   -0.29812589     0             -0.25703816     0.0018445381 
   1872000   0.05195525    -0.30948622     0             -0.26813309    -0.0036136824 
   1873000   0.052059059   -0.30921259     0             -0.26777684    -0.00091440397
   1874000   0.050758026   -0.30999755     0             -0.26959733     0.0055510442 
   1875000   0.052057557   -0.30892639     0             -0.26749183    -0.0049116856 
   1876000   0.049872633   -0.3087198      0             -0.2690243      0.003125718  
   1877000   0.052685963   -0.30886549     0             -0.26693076     0.0034573665 
   1878000   0.050326462   -0.31038838     0             -0.27033166    -0.0011288026 
   1879000   0.050595615   -0.30861098     0             -0.26834004    -0.0043369093 
   1880000   0.049127981   -0.31033078     0             -0.27122797    -0.0067119531 
   1881000   0.049930159   -0.30973629     0             -0.269995       0.0016363586 
   1882000   0.052315444   -0.30872239     0             -0.26708257     0.00085294492
   1883000   0.051430164   -0.30246269     0             -0.2615275     -0.0035015183 
   1884000   0.048793217   -0.30866136     0             -0.269825      -0.0069191737 
   1885000   0.050951112   -0.3079302      0             -0.2673763      0.0035123017 
   1886000   0.051764042   -0.30492213     0             -0.26372119     9.4824393e-05
   1887000   0.05152326    -0.31065481     0             -0.26964552     0.0052379092 
   1888000   0.050080636   -0.30481482     0             -0.26495376    -0.007659115  
   1889000   0.051541415   -0.30941729     0             -0.26839354    -0.0013493671 
   1890000   0.050076274   -0.30981269     0             -0.2699551      0.00024652086
   1891000   0.051857405   -0.30884475     0             -0.2675695      0.0061853801 
   1892000   0.047548097   -0.30873197     0             -0.27088666     0.0045437825 
   1893000   0.051463833   -0.30960598     0             -0.26864398    -0.00532233   
   1894000   0.049969023   -0.30898409     0             -0.26921187    -0.0016326164 
   1895000   0.048914585   -0.30779638     0             -0.26886343    -0.0022919327 
   1896000   0.051430675   -0.30881337     0             -0.26787776    -0.00095108968
   1897000   0.049888175   -0.30321742     0             -0.26350955     0.0024022502 
   1898000   0.047818281   -0.3080735      0             -0.27001314    -0.0053166448 
   1899000   0.049872703   -0.30997201     0             -0.27027646     0.00073291235
   1900000   0.052387895   -0.3059077      0             -0.26421021     0.0056125521 
   1901000   0.052891116   -0.31075891     0             -0.26866088    -0.0060179617 
   1902000   0.050223376   -0.30965064     0             -0.26967597    -0.0018081209 
   1903000   0.052783577   -0.30728197     0             -0.26526954     0.002224909  
   1904000   0.049505353   -0.30997297     0             -0.2705698     -0.0058861984 
   1905000   0.050662919   -0.30996981     0             -0.2696453     -0.0040820855 
   1906000   0.051755733   -0.30780177     0             -0.26660744    -0.001222879  
   1907000   0.051147092   -0.30802781     0             -0.26731792    -0.0096986529 
   1908000   0.049841169   -0.301693       0             -0.26202255    -0.005638918  
   1909000   0.048837898   -0.31019653     0             -0.27132461     0.006453433  
   1910000   0.050319491   -0.30564303     0             -0.26559186     0.00766859   
   1911000   0.049241284   -0.30886555     0             -0.26967256     0.0055446819 
   1912000   0.047737731   -0.30822971     0             -0.27023346     0.0010449349 
   1913000   0.051168063   -0.30095345     0             -0.26022687     0.00059640132
   1914000   0.049888197   -0.30559697     0             -0.26588908    -0.0039277876 
   1915000   0.050709113   -0.30858435     0             -0.26822306    -0.0042765608 
   1916000   0.049223072   -0.30572535     0             -0.26654687     0.00074386026
   1917000   0.051324694   -0.30911367     0             -0.26826243     0.0033369028 
   1918000   0.050354148   -0.30936144     0             -0.26928269     0.0027664588 
   1919000   0.049904593   -0.30898674     0             -0.2692658      0.003839125  
   1920000   0.050812818   -0.30954602     0             -0.26910219    -0.006397642  
   1921000   0.049827762   -0.30807109     0             -0.26841131     0.0043207297 
   1922000   0.049934484   -0.30844505     0             -0.26870032     0.0032751585 
   1923000   0.050948199   -0.30608334     0             -0.26553176    -9.0135748e-05
   1924000   0.048244425   -0.30986419     0             -0.27146465    -0.0051578665 
   1925000   0.048430459   -0.30905999     0             -0.27051237    -0.001658004  
   1926000   0.049802043   -0.30415458     0             -0.26451526    -0.0060195245 
   1927000   0.049954921   -0.30930726     0             -0.26954627     0.0027463794 
   1928000   0.05169712    -0.31043493     0             -0.26928725    -0.0008402111 
   1929000   0.048185358   -0.31035456     0             -0.27200202     0.0044857645 
   1930000   0.052280075   -0.31029276     0             -0.26868109    -0.0026544976 
   1931000   0.05007996    -0.3125093      0             -0.27264879    -0.0029757254 
   1932000   0.05044543    -0.3095575      0             -0.26940609     0.0073631622 
   1933000   0.048781298   -0.31096572     0             -0.27213886     0.00020816104
   1934000   0.048601486   -0.31082561     0             -0.27214187    -0.0067541259 
   1935000   0.052193304   -0.31095299     0             -0.26941038    -0.0013551811 
   1936000   0.049223318   -0.31020236     0             -0.27102368    -0.00029309908
   1937000   0.050120381   -0.31138958     0             -0.27149689     0.0015835893 
   1938000   0.050821447   -0.3112786      0             -0.27082791    -0.006397862  
   1939000   0.050078513   -0.31076246     0             -0.27090309     0.0044262574 
   1940000   0.047850985   -0.31284584     0             -0.27475945     0.0023262772 
   1941000   0.049644524   -0.30613519     0             -0.26662125    -0.0087384205 
   1942000   0.052073895   -0.31160778     0             -0.27016022    -0.0017138798 
   1943000   0.05232127    -0.31129364     0             -0.26964918    -0.0035188011 
   1944000   0.0522445     -0.31122963     0             -0.26964627     0.0017760144 
   1945000   0.050663148   -0.31117682     0             -0.27085212     0.0012125754 
   1946000   0.047560135   -0.31239061     0             -0.27453571    -0.0015626609 
   1947000   0.04913643    -0.31235029     0             -0.27324077    -0.00044617537
   1948000   0.052125367   -0.31250872     0             -0.27102019    -0.0049207331 
   1949000   0.050297652   -0.30570378     0             -0.26566999     0.0063013317 
   1950000   0.049433705   -0.31189808     0             -0.27255194     0.00083241953
   1951000   0.050523046   -0.31218136     0             -0.27196817     0.00021232274
   1952000   0.050716904   -0.31202386     0             -0.27165637    -0.00075038591
   1953000   0.049660034   -0.31117785     0             -0.27165157     0.0031409409 
   1954000   0.050603099   -0.31172294     0             -0.27144604    -0.0027748616 
   1955000   0.04721499    -0.31246482     0             -0.27488464    -0.0096401417 
   1956000   0.051022989   -0.31274645     0             -0.27213534     0.0038539351 
   1957000   0.047329838   -0.31212253     0             -0.27445094     0.0043850295 
   1958000   0.049724931   -0.31171242     0             -0.27213448    -0.00329935   
   1959000   0.048877102   -0.31106839     0             -0.27216527     0.00078025863
   1960000   0.048390793   -0.31228517     0             -0.27376913    -0.0016022149 
   1961000   0.052822924   -0.3127939      0             -0.27075015     0.011315766  
   1962000   0.049504224   -0.31244222     0             -0.27303995    -0.0043750293 
   1963000   0.049866231   -0.31310554     0             -0.27341514    -0.0044430218 
   1964000   0.051414806   -0.31089398     0             -0.26997101     4.3435967e-05
   1965000   0.047755102   -0.31094008     0             -0.27293001    -0.0031465241 
   1966000   0.049167843   -0.31216425     0             -0.27302972     0.0026432565 
   1967000   0.049493246   -0.31074575     0             -0.27135222    -0.0063150344 
   1968000   0.0509627     -0.30428427     0             -0.26372115    -0.002407135  
   1969000   0.050450831   -0.30920749     0             -0.26905179     0.0017707886 
   1970000   0.050133811   -0.30916408     0             -0.2692607      0.0020378549 
   1971000   0.049501433   -0.30974835     0             -0.2703483      0.0070364326 
   1972000   0.052330314   -0.31042977     0             -0.26877811    -0.0027303996 
   1973000   0.048684172   -0.30986584     0             -0.27111628     0.0038504093 
   1974000   0.05093981    -0.30547893     0             -0.26493402    -0.0043240435 
   1975000   0.048152397   -0.30975705     0             -0.27143075     0.010985106  
   1976000   0.050200229   -0.31065316     0             -0.27069691    -0.0044554543 
   1977000   0.047738504   -0.31071364     0             -0.27271677    -0.0017055565 
   1978000   0.047450309   -0.31058495     0             -0.27281747    -0.0018565413 
   1979000   0.051668824   -0.31080903     0             -0.26968387    -0.003899207  
   1980000   0.047538037   -0.31135248     0             -0.27351518    -0.0056515597 
   1981000   0.049030141   -0.31151669     0             -0.27249176    -0.0021832021 
   1982000   0.050463279   -0.31124229     0             -0.27107667    -0.0030674059 
   1983000   0.051321646   -0.31080358     0             -0.26995476    -0.001702132  
   1984000   0.05018978    -0.3109398      0             -0.27099187     0.0034968957 
   1985000   0.049596888   -0.31055912     0             -0.27108309     0.0058026255 
   1986000   0.050224599   -0.30443687     0             -0.26446122    -0.00075679495
   1987000   0.051541507   -0.312261       0             -0.27123719     0.0025966581 
   1988000   0.049053054   -0.31185726     0             -0.2728141     -0.0037828616 
   1989000   0.049130287   -0.30049989     0             -0.26139526    -0.0012381801 
   1990000   0.05009472    -0.31288013     0             -0.27300786     0.0069330957 
   1991000   0.049644677   -0.31200878     0             -0.27249472     0.00066931287
   1992000   0.052813068   -0.31121078     0             -0.26917488    -0.0002328355 
   1993000   0.052401798   -0.31258417     0             -0.27087561    -0.0029641934 
   1994000   0.048398394   -0.3127803      0             -0.2742582     -0.00062032672
   1995000   0.050174588   -0.31539332     0             -0.27545748    -0.00030789576
   1996000   0.047857185   -0.31374792     0             -0.27565659     0.0045027694 
   1997000   0.048766432   -0.31287609     0             -0.27406105     0.0020583772 
   1998000   0.050919671   -0.31307153     0             -0.27254265    -0.00075756725
   1999000   0.050733085   -0.31404556     0             -0.2736652      0.0035375337 
   2000000   0.047789328   -0.3134309      0             -0.27539358    -0.00039447506
   2001000   0.047981187   -0.31178773     0             -0.2735977     -0.0074658647 
   2002000   0.049680146   -0.30672784     0             -0.26718555    -0.005096459  
   2003000   0.05148621    -0.31424218     0             -0.27326237     7.4263347e-05
   2004000   0.04945665    -0.31384523     0             -0.27448083     6.7274228e-05
   2005000   0.049696753   -0.31341349     0             -0.27385798     0.0066025055 
   2006000   0.051810084   -0.30695802     0             -0.26572043    -0.0074530524 
   2007000   0.04735677    -0.31365743     0             -0.2759644     -0.0053286156 
   2008000   0.049403225   -0.31355222     0             -0.27423034    -0.0014508663 
   2009000   0.051691318   -0.31341845     0             -0.27227539     0.0026387007 
   2010000   0.04886193    -0.31485417     0             -0.27596313     0.0027875931 
   2011000   0.04697609    -0.3111271      0             -0.27373707    -0.0025907001 
   2012000   0.04926921    -0.31380777     0             -0.27459256     0.0018678759 
   2013000   0.047666088   -0.31452384     0             -0.27658462    -0.0069468287 
   2014000   0.05104878    -0.31440747     0             -0.27377584    -0.0065731832 
   2015000   0.049910595   -0.31474662     0             -0.27502091    -0.0057293113 
   2016000   0.050537794   -0.31317069     0             -0.27294577    -0.0021856367 
   2017000   0.046672      -0.31420319     0             -0.27705519     0.00057684493
   2018000   0.050741361   -0.31491762     0             -0.27453067     0.0066336586 
   2019000   0.050840413   -0.31489108     0             -0.27442529    -0.0027724331 
   2020000   0.048875072   -0.31363442     0             -0.27473292     0.0061916484 
   2021000   0.052763864   -0.31361693     0             -0.27162019     0.003517578  
   2022000   0.0498629     -0.31317567     0             -0.27348791    -0.0004860216 
   2023000   0.04875667    -0.31347919     0             -0.27467193    -0.005544208  
   2024000   0.049454952   -0.31290935     0             -0.2735463      0.0078365162 
   2025000   0.052561084   -0.31375712     0             -0.27192179     0.0020919008 
   2026000   0.050300439   -0.31309015     0             -0.27305414    -0.0011792559 
   2027000   0.05145882    -0.31352519     0             -0.27256718     0.00060449484
   2028000   0.052408528   -0.31266223     0             -0.27094832    -0.0062168979 
   2029000   0.049512201   -0.31362775     0             -0.27421914    -0.0036680155 
   2030000   0.048136221   -0.31410329     0             -0.27578986     6.4154973e-05
   2031000   0.046578805   -0.31379528     0             -0.27672147    -0.00025247946
   2032000   0.049070778   -0.31331332     0             -0.27425605     0.0026551594 
   2033000   0.051142181   -0.31477125     0             -0.27406527     0.0029528448 
   2034000   0.046333508   -0.30675165     0             -0.26987308     0.00022034048
   2035000   0.05309701    -0.31344017     0             -0.27117827    -0.00083888279
   2036000   0.048744999   -0.31510078     0             -0.2763028     -0.002371269  
   2037000   0.05069047    -0.3099639      0             -0.26961745    -0.0065079453 
   2038000   0.049960822   -0.31334831     0             -0.27358262     0.0042800065 
   2039000   0.048708339   -0.31355806     0             -0.27478927     0.0028630033 
   2040000   0.049390608   -0.31441791     0             -0.27510607    -0.0018787684 
   2041000   0.048263185   -0.31434791     0             -0.27593344     0.010744899  
   2042000   0.050544715   -0.31371902     0             -0.27348858     0.0032340112 
   2043000   0.049080752   -0.31415787     0             -0.27509265    -0.0010262282 
   2044000   0.052877116   -0.31347237     0             -0.2713855     -0.0011185781 
   2045000   0.049271482   -0.31403516     0             -0.27481814     0.0096827786 
   2046000   0.053120544   -0.31348929     0             -0.27120865    -0.0023829294 
   2047000   0.050548393   -0.31481863     0             -0.27458527     0.0017856189 
   2048000   0.050354422   -0.31484614     0             -0.27476717     0.0089290597 
   2049000   0.047050362   -0.30916252     0             -0.27171337    -0.0041374231 
   2050000   0.049683964   -0.31413085     0             -0.27458552    -0.0044013096 
   2051000   0.04873553    -0.31475768     0             -0.27596724    -0.0069117587 
   2052000   0.048895689   -0.31444038     0             -0.27552246     0.0054449889 
   2053000   0.049529749   -0.3076945      0             -0.26827191     0.00043993164
   2054000   0.049617879   -0.31111029     0             -0.27161756     0.0029502077 
   2055000   0.050909255   -0.31465535     0             -0.27413477     0.0023291122 
   2056000   0.05286049    -0.31517657     0             -0.27310292    -0.01147207   
   2057000   0.048633908   -0.31021298     0             -0.27150343     0.0023560147 
   2058000   0.050470321   -0.31426355     0             -0.27409233    -0.0024695174 
   2059000   0.048951782   -0.31515092     0             -0.27618836     0.0055607167 
   2060000   0.050114573   -0.3141684      0             -0.27428033    -0.0063900767 
   2061000   0.052032189   -0.31330094     0             -0.27188657    -3.0257342e-05
   2062000   0.048870793   -0.31334063     0             -0.27444253    -0.0042737235 
   2063000   0.049949101   -0.30876014     0             -0.26900377     0.0034023234 
   2064000   0.050866306   -0.31554127     0             -0.27505487     0.0077921452 
   2065000   0.050061732   -0.31521414     0             -0.27536813    -0.0014822254 
   2066000   0.048640547   -0.31464038     0             -0.27592554     0.0065543765 
   2067000   0.051552641   -0.31491224     0             -0.27387956    -0.0052280068 
   2068000   0.051086339   -0.31537318     0             -0.27471164     0.0008217761 
   2069000   0.049977667   -0.31495594     0             -0.27517684     0.00028865828
   2070000   0.04971812    -0.31472763     0             -0.27515511    -0.0058151241 
   2071000   0.053812538   -0.31523515     0             -0.27240373    -0.0072686476 
   2072000   0.048855941   -0.31574501     0             -0.27685874     9.0624126e-05
   2073000   0.052300391   -0.31513585     0             -0.27350801    -0.00074380279
   2074000   0.050405231   -0.299623       0             -0.25950359     0.0057657316 
   2075000   0.052131789   -0.315425       0             -0.27393136    -0.0011620353 
   2076000   0.049336877   -0.31520289     0             -0.27593382     0.0026499313 
   2077000   0.050859157   -0.31584179     0             -0.27536108    -0.0010069957 
   2078000   0.049965419   -0.31493645     0             -0.2751671     -0.0011911584 
   2079000   0.051824329   -0.3143007      0             -0.27305178     0.00017915206
   2080000   0.051577948   -0.31523605     0             -0.27418322    -0.0083034035 
   2081000   0.050584615   -0.31578188     0             -0.27551969     0.0043133606 
   2082000   0.049571704   -0.31528239     0             -0.27582641     0.0080191314 
   2083000   0.04991965    -0.31458954     0             -0.27485662    -0.0082151519 
   2084000   0.048167776   -0.31594544     0             -0.2776069      0.00022546173
   2085000   0.049228807   -0.31544156     0             -0.27625851     0.0017644418 
   2086000   0.052278061   -0.31439089     0             -0.27278082    -0.0066025488 
   2087000   0.050313052   -0.31264673     0             -0.27260069    -0.0020622724 
   2088000   0.048927148   -0.31158255     0             -0.2726396      0.001508099  
   2089000   0.05117874    -0.3132654      0             -0.27253032     0.0055808577 
   2090000   0.050076051   -0.31247091     0             -0.27261351     0.00198982   
   2091000   0.05119231    -0.31341439     0             -0.27266851    -0.0033792482 
   2092000   0.049392888   -0.31371522     0             -0.27440157    -0.00038579905
   2093000   0.050389803   -0.31289544     0             -0.2727883      0.0062864736 
   2094000   0.051105213   -0.31278977     0             -0.27211321    -0.001747512  
   2095000   0.050575584   -0.31351304     0             -0.27325803     0.0011479985 
   2096000   0.051849378   -0.31348525     0             -0.27221639    -0.005701986  
   2097000   0.050012961   -0.31396005     0             -0.27415286     0.0089764661 
   2098000   0.047179974   -0.30778278     0             -0.27023047    -0.0013548066 
   2099000   0.047918893   -0.31380863     0             -0.27566819     0.0016085265 
   2100000   0.0503641     -0.3134133      0             -0.27332662     0.0011285988 
   2101000   0.051081689   -0.3136844      0             -0.27302657    -0.0059315314 
   2102000   0.048131183   -0.31356575     0             -0.27525634     0.0061133429 
   2103000   0.052135283   -0.30505904     0             -0.26356262    -0.0011047896 
   2104000   0.05024544    -0.31395052     0             -0.27395829     0.0056824465 
   2105000   0.051752365   -0.31394019     0             -0.27274854    -0.0041410251 
   2106000   0.050026087   -0.31364827     0             -0.27383064    -0.0029358545 
   2107000   0.052295666   -0.30682079     0             -0.26519671    -0.0010553561 
   2108000   0.051150853   -0.3135416      0             -0.27282872    -0.00064290838
   2109000   0.049702249   -0.30633569     0             -0.26677581     0.0063400786 
   2110000   0.047774064   -0.30805121     0             -0.27002604    -0.0086507864 
   2111000   0.049621572   -0.31370809     0             -0.27421242     0.0011278953 
   2112000   0.051829783   -0.30891071     0             -0.26765744     0.0067678884 
   2113000   0.050750155   -0.31045425     0             -0.2700603      0.007677749  
   2114000   0.051382275   -0.30417371     0             -0.26327663     0.00051783915
   2115000   0.051494761   -0.31429304     0             -0.27330643     0.0016073336 
   2116000   0.050199381   -0.31338054     0             -0.27342497     0.011399986  
   2117000   0.048101424   -0.31015569     0             -0.27186997    -0.0025695442 
   2118000   0.049576054   -0.31208034     0             -0.2726209      0.010594779  
   2119000   0.048559099   -0.31335434     0             -0.27470433    -0.0039774802 
   2120000   0.052212486   -0.31253879     0             -0.27098092     0.0027453025 
   2121000   0.050935868   -0.31302058     0             -0.27247881    -0.0014325941 
   2122000   0.052672201   -0.31456693     0             -0.27264315     0.0018626024 
   2123000   0.050153609   -0.31065506     0             -0.27073593     0.001357154  
   2124000   0.050215767   -0.31317054     0             -0.27320193     0.0050438062 
   2125000   0.051614606   -0.30763436     0             -0.26655235    -0.0033780008 
   2126000   0.050518847   -0.31340368     0             -0.27319384     0.0079481146 
   2127000   0.052642486   -0.31176732     0             -0.26986719     0.0030153675 
   2128000   0.051105834   -0.31192552     0             -0.27124847    -0.0065847579 
   2129000   0.051169358   -0.31258288     0             -0.27185527     0.00016057823
   2130000   0.05162462    -0.31242204     0             -0.27133206    -0.0078257537 
   2131000   0.051710822   -0.30822804     0             -0.26706945     0.0050289746 
   2132000   0.050936703   -0.31253809     0             -0.27199566    -0.0071199971 
   2133000   0.051431044   -0.31268227     0             -0.27174637    -0.0019742416 
   2134000   0.049225503   -0.31310237     0             -0.27392194    -0.011017113  
   2135000   0.049577448   -0.31180963     0             -0.27234908    -0.006879511  
   2136000   0.050157099   -0.31131017     0             -0.27138826     0.002208975  
   2137000   0.050383898   -0.31252537     0             -0.27242294     0.0028261192 
   2138000   0.050613554   -0.31330657     0             -0.27302134    -0.0059075663 
   2139000   0.049471145   -0.31423316     0             -0.27485722    -0.00035850975
   2140000   0.049406686   -0.31387815     0             -0.27455352    -0.0014240528 
   2141000   0.048598357   -0.31303751     0             -0.27435626    -0.00019215393
   2142000   0.050723927   -0.31338068     0             -0.2730076     -0.0069049815 
   2143000   0.049608571   -0.3127413      0             -0.27325598     0.00078138858
   2144000   0.052372963   -0.31279205     0             -0.27110644    -0.0057403625 
   2145000   0.052716979   -0.31157591     0             -0.26961649    -0.00024719561
   2146000   0.050288317   -0.31181773     0             -0.27179137     0.0022621211 
   2147000   0.051531534   -0.31271078     0             -0.2716949      0.0032734874 
   2148000   0.051815116   -0.31230045     0             -0.27105885    -0.0011884726 
   2149000   0.050426108   -0.31249059     0             -0.27235456     0.0010267205 
   2150000   0.052951164   -0.31284105     0             -0.27069523     0.0015938838 
   2151000   0.049371213   -0.31263736     0             -0.27334096    -0.0042667079 
   2152000   0.046158566   -0.31239617     0             -0.27565683     0.00010485216
   2153000   0.049458466   -0.31292666     0             -0.27356081    -0.00085650862
   2154000   0.049017642   -0.31387083     0             -0.27485585     0.0082483639 
   2155000   0.050649778   -0.30468663     0             -0.26437257     0.0038939492 
   2156000   0.050856076   -0.31280903     0             -0.27233078     0.0069032421 
   2157000   0.05136257    -0.3143679      0             -0.2734865      0.006872698  
   2158000   0.050516295   -0.30704768     0             -0.26683987    -0.0038672139 
   2159000   0.05031545    -0.31385681     0             -0.27380886    -0.0032297017 
   2160000   0.051629331   -0.31429974     0             -0.27320602     0.00068042397
   2161000   0.050827423   -0.31360767     0             -0.27315222    -0.00066722856
   2162000   0.049119383   -0.3124893      0             -0.27339335    -0.0016892209 
   2163000   0.046572414   -0.31361132     0             -0.27654259    -0.0032739053 
   2164000   0.051024349   -0.31310627     0             -0.27249408    -7.8082745e-05
   2165000   0.051286057   -0.31373809     0             -0.2729176     -0.0002155377 
   2166000   0.052433612   -0.31312805     0             -0.27139418    -0.0036384083 
   2167000   0.049748622   -0.31317358     0             -0.27357678     0.0024847144 
   2168000   0.048297523   -0.31396498     0             -0.27552317     0.006673037  
   2169000   0.050385389   -0.31123652     0             -0.2711329      0.0043428513 
   2170000   0.049786765   -0.31289761     0             -0.27327046     4.5551246e-06
   2171000   0.04843231    -0.31458453     0             -0.27603543     0.0031527343 
   2172000   0.048856878   -0.3142376      0             -0.27535058    -0.0048400404 
   2173000   0.051271833   -0.31392138     0             -0.2731122      0.0008192778 
   2174000   0.048572779   -0.31321879     0             -0.27455789    -0.0081161543 
   2175000   0.048932924   -0.31361477     0             -0.27466723     0.002627299  
   2176000   0.050992468   -0.31404421     0             -0.27345739    -0.0062931247 
   2177000   0.050450495   -0.3136699      0             -0.27351446     0.0023665165 
   2178000   0.050347221   -0.31358262     0             -0.27350938     0.0032531925 
   2179000   0.050246414   -0.31295723     0             -0.27296422     0.0026634157 
   2180000   0.049746336   -0.31334983     0             -0.27375486    -0.0055592481 
   2181000   0.049874155   -0.31365742     0             -0.27396071     0.0058484782 
   2182000   0.051564067   -0.31396873     0             -0.27292696     0.0014223531 
   2183000   0.050511218   -0.31079848     0             -0.27059471    -0.0029399881 
   2184000   0.050992145   -0.31134189     0             -0.27075533    -0.0035749865 
   2185000   0.049205978   -0.31334269     0             -0.27417781    -0.00036040293
   2186000   0.048604831   -0.31450936     0             -0.27582295     0.00061007449
   2187000   0.051561251   -0.31388998     0             -0.27285044     0.0083295923 
   2188000   0.050680657   -0.30444289     0             -0.26410426    -0.0014474702 
   2189000   0.052195109   -0.31348341     0             -0.27193936     0.0029587087 
   2190000   0.051074914   -0.31359118     0             -0.27293874    -0.0020515112 
   2191000   0.05008956    -0.31325453     0             -0.27338637    -0.0026450664 
   2192000   0.049805777   -0.30837023     0             -0.26872794    -0.00092133124
   2193000   0.049785713   -0.31417559     0             -0.27454927    -0.0064168085 
   2194000   0.051513197   -0.31553707     0             -0.27453578     0.012020246  
   2195000   0.049857299   -0.31286886     0             -0.27318556     0.00083316519
   2196000   0.049089051   -0.31401316     0             -0.27494135     0.0024298857 
   2197000   0.051113464   -0.31388351     0             -0.27320039     0.0011207798 
   2198000   0.051569857   -0.3130283      0             -0.27198192     0.0029073759 
   2199000   0.050352298   -0.30923363     0             -0.26915635     0.0053256325 
   2200000   0.051065119   -0.30883174     0             -0.26818709    -0.0030808993 
   2201000   0.048816989   -0.31363727     0             -0.274782       0.00025825605
   2202000   0.05185578    -0.31341787     0             -0.27214391    -0.0046860129 
   2203000   0.050639712   -0.31306557     0             -0.27275953     0.002302541  
   2204000   0.050332517   -0.31388085     0             -0.27381931    -0.0049451335 
   2205000   0.048824797   -0.31388971     0             -0.27502822    -2.5468385e-05
   2206000   0.05172792    -0.31397847     0             -0.27280627    -0.0041478767 
   2207000   0.050504457   -0.3141111      0             -0.27391271     0.0030441311 
   2208000   0.052173456   -0.31304627     0             -0.27151946    -0.0027650797 
   2209000   0.048433187   -0.31430033     0             -0.27575054    -0.0034422272 
   2210000   0.051401753   -0.3129727      0             -0.27206011    -0.0012480672 
   2211000   0.049119703   -0.31345692     0             -0.27436071     0.0006650972 
   2212000   0.047837133   -0.31319619     0             -0.27512082    -0.0013024713 
   2213000   0.051065095   -0.31333757     0             -0.27269295     0.00012027395
   2214000   0.048043066   -0.31413487     0             -0.27589559    -0.00054122444
   2215000   0.050286683   -0.31296083     0             -0.27293578     0.0034644459 
   2216000   0.050064185   -0.31399034     0             -0.27414237    -0.0016055608 
   2217000   0.047453568   -0.31367444     0             -0.27590436     0.0072847385 
   2218000   0.049520536   -0.31361503     0             -0.27419977    -0.00028513756
   2219000   0.049844718   -0.31282085     0             -0.27314757    -0.0033259961 
   2220000   0.049429361   -0.31299704     0             -0.27365436     0.0077113211 
   2221000   0.05037874    -0.31063348     0             -0.27053516     0.007681076  
   2222000   0.050247019   -0.30739599     0             -0.26740251     0.0084168276 
   2223000   0.05005908    -0.31339071     0             -0.27354681    -0.0029125054 
   2224000   0.049995168   -0.3139857      0             -0.27419268     0.00093100966
   2225000   0.051328192   -0.31317258     0             -0.27231855     0.00032898724
   2226000   0.049139205   -0.31369724     0             -0.27458551     0.010923478  
   2227000   0.050126111   -0.31324152     0             -0.27334427     0.0046181382 
   2228000   0.05180288    -0.3147849      0             -0.27355305    -0.0050756959 
   2229000   0.048890581   -0.31376956     0             -0.27485571     0.0070783473 
   2230000   0.051459703   -0.3129773      0             -0.2720186     -4.8408399e-05
   2231000   0.051552436   -0.31388126     0             -0.27284874     0.0020722788 
   2232000   0.052862299   -0.31311917     0             -0.27104409    -0.0083889362 
   2233000   0.050547257   -0.31336748     0             -0.27313503     0.0028122427 
   2234000   0.050090031   -0.31444099     0             -0.27457245     0.0015481222 
   2235000   0.053484364   -0.31386369     0             -0.27129348    -0.0079539758 
   2236000   0.047892932   -0.31351564     0             -0.27539586     0.00080289881
   2237000   0.047706155   -0.31411057     0             -0.27613945     0.00077110668
   2238000   0.050697638   -0.31404341     0             -0.27369126    -0.0015579943 
   2239000   0.050445867   -0.30403397     0             -0.26388221    -0.0035279105 
   2240000   0.053463676   -0.30423595     0             -0.2616822      0.0043287979 
   2241000   0.047928837   -0.31228039     0             -0.27413204    -0.0020761839 
   2242000   0.050274363   -0.30309679     0             -0.26308153    -0.0024585466 
   2243000   0.047775705   -0.31421667     0             -0.27619019     0.0043738729 
   2244000   0.053230139   -0.31300194     0             -0.27063407    -0.0092502209 
   2245000   0.050691136   -0.31203701     0             -0.27169003    -0.00024143983
   2246000   0.05261546    -0.31349037     0             -0.27161176     0.0021390742 
   2247000   0.048836602   -0.3077293      0             -0.26885842    -0.0014520216 
   2248000   0.049622931   -0.31299635     0             -0.2734996     -0.0036296152 
   2249000   0.049858317   -0.31240048     0             -0.27271638     0.0088894465 
   2250000   0.050767826   -0.31139438     0             -0.27098637     0.0043715922 
   2251000   0.051236429   -0.31166566     0             -0.27088466    -0.0064220524 
   2252000   0.049642431   -0.31245173     0             -0.27293946    -0.002251184  
   2253000   0.048872164   -0.31252514     0             -0.27362595     0.0063702579 
   2254000   0.049581402   -0.31255017     0             -0.27308647     0.0064854737 
   2255000   0.049293567   -0.31217282     0             -0.27293822    -0.0026109801 
   2256000   0.051678436   -0.31234038     0             -0.27120757    -0.0065448128 
   2257000   0.05053184    -0.31186391     0             -0.27164373    -0.0011472599 
   2258000   0.048904089   -0.3120982      0             -0.2731736     -0.002956171  
   2259000   0.049868652   -0.3129973      0             -0.27330497     0.00071364209
   2260000   0.049751583   -0.31177416     0             -0.27217501     0.0071316737 
   2261000   0.048372653   -0.31258664     0             -0.27408503     0.0022560589 
   2262000   0.051444958   -0.31196222     0             -0.27101525    -0.007110466  
   2263000   0.049874082   -0.31258268     0             -0.27288603    -0.0021691379 
   2264000   0.047394829   -0.3126452      0             -0.27492188    -0.0039720941 
   2265000   0.049639852   -0.31148502     0             -0.2719748      0.0014957042 
   2266000   0.050246244   -0.31081789     0             -0.27082502     0.0014695274 
   2267000   0.049211289   -0.31232275     0             -0.27315364    -0.0072986702 
   2268000   0.049891043   -0.31262482     0             -0.27291466     0.0049063755 
   2269000   0.048462155   -0.31429754     0             -0.2757247     -0.0088919137 
   2270000   0.049944134   -0.31333619     0             -0.27358378    -0.0065252863 
   2271000   0.05086308    -0.312933       0             -0.27244916    -0.0046705567 
   2272000   0.048647956   -0.31368983     0             -0.2749691      0.0052645404 
   2273000   0.04951301    -0.31363765     0             -0.27422839    -0.004816481  
   2274000   0.051018263   -0.31270564     0             -0.2720983      0.00094086384
   2275000   0.049900806   -0.31310974     0             -0.27339182     0.0094022134 
   2276000   0.051949501   -0.30847207     0             -0.26712352     0.012284566  
   2277000   0.050728533   -0.31431795     0             -0.2739412      0.0041875382 
   2278000   0.0520292     -0.29461418     0             -0.25320219     0.0081834532 
   2279000   0.052104617   -0.31444823     0             -0.27297621    -0.00014184646
   2280000   0.048458105   -0.31160591     0             -0.27303628    -0.0027103425 
   2281000   0.050271676   -0.31377863     0             -0.27376552     0.0064085433 
   2282000   0.04960466    -0.31380628     0             -0.27432407    -0.0069939382 
   2283000   0.047541252   -0.31477803     0             -0.27693816     0.0019247875 
   2284000   0.051292011   -0.31412769     0             -0.27330245     0.0026834626 
   2285000   0.048679956   -0.31377799     0             -0.27503179    -0.0032629582 
   2286000   0.049845074   -0.31417081     0             -0.27449724     0.0041786701 
   2287000   0.048624923   -0.3139233      0             -0.2752209     -0.0014376351 
   2288000   0.050217044   -0.31451865     0             -0.27454902     0.00057339264
   2289000   0.049988506   -0.31447764     0             -0.27468991     0.0013344295 
   2290000   0.050882318   -0.31350745     0             -0.27300831     0.0046443112 
   2291000   0.049596969   -0.31127148     0             -0.27179539     0.0010812294 
   2292000   0.051352848   -0.31075467     0             -0.26988101    -0.0048880358 
   2293000   0.050754393   -0.31288533     0             -0.272488       0.00082190185
   2294000   0.050747696   -0.30981954     0             -0.26942755    -0.0093095787 
   2295000   0.049525045   -0.30896243     0             -0.26954358     0.0025743487 
   2296000   0.049661526   -0.31224371     0             -0.27271624     0.002924048  
   2297000   0.04619845    -0.30903287     0             -0.27226179    -0.0035695162 
   2298000   0.050346369   -0.31202943     0             -0.27195687    -0.0017630403 
   2299000   0.05009773    -0.31342647     0             -0.27355181     0.0024682037 
   2300000   0.050329373   -0.31043806     0             -0.27037902     0.0071010421 
   2301000   0.051042541   -0.31298574     0             -0.27235907     0.0020519395 
   2302000   0.048701489   -0.31292528     0             -0.27416194    -0.0027798513 
   2303000   0.052192039   -0.31367682     0             -0.27213522    -0.0005815556 
   2304000   0.050684934   -0.30150241     0             -0.26116037     0.0048347194 
   2305000   0.04940043    -0.31293578     0             -0.27361612    -6.6987225e-05
   2306000   0.048442637   -0.31176914     0             -0.27321183     0.0030633325 
   2307000   0.047608391   -0.30628085     0             -0.26838755    -0.0008670704 
   2308000   0.049726803   -0.31146896     0             -0.27188953     0.00016245915
   2309000   0.050306755   -0.31155682     0             -0.27151579     0.0020562965 
   2310000   0.04958633    -0.31223708     0             -0.27276946    -0.0028558713 
   2311000   0.048985042   -0.3130854      0             -0.27409636     0.0028100098 
   2312000   0.051050489   -0.31352413     0             -0.27289113    -0.0012296338 
   2313000   0.04995386    -0.31281348     0             -0.27305333    -0.0017331748 
   2314000   0.050849797   -0.31268465     0             -0.27221139    -0.0034016603 
   2315000   0.048641209   -0.31282694     0             -0.27411158    -0.002243224  
   2316000   0.050647      -0.31378809     0             -0.27347625     8.0328688e-05
   2317000   0.050744577   -0.31295143     0             -0.27256192    -0.00015924677
   2318000   0.051833029   -0.31335899     0             -0.27210314     0.00090197557
   2319000   0.05079028    -0.31492308     0             -0.27449719     0.0022398372 
   2320000   0.048534324   -0.31313108     0             -0.27450079    -0.0095785142 
   2321000   0.049992915   -0.31410618     0             -0.27431495     0.011453522  
   2322000   0.050675746   -0.31375992     0             -0.2734252     -0.00019727059
   2323000   0.053238376   -0.31275649     0             -0.27038207    -0.0046581961 
   2324000   0.051453413   -0.31302176     0             -0.27206806    -0.0024506922 
   2325000   0.050080841   -0.31329288     0             -0.27343166    -0.0020714713 
   2326000   0.050428244   -0.31353961     0             -0.27340188     0.0022237509 
   2327000   0.0482741     -0.31431542     0             -0.27589225    -0.0002874504 
   2328000   0.051470473   -0.29908025     0             -0.25811297    -0.00024710358
   2329000   0.050054493   -0.31286197     0             -0.27302173     0.0021433112 
   2330000   0.053597247   -0.31223436     0             -0.2695743      0.0064995634 
   2331000   0.051216493   -0.31382693     0             -0.2730618     -0.0034904165 
   2332000   0.048743565   -0.30950401     0             -0.27070718     0.001047815  
   2333000   0.050484747   -0.31242665     0             -0.27224395    -0.00075144063
   2334000   0.049998532   -0.31260447     0             -0.27280876    -0.00080498605
   2335000   0.051227193   -0.31082411     0             -0.27005047    -0.0010245838 
   2336000   0.049614903   -0.31265416     0             -0.2731638      0.0047411908 
   2337000   0.051169779   -0.31357129     0             -0.27284334    -0.01043486   
   2338000   0.047236418   -0.31095065     0             -0.27335341     0.005234148  
   2339000   0.049631389   -0.31056017     0             -0.27105669     0.0049602097 
   2340000   0.049760613   -0.31326926     0             -0.27366292    -0.0025203065 
   2341000   0.051642803   -0.30547757     0             -0.26437312     0.004643395  
   2342000   0.051271501   -0.30883686     0             -0.26802795    -0.00019880148
   2343000   0.049746066   -0.30785121     0             -0.26825645    -0.0039525065 
   2344000   0.048941921   -0.31174023     0             -0.27278552     0.0017747959 
   2345000   0.052119998   -0.31423356     0             -0.2727493      0.004286713  
   2346000   0.051321704   -0.31418297     0             -0.2733341      0.0041271845 
   2347000   0.052130332   -0.31325955     0             -0.27176707     0.00019953415
   2348000   0.049616657   -0.31419309     0             -0.27470133    -0.0006426474 
   2349000   0.050293819   -0.31278166     0             -0.27275092     0.0016717935 
   2350000   0.050153949   -0.31333971     0             -0.2734203     -0.00075867459
   2351000   0.050536529   -0.31272453     0             -0.27250061     0.00059113864
   2352000   0.050764452   -0.31275056     0             -0.27234523    -0.0086739722 
   2353000   0.05009919    -0.31338174     0             -0.27350591    -0.0038885894 
   2354000   0.05218505    -0.31332271     0             -0.27178667     0.0071757712 
   2355000   0.04935816    -0.31217042     0             -0.27288441    -0.0064793959 
   2356000   0.050760849   -0.31205066     0             -0.2716482     -0.0021420699 
   2357000   0.050167039   -0.31286938     0             -0.27293955     0.003794116  
   2358000   0.049494198   -0.31247263     0             -0.27307835    -0.0022098765 
   2359000   0.049569624   -0.31184527     0             -0.27239095    -0.0053517611 
   2360000   0.047887838   -0.31375806     0             -0.27564233    -0.0015708369 
   2361000   0.047422187   -0.31171189     0             -0.2739668      0.006894779  
   2362000   0.050160158   -0.30585278     0             -0.26592843    -0.0028357013 
   2363000   0.049037256   -0.31078639     0             -0.2717558      0.0047490129 
   2364000   0.050641595   -0.31032512     0             -0.27001757     0.00041251893
   2365000   0.049770411   -0.31133677     0             -0.27172263    -0.0022961501 
   2366000   0.051062873   -0.29929543     0             -0.25865257    -0.005357287  
   2367000   0.047396379   -0.30178958     0             -0.26406502    -0.0053611515 
   2368000   0.050644553   -0.30665822     0             -0.26634832     0.0079672263 
   2369000   0.052832687   -0.31252142     0             -0.2704699      0.0073882764 
   2370000   0.048548056   -0.3118653      0             -0.27322408    -0.0043444706 
   2371000   0.050579091   -0.31063135     0             -0.27037355     0.003955532  
   2372000   0.052096918   -0.31191537     0             -0.27044948    -0.0020244216 
   2373000   0.050587785   -0.31219864     0             -0.27193392     9.2304142e-05
   2374000   0.050029205   -0.30878598     0             -0.26896586    -0.00057737372
   2375000   0.050181558   -0.31115397     0             -0.27121259    -0.003671303  
   2376000   0.052282008   -0.31163669     0             -0.27002348    -0.0044759348 
   2377000   0.052189334   -0.31092071     0             -0.26938126     0.0068410521 
   2378000   0.050448489   -0.31215266     0             -0.27199881    -0.0040352562 
   2379000   0.051763053   -0.30977359     0             -0.26857343    -0.0058706587 
   2380000   0.052478438   -0.31170701     0             -0.26993746     0.0041674263 
   2381000   0.050376392   -0.31146668     0             -0.27137022    -0.0046371228 
   2382000   0.048763096   -0.31170435     0             -0.27289197    -0.0056207713 
   2383000   0.047961924   -0.31132511     0             -0.27315042     0.002170668  
   2384000   0.049109292   -0.30766361     0             -0.26857569     0.0051896747 
   2385000   0.050615451   -0.31239872     0             -0.27211198    -0.0080270442 
   2386000   0.048858641   -0.31149391     0             -0.27260548    -0.0037238737 
   2387000   0.050759733   -0.30525836     0             -0.26485679    -0.002920162  
   2388000   0.050692158   -0.30967005     0             -0.26932226     0.0035333451 
   2389000   0.049348147   -0.31163179     0             -0.27235375    -0.0011214387 
   2390000   0.049910698   -0.31115343     0             -0.27142763    -0.0006101434 
   2391000   0.050068425   -0.3114481      0             -0.27159676     0.0051899879 
   2392000   0.049751995   -0.31245359     0             -0.27285411     0.0064790666 
   2393000   0.050179013   -0.31098744     0             -0.27104808    -0.0025404383 
   2394000   0.0501245     -0.31131271     0             -0.27141674     0.00057484877
   2395000   0.050133436   -0.31046093     0             -0.27055785    -0.005754914  
   2396000   0.052160905   -0.30675183     0             -0.26523501    -0.0026241015 
   2397000   0.048705133   -0.31255882     0             -0.27379258     0.0021514591 
   2398000   0.048182481   -0.30054805     0             -0.26219781     0.006213634  
   2399000   0.049043466   -0.31123614     0             -0.27220061     0.001789228  
   2400000   0.049195505   -0.31058656     0             -0.27143001     0.00050743234
   2401000   0.049067351   -0.31229452     0             -0.27323997     0.0027086851 
   2402000   0.048984528   -0.31289861     0             -0.27390998     0.0032686452 
   2403000   0.052360068   -0.31206894     0             -0.27039359     0.0060396919 
   2404000   0.050593658   -0.31132296     0             -0.27105357     0.0024795154 
   2405000   0.048921111   -0.31284426     0             -0.27390611     0.0026255697 
   2406000   0.050336817   -0.3121347      0             -0.27206974    -0.0087811446 
   2407000   0.048845069   -0.31267377     0             -0.27379615     0.0056736562 
   2408000   0.052803073   -0.30029755     0             -0.2582696      0.0052765742 
   2409000   0.050456253   -0.31355423     0             -0.2733942      0.0013231271 
   2410000   0.050339377   -0.31225725     0             -0.27219025     0.00097526617
   2411000   0.048211425   -0.31212864     0             -0.27375536    -0.0069090483 
   2412000   0.05096917    -0.31394665     0             -0.27337838     0.0043922731 
   2413000   0.050867841   -0.31377369     0             -0.27328607    -0.0071920226 
   2414000   0.050755443   -0.31289091     0             -0.27249274    -0.00072761572
   2415000   0.050020743   -0.31372019     0             -0.27390681    -0.0022758961 
   2416000   0.047384618   -0.31308381     0             -0.27536861    -0.0057881182 
   2417000   0.046979076   -0.31271157     0             -0.27531916    -0.0064801469 
   2418000   0.048671979   -0.31216425     0             -0.27342439    -0.0040923757 
   2419000   0.051029714   -0.31224424     0             -0.27162777    -0.0018778266 
   2420000   0.04973771    -0.31157328     0             -0.27198517    -0.0027391954 
   2421000   0.050649613   -0.30261238     0             -0.26229845     0.0081588026 
   2422000   0.049386499   -0.31300092     0             -0.27369235     0.0045390304 
   2423000   0.050655811   -0.31176561     0             -0.27144675     0.0053524014 
   2424000   0.052267317   -0.31228193     0             -0.27068042     0.0021672385 
   2425000   0.049186304   -0.31243136     0             -0.27328214     0.0023073716 
   2426000   0.049957448   -0.31224183     0             -0.27247882     0.0014813352 
   2427000   0.049309646   -0.31068265     0             -0.27143525    -0.00052398602
   2428000   0.052376243   -0.31137511     0             -0.2696869      0.0030365997 
   2429000   0.049294834   -0.30954977     0             -0.27031417     0.0085991313 
   2430000   0.050135743   -0.31031822     0             -0.2704133      0.0053566633 
   2431000   0.04702638    -0.3117643      0             -0.27433424    -0.0056971094 
   2432000   0.05210123    -0.3108942      0             -0.26942488     0.004526761  
   2433000   0.048276076   -0.310824       0             -0.27239927    -0.0071405399 
   2434000   0.05047906    -0.31102951     0             -0.27085134    -0.00090726116
   2435000   0.048580386   -0.31245406     0             -0.27378711    -0.0016706916 
   2436000   0.04821373    -0.31017342     0             -0.2717983     -0.0025267007 
   2437000   0.049279789   -0.31059497     0             -0.27137134     0.00030560447
   2438000   0.050561006   -0.3087476      0             -0.2685042     -0.004393768  
   2439000   0.05244297    -0.31043472     0             -0.26869339     0.0053616805 
   2440000   0.047853775   -0.31110598     0             -0.27301737     0.0040031277 
   2441000   0.051315502   -0.30849868     0             -0.26765475    -0.010010166  
   2442000   0.052040465   -0.30862779     0             -0.26720683    -0.0010860868 
   2443000   0.050038005   -0.31023749     0             -0.27041036    -0.0041395364 
   2444000   0.051137621   -0.30638741     0             -0.26568506     0.010131926  
   2445000   0.051634904   -0.30020493     0             -0.25910677     0.011394059  
   2446000   0.051859948   -0.30994133     0             -0.26866405     0.003132964  
   2447000   0.049770071   -0.31149773     0             -0.27188386     0.00055174612
   2448000   0.052073841   -0.31107272     0             -0.2696252     -0.0017763617 
   2449000   0.049815819   -0.31054452     0             -0.27089424    -0.0039779192 
   2450000   0.049882103   -0.31007781     0             -0.27037477     0.0012540752 
   2451000   0.050650464   -0.31022742     0             -0.26991282    -0.0032002607 
   2452000   0.051845042   -0.3102406      0             -0.26897518     0.0024993935 
   2453000   0.050170036   -0.30884908     0             -0.26891687     0.0022497215 
   2454000   0.049369942   -0.30319264     0             -0.26389725     0.0049630723 
   2455000   0.051413488   -0.30993166     0             -0.26900973    -0.0035403054 
   2456000   0.048750963   -0.3103362      0             -0.27153348    -0.0038975151 
   2457000   0.051004706   -0.31188784     0             -0.27129128    -0.0025209593 
   2458000   0.052138212   -0.30422646     0             -0.2627277     -0.00084954954
   2459000   0.049767331   -0.31019174     0             -0.27058006    -0.0061377328 
   2460000   0.050029011   -0.31105875     0             -0.27123879     0.0010088708 
   2461000   0.050739945   -0.31146048     0             -0.27107465    -0.0004346956 
   2462000   0.049480204   -0.31142657     0             -0.27204342    -0.0026968092 
   2463000   0.048337155   -0.30937417     0             -0.27090082     0.0048182749 
   2464000   0.050325224   -0.3102914      0             -0.27023567    -0.00010701788
   2465000   0.050656569   -0.30995328     0             -0.26963382    -0.0029302008 
   2466000   0.050493816   -0.30921464     0             -0.26902472    -0.0061265549 
   2467000   0.05075882    -0.30910839     0             -0.26870754     0.00231445   
   2468000   0.051125943   -0.29216934     0             -0.25147628    -0.0055423818 
   2469000   0.048823819   -0.30521898     0             -0.26635827    -0.0068956432 
   2470000   0.050023532   -0.30872365     0             -0.26890805     0.0027307066 
   2471000   0.050042734   -0.30836873     0             -0.26853784    -0.0059739709 
   2472000   0.047079441   -0.30751949     0             -0.27004719     0.010020621  
   2473000   0.053188964   -0.30790379     0             -0.2655687      0.00052310455
   2474000   0.053418147   -0.29650917     0             -0.25399167    -0.00081326351
   2475000   0.04752303    -0.30865992     0             -0.27083456     0.0065118733 
   2476000   0.051318414   -0.30901388     0             -0.26816763    -0.0060530544 
   2477000   0.050329929   -0.30854894     0             -0.26848946     0.00081424771
   2478000   0.049188172   -0.30722771     0             -0.268077      -0.0064649187 
   2479000   0.049109135   -0.30857571     0             -0.26948791     0.00040063117
   2480000   0.050029183   -0.30731007     0             -0.26748997    -0.0037420104 
   2481000   0.049079513   -0.30920347     0             -0.27013924    -0.0058065983 
   2482000   0.051283245   -0.30741309     0             -0.26659483     0.001218343  
   2483000   0.047828138   -0.3084903      0             -0.27042209    -0.0077355916 
   2484000   0.049067821   -0.30816063     0             -0.26910571    -0.0017765347 
   2485000   0.052598272   -0.30869574     0             -0.2668308      0.0065242445 
   2486000   0.050807825   -0.30514413     0             -0.26470427    -0.005494986  
   2487000   0.050110584   -0.30766531     0             -0.26778042     0.0036679735 
   2488000   0.053731727   -0.30858997     0             -0.26582288     0.0025350385 
   2489000   0.050915168   -0.30764605     0             -0.26712076     0.0038312421 
   2490000   0.049514574   -0.30876999     0             -0.26935948     0.0030694406 
   2491000   0.048885497   -0.30821629     0             -0.26930649    -4.1069462e-05
   2492000   0.051921971   -0.30359378     0             -0.26226713    -0.0037209996 
   2493000   0.050520095   -0.30889473     0             -0.26868389     0.017060933  
   2494000   0.052280305   -0.30813515     0             -0.26652329    -0.00079095848
   2495000   0.048718998   -0.30853863     0             -0.26976136    -0.00066505894
   2496000   0.050165476   -0.30886517     0             -0.26893658     0.0026500728 
   2497000   0.049356036   -0.30860447     0             -0.26932015     0.0055437776 
   2498000   0.04920127    -0.3083323      0             -0.26917117    -0.0046581106 
   2499000   0.04928806    -0.30977354     0             -0.27054332    -0.00102714   
   2500000   0.048496184   -0.30988908     0             -0.27128914     0.0041665974 
   2501000   0.050427896   -0.31035848     0             -0.27022102    -0.0058305037 
   2502000   0.048790097   -0.30924056     0             -0.27040669     0.0016920923 
   2503000   0.04891926    -0.31023008     0             -0.27129341     0.004601757  
   2504000   0.047369401   -0.30998893     0             -0.27228585     0.0010600292 
   2505000   0.049751651   -0.30814963     0             -0.26855043     0.0027256282 
   2506000   0.049250825   -0.31042446     0             -0.27122388    -0.0043745649 
   2507000   0.049354807   -0.31083753     0             -0.27155419     0.0035495549 
   2508000   0.050847305   -0.3103668      0             -0.26989552    -0.002644162  
   2509000   0.050460562   -0.31071451     0             -0.27055106     0.0053318022 
   2510000   0.047284079   -0.2980737      0             -0.26043853    -0.0047608391 
   2511000   0.051875635   -0.31060142     0             -0.26931165     0.0077053385 
   2512000   0.048638138   -0.3057016      0             -0.26698868     0.0051839608 
   2513000   0.049862882   -0.31037804     0             -0.2706903     -0.0035313887 
   2514000   0.050005434   -0.31058469     0             -0.27078349    -0.0040016886 
   2515000   0.051737351   -0.30963599     0             -0.26845629     0.0026378234 
   2516000   0.047380691   -0.31135572     0             -0.27364365     0.0021819305 
   2517000   0.049678552   -0.30982441     0             -0.27028339     0.0044548579 
   2518000   0.049816572   -0.30783856     0             -0.26818768    -0.0056034767 
   2519000   0.049400213   -0.31072612     0             -0.27140664    -0.0053050381 
   2520000   0.050228016   -0.29421771     0             -0.25423935    -0.0034033759 
   2521000   0.051022828   -0.31123152     0             -0.27062054    -0.0030753295 
   2522000   0.048829368   -0.30774135     0             -0.26887622    -0.0024769914 
   2523000   0.049557347   -0.30563066     0             -0.26618611     0.0029504247 
   2524000   0.050018772   -0.3109924      0             -0.27118059     0.003100744  
   2525000   0.049575373   -0.31101975     0             -0.27156085     0.0044442743 
   2526000   0.049097367   -0.31152363     0             -0.27244519    -0.0040087757 
   2527000   0.052518657   -0.3115269      0             -0.26972533     0.0065018244 
   2528000   0.049232933   -0.31232326     0             -0.27313692    -0.0010089773 
   2529000   0.047828249   -0.31120314     0             -0.27313485     0.00034731383
   2530000   0.05283113    -0.31215779     0             -0.27010751     0.0074792307 
   2531000   0.051150865   -0.31194828     0             -0.27123539    -0.0017480556 
   2532000   0.051698152   -0.31169156     0             -0.27054306     0.00034899271
   2533000   0.049422987   -0.31151411     0             -0.2721765      0.00019723351
   2534000   0.049895841   -0.31129578     0             -0.27158181    -0.0040662297 
   2535000   0.048984939   -0.31121767     0             -0.27222872     0.0030448631 
   2536000   0.051116113   -0.31210453     0             -0.2714193      0.010629872  
   2537000   0.048903129   -0.29904606     0             -0.26012223    -0.003476336  
   2538000   0.051115936   -0.31103043     0             -0.27034534     0.0042311314 
   2539000   0.050489675   -0.31073131     0             -0.27054468    -0.0025172321 
   2540000   0.050304345   -0.31137208     0             -0.27133297     0.0066930387 
   2541000   0.049692372   -0.30495767     0             -0.26540565     0.0020917017 
   2542000   0.052600158   -0.31090861     0             -0.26904218     0.0039347948 
   2543000   0.050541247   -0.31159964     0             -0.27137197    -0.0054636741 
   2544000   0.051850783   -0.3113677      0             -0.27009772     0.0055401005 
   2545000   0.050901112   -0.31141804     0             -0.27090394    -0.00087038463
   2546000   0.050219797   -0.30561947     0             -0.26564765     0.00066999318
   2547000   0.051058479   -0.31041136     0             -0.269772       0.011277913  
   2548000   0.050054572   -0.30418332     0             -0.264343      -0.0014832877 
   2549000   0.050629015   -0.31234715     0             -0.27204962    -0.0012100742 
   2550000   0.049638506   -0.31288015     0             -0.27337101    -0.0031738903 
   2551000   0.047838795   -0.312165       0             -0.27408831    -0.0051066382 
   2552000   0.048295054   -0.30461106     0             -0.26617121     0.0037517386 
   2553000   0.049980019   -0.31209107     0             -0.2723101     -0.00057413093
   2554000   0.049499287   -0.30667738     0             -0.26727905    -0.0010948986 
   2555000   0.047401742   -0.31241999     0             -0.27469116    -0.0015657679 
   2556000   0.048643397   -0.30629573     0             -0.26757862    -0.0025622827 
   2557000   0.048931374   -0.31083133     0             -0.27188502    -0.0025896312 
   2558000   0.047930045   -0.30063777     0             -0.26248845    -0.0064608619 
   2559000   0.051025629   -0.31127868     0             -0.27066547     0.0012154235 
   2560000   0.05012188    -0.30625226     0             -0.26635837     0.00065372047
   2561000   0.054238865   -0.31257672     0             -0.26940598    -0.0052573322 
   2562000   0.051156993   -0.30017246     0             -0.25945469    -0.0025603739 
   2563000   0.050003811   -0.31172209     0             -0.27192218     0.0051557693 
   2564000   0.052283073   -0.31308365     0             -0.27146959    -0.0045895795 
   2565000   0.049826324   -0.31193343     0             -0.27227479     0.0064618252 
   2566000   0.048557401   -0.31185252     0             -0.27320387    -0.00065880791
   2567000   0.052020375   -0.31235424     0             -0.27094927    -0.0049125367 
   2568000   0.050655189   -0.31221406     0             -0.27189569    -0.0015217663 
   2569000   0.048621676   -0.31261788     0             -0.27391807    -0.0034282533 
   2570000   0.050199293   -0.31271987     0             -0.27276437     0.0017154734 
   2571000   0.048042342   -0.31251288     0             -0.27427417    -0.00049172498
   2572000   0.048989085   -0.312818       0             -0.27382575    -0.0043520657 
   2573000   0.051255507   -0.31311254     0             -0.27231636    -0.0020762846 
   2574000   0.049515643   -0.30768581     0             -0.26827445    -0.00022254972
   2575000   0.047942998   -0.31229596     0             -0.27413633    -0.00093660395
   2576000   0.050131249   -0.31236221     0             -0.27246087     0.0060060583 
   2577000   0.047981058   -0.31205769     0             -0.27386777     0.0034220141 
   2578000   0.048842508   -0.31299312     0             -0.27411753    -0.0007916608 
   2579000   0.051023831   -0.31275853     0             -0.27214675     0.0014819352 
   2580000   0.049587626   -0.31342343     0             -0.27395478    -0.0056657947 
   2581000   0.050103488   -0.31346523     0             -0.27358598     4.4892196e-05
   2582000   0.049618838   -0.31248202     0             -0.27298852     0.0032508436 
   2583000   0.05160387    -0.31288976     0             -0.2718163      0.0084479923 
   2584000   0.049028298   -0.31218067     0             -0.27315721    -0.00026710444
   2585000   0.048688335   -0.31341102     0             -0.27465815    -0.0061136868 
   2586000   0.04789346    -0.31182728     0             -0.27370707     0.0027971131 
   2587000   0.05074507    -0.31358244     0             -0.27319254    -0.0071094338 
   2588000   0.049553752   -0.31363072     0             -0.27418904     0.0024494797 
   2589000   0.049938284   -0.31183918     0             -0.27209143    -0.0011769492 
   2590000   0.049122433   -0.3061447      0             -0.26704631    -0.0053164582 
   2591000   0.048559143   -0.31267364     0             -0.2740236     -0.010763844  
   2592000   0.052339967   -0.31365827     0             -0.27199893    -0.0060368835 
   2593000   0.048218085   -0.31323652     0             -0.27485794    -0.0074784796 
   2594000   0.049976375   -0.31300127     0             -0.27322319     0.0026237136 
   2595000   0.049936077   -0.31281598     0             -0.27306998     0.0058354348 
   2596000   0.04957565    -0.31234519     0             -0.27288607     0.0002104253 
   2597000   0.049069685   -0.31178621     0             -0.27272981    -0.00080572233
   2598000   0.050375913   -0.31198077     0             -0.27188469    -0.0027460253 
   2599000   0.049378513   -0.31271679     0             -0.27341458     6.0993811e-05
   2600000   0.048602845   -0.31250318     0             -0.27381835    -0.0028835526 
   2601000   0.05213606    -0.31290575     0             -0.27140871    -0.0046529578 
   2602000   0.052695643   -0.31296896     0             -0.27102652     0.017822885  
   2603000   0.051992972   -0.3141503      0             -0.27276715    -0.00437249   
   2604000   0.05096223    -0.31307393     0             -0.27251118    -0.0075851217 
   2605000   0.05388815    -0.31281026     0             -0.26991866    -0.001657529  
   2606000   0.050993098   -0.31306044     0             -0.27247312    -0.0012515902 
   2607000   0.05099014    -0.31272613     0             -0.27214117     0.0017105203 
   2608000   0.050185604   -0.30460501     0             -0.26466041    -0.0034121446 
   2609000   0.049600807   -0.31280972     0             -0.27333058     0.012219407  
   2610000   0.050383917   -0.30809319     0             -0.26799074     0.0010063178 
   2611000   0.049983428   -0.30657703     0             -0.26679335    -0.00046154954
   2612000   0.053032471   -0.31322793     0             -0.2710174     -0.00041212364
   2613000   0.047516682   -0.31304669     0             -0.27522638    -0.0026090577 
   2614000   0.048866022   -0.31211125     0             -0.27321695    -0.0081415762 
   2615000   0.050034854   -0.31301971     0             -0.27319509     0.0022898963 
   2616000   0.049224903   -0.31301909     0             -0.27383915    -0.00040994746
   2617000   0.05274978    -0.31263052     0             -0.27064499    -0.0074447467 
   2618000   0.051067779   -0.31009851     0             -0.26945175    -0.0001631652 
   2619000   0.048756338   -0.31268434     0             -0.27387734     0.0021553385 
   2620000   0.048982283   -0.31258504     0             -0.27359821     0.00057390973
   2621000   0.048623024   -0.30946862     0             -0.27076773    -0.00019372311
   2622000   0.05210278    -0.31248871     0             -0.27101815     0.00029430113
   2623000   0.049770387   -0.31230041     0             -0.27268629     0.0056072557 
   2624000   0.048841612   -0.31289684     0             -0.27402197    -0.002284492  
   2625000   0.046937301   -0.31241974     0             -0.27506058     0.0049006386 
   2626000   0.053365959   -0.30667628     0             -0.26420032    -0.0056730297 
   2627000   0.05019351    -0.31289379     0             -0.27294289     0.0010841329 
   2628000   0.048186845   -0.3132326      0             -0.27487889    -0.00096361627
   2629000   0.048559324   -0.31214292     0             -0.27349273    -0.00050223961
   2630000   0.052911779   -0.3063361      0             -0.26422163     0.0073299803 
   2631000   0.052036535   -0.31232526     0             -0.27090743     0.00081967279
   2632000   0.050732606   -0.31057062     0             -0.27019063    -0.00021441492
   2633000   0.04989161    -0.31114225     0             -0.27143164    -0.0042654038 
   2634000   0.050795282   -0.30912526     0             -0.26869539    -0.0023868767 
   2635000   0.050347451   -0.31100813     0             -0.27093471     0.0013069401 
   2636000   0.050081618   -0.31076087     0             -0.27089903     0.0034928284 
   2637000   0.050179129   -0.31056704     0             -0.27062759    -0.002884303  
   2638000   0.051937584   -0.31091942     0             -0.26958035    -0.0049570494 
   2639000   0.049945702   -0.3108951      0             -0.27114144     0.004443981  
   2640000   0.048753677   -0.31102043     0             -0.27221555    -0.0024485578 
   2641000   0.048254358   -0.31233381     0             -0.27392636     0.00035665991
   2642000   0.051077222   -0.31128245     0             -0.27062817    -0.0038972602 
   2643000   0.050852402   -0.3111911      0             -0.27071577     0.0044859292 
   2644000   0.050084413   -0.30349146     0             -0.26362739    -0.0037457396 
   2645000   0.050889623   -0.31116864     0             -0.27066368     0.0052023901 
   2646000   0.052037828   -0.31086406     0             -0.2694452     -0.0035926826 
   2647000   0.049350484   -0.31002793     0             -0.27074802     0.0047290181 
   2648000   0.051839532   -0.31090966     0             -0.26964863     0.0038772973 
   2649000   0.050577571   -0.3111773      0             -0.27092071    -0.0034779897 
   2650000   0.047639816   -0.31126362     0             -0.27334531     0.0010593104 
   2651000   0.051797986   -0.31137403     0             -0.27014607    -0.0002896565 
   2652000   0.049012434   -0.31103621     0             -0.27202537    -0.001968579  
   2653000   0.048418276   -0.31134967     0             -0.27281175    -0.005536564  
   2654000   0.048608999   -0.31185451     0             -0.27316479    -0.0030867411 
   2655000   0.049639527   -0.3109351      0             -0.27142513     0.0013736451 
   2656000   0.047848661   -0.31252781     0             -0.27444327    -0.0067317105 
   2657000   0.049190624   -0.31114618     0             -0.27199352    -0.003797835  
   2658000   0.049929206   -0.31210106     0             -0.27236053    -0.0016786234 
   2659000   0.046752013   -0.30940006     0             -0.27218838    -0.0060266619 
   2660000   0.050015098   -0.31206735     0             -0.27225846    -0.00053538387
   2661000   0.0522752     -0.3119933      0             -0.27038551    -0.0020422504 
   2662000   0.050089316   -0.31139368     0             -0.27152571     0.0071780964 
   2663000   0.049057221   -0.31150738     0             -0.2724609      6.5959681e-05
   2664000   0.047539984   -0.31201855     0             -0.27417969    -0.0036912817 
   2665000   0.048899833   -0.30730915     0             -0.26838794     0.00075715836
   2666000   0.050468787   -0.31074823     0             -0.27057823     0.0044835164 
   2667000   0.052706948   -0.31283326     0             -0.27088182     0.0044302855 
   2668000   0.049422142   -0.31209393     0             -0.27275699    -0.010058336  
   2669000   0.051150187   -0.31154717     0             -0.27083482     0.003490437  
   2670000   0.051072841   -0.31342542     0             -0.27277463     0.0041926873 
   2671000   0.049280275   -0.31138348     0             -0.27215946    -0.0043544214 
   2672000   0.050503962   -0.31138102     0             -0.27118302     0.0017886623 
   2673000   0.049653456   -0.31195972     0             -0.27243867    -0.0013278826 
   2674000   0.048743966   -0.31068887     0             -0.27189172     0.001130528  
   2675000   0.047485382   -0.3102286      0             -0.27243321    -0.00047911646
   2676000   0.051010613   -0.30905043     0             -0.26844917     0.00213357   
   2677000   0.04742786    -0.30967577     0             -0.27192616    -0.005147062  
   2678000   0.048451103   -0.31008375     0             -0.2715197      0.0064759836 
   2679000   0.050433736   -0.31008762     0             -0.26994552     0.0026416677 
   2680000   0.050241753   -0.30894908     0             -0.26895979     0.0003263055 
   2681000   0.053079504   -0.30877833     0             -0.26653037     0.0056856861 
   2682000   0.050018593   -0.30966894     0             -0.26985726     0.0030268187 
   2683000   0.048682456   -0.30991856     0             -0.27117036    -0.0027490935 
   2684000   0.048514951   -0.30993502     0             -0.27132015    -0.00087997987
   2685000   0.052232335   -0.30329853     0             -0.26172486    -0.0028916934 
   2686000   0.049067272   -0.30992563     0             -0.27087115    -0.0040675872 
   2687000   0.048056371   -0.3106954      0             -0.27244553     0.0038991605 
   2688000   0.050342161   -0.30896027     0             -0.26889106     0.0071854808 
   2689000   0.051513755   -0.30427416     0             -0.26327243     5.2913009e-05
   2690000   0.051479231   -0.30989043     0             -0.26891618    -0.0014023026 
   2691000   0.050279471   -0.31036493     0             -0.27034562    -0.0045541043 
   2692000   0.049611341   -0.30938803     0             -0.2699005      0.0015364    
   2693000   0.048087639   -0.3088177      0             -0.27054295    -0.0018119431 
   2694000   0.052348306   -0.30904211     0             -0.26737613    -0.0011302365 
   2695000   0.048834051   -0.30987254     0             -0.27100369     0.00030793442
   2696000   0.049769339   -0.30955145     0             -0.26993817     0.0060646612 
   2697000   0.04957909    -0.30377816     0             -0.26431631     0.0041762536 
   2698000   0.050975716   -0.30837822     0             -0.26780473    -0.0044133977 
   2699000   0.047846136   -0.31030479     0             -0.27222225     0.00029442877
   2700000   0.049087711   -0.30866063     0             -0.26958988    -0.0044304473 
   2701000   0.048631932   -0.30925213     0             -0.27054415    -0.001119463  
   2702000   0.0523798     -0.30872305     0             -0.267032      -0.0050977907 
   2703000   0.048764537   -0.30925112     0             -0.2704376     -0.00098254221
   2704000   0.051587797   -0.30914558     0             -0.26808492    -0.0010414237 
   2705000   0.05081352    -0.30421055     0             -0.26376616    -0.0053958372 
   2706000   0.049032503   -0.30933983     0             -0.27031303     0.0026684694 
   2707000   0.050314718   -0.31034899     0             -0.27030162    -0.00053730521
   2708000   0.05256684    -0.30344285     0             -0.26160293     0.00085726972
   2709000   0.050502167   -0.30967723     0             -0.26948066    -0.00051616312
   2710000   0.050238401   -0.30910099     0             -0.26911437    -0.0026061649 
   2711000   0.052150355   -0.30889578     0             -0.26738735     0.00048153078
   2712000   0.051513559   -0.30315831     0             -0.26215674     0.002172521  
   2713000   0.052054072   -0.30823593     0             -0.26680414     0.0010412134 
   2714000   0.051747208   -0.30936582     0             -0.26817827     0.0049347687 
   2715000   0.049414628   -0.30813872     0             -0.26880776     0.0081441481 
   2716000   0.048965538   -0.30731616     0             -0.26834266     0.0015516216 
   2717000   0.050027165   -0.30866998     0             -0.26885149     0.0039870067 
   2718000   0.052000103   -0.30664877     0             -0.26525994    -0.0057797953 
   2719000   0.048736229   -0.30729836     0             -0.26850736    -0.0044150154 
   2720000   0.048705828   -0.30696543     0             -0.26819863    -0.0011777758 
   2721000   0.049260246   -0.30814912     0             -0.26894104     0.0099468442 
   2722000   0.050118127   -0.30791799     0             -0.2680271     -0.0048815626 
   2723000   0.048785529   -0.30825522     0             -0.26942499     0.0057472278 
   2724000   0.049828406   -0.30144424     0             -0.26178395    -0.0053471476 
   2725000   0.051085827   -0.30796456     0             -0.26730344    -0.0028500053 
   2726000   0.049974255   -0.30745867     0             -0.26768229     0.00067713714
   2727000   0.049773041   -0.30781778     0             -0.26820155     0.0037886368 
   2728000   0.049714755   -0.30798618     0             -0.26841634     0.0062316573 
   2729000   0.052263911   -0.30861401     0             -0.26701521     0.0014645058 
   2730000   0.047848567   -0.30924855     0             -0.27116408    -0.0071694112 
   2731000   0.050836954   -0.30925908     0             -0.26879604    -0.0085317687 
   2732000   0.050089822   -0.30995517     0             -0.27008681    -0.0043808998 
   2733000   0.050076316   -0.3091727      0             -0.26931508    -0.0081735608 
   2734000   0.049595967   -0.30844908     0             -0.26897379    -0.0026949125 
   2735000   0.046433324   -0.30500206     0             -0.26804404    -0.0012303222 
   2736000   0.049562486   -0.30626319     0             -0.26681455    -0.0035995326 
   2737000   0.049747984   -0.30936805     0             -0.26977177    -6.0063523e-06
   2738000   0.048532133   -0.30993845     0             -0.27130991     0.0039614577 
   2739000   0.047734986   -0.3094587      0             -0.27146463     0.0017230304 
   2740000   0.050407059   -0.3095869      0             -0.26946603     0.0032493719 
   2741000   0.052484707   -0.30938485     0             -0.2676103     -0.0040388752 
   2742000   0.049729269   -0.31118985     0             -0.27160846    -0.0015264132 
   2743000   0.048952502   -0.31013019     0             -0.27116705     0.0052177063 
   2744000   0.052310272   -0.31035829     0             -0.26872258    -0.00020611212
   2745000   0.049619624   -0.31097994     0             -0.27148582     0.0009328619 
   2746000   0.05112693    -0.30977965     0             -0.26908581    -0.0044255588 
   2747000   0.04928905    -0.31063391     0             -0.27140291    -0.0018340991 
   2748000   0.049785604   -0.31069443     0             -0.2710682     -0.011930368  
   2749000   0.049374139   -0.31022373     0             -0.27092501     0.0053823976 
   2750000   0.049037153   -0.31009322     0             -0.27106271    -0.004615669  
   2751000   0.050759257   -0.31065902     0             -0.27025783     0.009878759  
   2752000   0.051221458   -0.30898395     0             -0.26821487    -0.0017828442 
   2753000   0.04866162    -0.29853604     0             -0.25980444     0.0013452779 
   2754000   0.050932776   -0.31053795     0             -0.26999864    -0.0031453547 
   2755000   0.048746998   -0.30954954     0             -0.27074997    -0.0012247888 
   2756000   0.047428596   -0.31049053     0             -0.27274033     0.0069414236 
   2757000   0.049410472   -0.31078872     0             -0.27146107    -0.0055353726 
   2758000   0.0511992     -0.31043851     0             -0.26968715     0.00092093877
   2759000   0.051777588   -0.30942461     0             -0.26821288     0.0058669036 
   2760000   0.049778196   -0.3053117      0             -0.26569137    -0.010090053  
   2761000   0.050607063   -0.30873958     0             -0.26845953    -0.0020036757 
   2762000   0.049630189   -0.30686716     0             -0.26736463    -0.0014178483 
   2763000   0.049715857   -0.31063064     0             -0.27105993     0.0042680915 
   2764000   0.051557662   -0.31040305     0             -0.26936638     0.00053104144
   2765000   0.050532477   -0.30960426     0             -0.26938357    -0.0018967661 
   2766000   0.050690774   -0.31001338     0             -0.26966669    -0.0084317219 
   2767000   0.049431725   -0.30998609     0             -0.27064152     0.0018777201 
   2768000   0.047662913   -0.30976156     0             -0.27182486    -0.0033068484 
   2769000   0.04872936    -0.31019412     0             -0.2714086      0.00071795986
   2770000   0.049624628   -0.310738       0             -0.2712399     -0.0061821274 
   2771000   0.052421446   -0.31073939     0             -0.2690152      0.0048280512 
   2772000   0.04841043    -0.3104142      0             -0.27188252    -0.0016135878 
   2773000   0.049014808   -0.31004662     0             -0.2710339     -0.00032965994
   2774000   0.051512782   -0.30977191     0             -0.26877096    -0.0071217376 
   2775000   0.050285517   -0.30796291     0             -0.26793879     0.00022864726
   2776000   0.051520415   -0.31106278     0             -0.27005575    -0.0019501597 
   2777000   0.05021267    -0.3103903      0             -0.27042415    -0.0056085701 
   2778000   0.051153899   -0.3098349      0             -0.26911959     0.0086722172 
   2779000   0.050531728   -0.31155099     0             -0.2713309     -0.0072945379 
   2780000   0.052596602   -0.31198698     0             -0.27012337     0.0015932221 
   2781000   0.050540829   -0.31124455     0             -0.27101721    -0.0064991878 
   2782000   0.049112629   -0.31174755     0             -0.27265697     0.0022323248 
   2783000   0.049801813   -0.31162083     0             -0.2719817      0.0028740013 
   2784000   0.053681686   -0.31148202     0             -0.26875475     0.0014847449 
   2785000   0.048452732   -0.3103332      0             -0.27176786     0.0020991881 
   2786000   0.049927363   -0.31049711     0             -0.27075805     0.0084839328 
   2787000   0.05076239    -0.30944203     0             -0.26903834     0.0059602024 
   2788000   0.049472217   -0.31081126     0             -0.27143447     0.0023045969 
   2789000   0.052924481   -0.31125693     0             -0.26913235    -8.7052967e-05
   2790000   0.049325561   -0.31143729     0             -0.27217722     0.0064786372 
   2791000   0.051301116   -0.31121857     0             -0.27038609     0.0013425097 
   2792000   0.048249102   -0.31158084     0             -0.27317757     0.0014740534 
   2793000   0.05287291    -0.31172249     0             -0.26963896     0.0020179948 
   2794000   0.049814848   -0.30976552     0             -0.27011601    -0.0023453752 
   2795000   0.049668647   -0.31258058     0             -0.27304744    -0.00021836167
   2796000   0.049678989   -0.31219731     0             -0.27265594     0.0034253181 
   2797000   0.051281904   -0.31121303     0             -0.27039584    -0.0019532909 
   2798000   0.05062357    -0.31200293     0             -0.27170973     0.001898166  
   2799000   0.047156164   -0.31289755     0             -0.27536419    -0.0066991291 
   2800000   0.049498429   -0.31136575     0             -0.27196809     0.0056184278 
   2801000   0.050624205   -0.31171486     0             -0.27142116    -0.0021420208 
   2802000   0.049454652   -0.31156795     0             -0.27220514     0.002318178  
   2803000   0.051446208   -0.31223936     0             -0.2712914     -0.004993711  
   2804000   0.05321404    -0.31043636     0             -0.26808131    -0.00059784443
   2805000   0.050495181   -0.31124055     0             -0.27104954     0.0017056744 
   2806000   0.04908599    -0.31166259     0             -0.27259321    -0.0013750233 
   2807000   0.050989132   -0.31149002     0             -0.27090586    -0.0013757567 
   2808000   0.048846842   -0.31162656     0             -0.27274753     0.0026217121 
   2809000   0.051450627   -0.31266903     0             -0.27171754    -0.0025943527 
   2810000   0.048701974   -0.3111746      0             -0.27241087     0.00096199086
   2811000   0.049413429   -0.31233075     0             -0.27300075    -0.0037620199 
   2812000   0.05062156    -0.31289122     0             -0.27259962    -0.0057548434 
   2813000   0.048322205   -0.31281817     0             -0.27435671    -0.0057213186 
   2814000   0.050593477   -0.3120405      0             -0.27177126    -0.0049674232 
   2815000   0.049666575   -0.31234409     0             -0.2728126      0.0034708916 
   2816000   0.052112454   -0.31179506     0             -0.27031681     0.0047924724 
   2817000   0.046813675   -0.31143376     0             -0.274173       0.0015697884 
   2818000   0.049598249   -0.31171895     0             -0.27224184     0.0073453326 
   2819000   0.04745302    -0.31127756     0             -0.27350793     0.0016875657 
   2820000   0.050534933   -0.31260384     0             -0.27238119     0.0070575194 
   2821000   0.049445073   -0.31055934     0             -0.27120415     0.0046853205 
   2822000   0.052915384   -0.31109556     0             -0.26897822     0.0067669519 
   2823000   0.052425978   -0.31119866     0             -0.26947085     0.0094063771 
   2824000   0.05008529    -0.31096276     0             -0.271098       0.0019531558 
   2825000   0.05094784    -0.31121256     0             -0.27066126    -0.0078274267 
   2826000   0.050496727   -0.31083542     0             -0.27064318    -0.0076068636 
   2827000   0.052888726   -0.30948916     0             -0.26739304    -0.0058171101 
   2828000   0.048461187   -0.30904667     0             -0.27047459     0.001271061  
   2829000   0.048572828   -0.31007383     0             -0.27141289     0.0013853381 
   2830000   0.049816906   -0.29669152     0             -0.25704037     0.00087767933
   2831000   0.050996923   -0.3088765      0             -0.26828614     0.0023101558 
   2832000   0.054208008   -0.30878795     0             -0.26564176    -0.00138749   
   2833000   0.05137174    -0.30261209     0             -0.26172339     0.002236871  
   2834000   0.049740254   -0.30837423     0             -0.26878409    -0.0049540255 
   2835000   0.048790045   -0.30775965     0             -0.26892582     0.00017026866
   2836000   0.046933666   -0.30906803     0             -0.27171177    -0.0015669428 
   2837000   0.04978072    -0.30848198     0             -0.26885964     0.0081758854 
   2838000   0.049580836   -0.30906791     0             -0.26960467     0.001004303  
   2839000   0.049330195   -0.30862569     0             -0.26936194     0.0070791005 
   2840000   0.048881572   -0.30885358     0             -0.26994691     0.0018990078 
   2841000   0.049707401   -0.30854184     0             -0.26897786    -0.0085467542 
   2842000   0.051553745   -0.30915574     0             -0.26812218    -0.0044578762 
   2843000   0.050367851   -0.31020718     0             -0.27011752    -0.0020441237 
   2844000   0.049592533   -0.30823366     0             -0.2687611     -0.00022645374
   2845000   0.052056813   -0.3078475      0             -0.26641353    -0.0066464958 
   2846000   0.048033421   -0.30878895     0             -0.27055735     0.00092050637
   2847000   0.04998892    -0.30877903     0             -0.26899097    -0.0028824404 
   2848000   0.048848686   -0.30839717     0             -0.26951667     0.0094202836 
   2849000   0.051535839   -0.30748595     0             -0.26646664     0.0018472315 
   2850000   0.053479984   -0.30399751     0             -0.26143079     0.0040987012 
   2851000   0.051342167   -0.30813957     0             -0.26727441    -0.0039372402 
   2852000   0.053080168   -0.3080379      0             -0.26578941    -0.0062629449 
   2853000   0.046538515   -0.30226909     0             -0.26522735     0.0047278381 
   2854000   0.051234765   -0.30767165     0             -0.26689198    -0.002033762  
   2855000   0.048899052   -0.30552101     0             -0.26660042     0.0019387775 
   2856000   0.049212298   -0.30672608     0             -0.26755617    -0.0035214397 
   2857000   0.050580957   -0.30739695     0             -0.26713766     0.0043109483 
   2858000   0.049979416   -0.30775978     0             -0.26797928     0.0039766639 
   2859000   0.050670066   -0.30788924     0             -0.26755903     0.010292401  
   2860000   0.05145321    -0.30724479     0             -0.26629125     0.0025226853 
   2861000   0.049136082   -0.30718595     0             -0.2680767      0.01302689   
   2862000   0.048410407   -0.30724459     0             -0.26871293    -8.0820702e-05
   2863000   0.050348966   -0.30714167     0             -0.26706704     0.0003658153 
   2864000   0.049715142   -0.30743729     0             -0.26786714     0.0041702227 
   2865000   0.047690328   -0.30737351     0             -0.26941499     0.0086363856 
   2866000   0.047720488   -0.30662153     0             -0.26863901    -0.0040534079 
   2867000   0.049900738   -0.30410431     0             -0.26438644     0.0036957045 
   2868000   0.047747127   -0.30040113     0             -0.2623974     -0.0021550759 
   2869000   0.052422048   -0.30728704     0             -0.26556237    -0.002684632  
   2870000   0.049387711   -0.30915088     0             -0.26984135     0.0028561994 
   2871000   0.050833476   -0.30818827     0             -0.267728       0.0037321329 
   2872000   0.049561461   -0.30942986     0             -0.26998203     0.0014774911 
   2873000   0.049186053   -0.29891494     0             -0.25976591    -0.0014002945 
   2874000   0.049950946   -0.30771672     0             -0.26795889     0.0050001743 
   2875000   0.048482983   -0.30805799     0             -0.26946857    -0.0010058638 
   2876000   0.047642348   -0.3075915      0             -0.26967117    -0.0076552193 
   2877000   0.049852553   -0.3070873      0             -0.26740778     0.0010980508 
   2878000   0.048878458   -0.30799873     0             -0.26909453    -0.0051196903 
   2879000   0.046989715   -0.30799314     0             -0.27059226    -0.0008733261 
   2880000   0.052178759   -0.30754208     0             -0.26601105    -0.010407295  
   2881000   0.051014036   -0.30810256     0             -0.26749857    -0.002264249  
   2882000   0.051298106   -0.30874246     0             -0.26791238    -0.0015468689 
   2883000   0.052068461   -0.30749117     0             -0.26604793    -0.0032807831 
   2884000   0.050692871   -0.30805015     0             -0.26770179     0.0072212301 
   2885000   0.048587941   -0.30974264     0             -0.27106967     0.0035233839 
   2886000   0.052449289   -0.30900696     0             -0.2672606      0.0015632793 
   2887000   0.050724958   -0.30679007     0             -0.26641617    -0.0021475043 
   2888000   0.05035771    -0.30525109     0             -0.2651695     -0.0030891554 
   2889000   0.051301936   -0.30920995     0             -0.26837682     0.0019040516 
   2890000   0.048705082   -0.30852219     0             -0.26975599     0.0027829134 
   2891000   0.050215365   -0.30909158     0             -0.26912329     0.0074296069 
   2892000   0.051696517   -0.30792198     0             -0.26677478    -0.0017242524 
   2893000   0.050120421   -0.30901747     0             -0.26912474    -0.0027934998 
   2894000   0.049531358   -0.30809603     0             -0.26867217     0.0024533881 
   2895000   0.04905751    -0.30827901     0             -0.2692323     -0.0014349    
   2896000   0.049934069   -0.30587399     0             -0.2661296     -0.0030153735 
   2897000   0.049685246   -0.30806198     0             -0.26851563    -0.0031708683 
   2898000   0.048856892   -0.30751459     0             -0.26862755     0.009455478  
   2899000   0.051929715   -0.30719534     0             -0.26586253    -0.0050141648 
   2900000   0.050543447   -0.30715204     0             -0.26692261    -0.00054091448
   2901000   0.048407697   -0.30659836     0             -0.26806886     0.0038827607 
   2902000   0.050599566   -0.30905883     0             -0.26878474    -0.0031289568 
   2903000   0.051207014   -0.30830461     0             -0.26754703     0.0022381146 
   2904000   0.050370838   -0.30814376     0             -0.26805172     0.0028892089 
   2905000   0.049608703   -0.30937494     0             -0.26988951     0.0015936046 
   2906000   0.048314334   -0.30690269     0             -0.2684475     -0.00093288831
   2907000   0.048232483   -0.30927194     0             -0.2708819     -0.00095720157
   2908000   0.050438201   -0.30915044     0             -0.26900478     0.0011019258 
   2909000   0.050874099   -0.30311943     0             -0.26262683     0.0028323566 
   2910000   0.051067845   -0.30160817     0             -0.26096136     0.00078950685
   2911000   0.051053664   -0.30226499     0             -0.26162947    -0.01055995   
   2912000   0.04916453    -0.30813789     0             -0.269006      -0.0064578355 
   2913000   0.049945069   -0.30887409     0             -0.26912093    -0.00056161455
   2914000   0.050340951   -0.30943187     0             -0.26936362    -0.0021053895 
   2915000   0.048452663   -0.30948341     0             -0.27091812    -0.00064433986
   2916000   0.050481959   -0.3077918      0             -0.26761131     0.0093428684 
   2917000   0.053371819   -0.30765058     0             -0.26516995    -0.0001722685 
   2918000   0.048559022   -0.30799186     0             -0.26934191    -0.0017069502 
   2919000   0.048504414   -0.30816343     0             -0.26955695    -0.00011866438
   2920000   0.04930215    -0.3084263      0             -0.26918487     0.0010990717 
   2921000   0.050917099   -0.30837386     0             -0.26784703    -0.0042683816 
   2922000   0.052156276   -0.30856192     0             -0.26704878     0.0043022384 
   2923000   0.051472711   -0.30914434     0             -0.26817528    -0.0071438355 
   2924000   0.052780072   -0.30728381     0             -0.26527417    -0.0011562779 
   2925000   0.050406577   -0.3038817      0             -0.26376121     0.0037213181 
   2926000   0.050545403   -0.30863496     0             -0.26840397     0.0014696699 
   2927000   0.051645581   -0.30183926     0             -0.26073261     0.01159268   
   2928000   0.050673475   -0.30841947     0             -0.26808655     0.0036080226 
   2929000   0.050535477   -0.30895337     0             -0.26873029     0.0016460279 
   2930000   0.050735104   -0.30887423     0             -0.26849226     0.0052712612 
   2931000   0.052309641   -0.30485412     0             -0.26321892     0.0031131427 
   2932000   0.050818406   -0.30796672     0             -0.26751844     0.0012510743 
   2933000   0.050310436   -0.30787159     0             -0.26782762     0.010474229  
   2934000   0.050605705   -0.30853598     0             -0.26825701     0.00038794426
   2935000   0.052383071   -0.30907967     0             -0.26738602     0.00023851609
   2936000   0.049720509   -0.30878448     0             -0.26921007     0.00018188969
   2937000   0.047810348   -0.30896253     0             -0.27090848     0.0011600547 
   2938000   0.051262944   -0.30801537     0             -0.26721327     0.004030451  
   2939000   0.050706717   -0.30908945     0             -0.26873007     0.0056181124 
   2940000   0.047961231   -0.30600663     0             -0.26783249     0.0085130575 
   2941000   0.050797622   -0.30720851     0             -0.26677678    -0.0060123668 
   2942000   0.051683644   -0.30759266     0             -0.26645571    -0.0060543009 
   2943000   0.049688764   -0.30836522     0             -0.26881607    -0.0020228078 
   2944000   0.049996634   -0.30275687     0             -0.26296267     0.0027869199 
   2945000   0.050618756   -0.30718355     0             -0.26689418    -0.002452984  
   2946000   0.049634569   -0.30819077     0             -0.26868476     0.00077676184
   2947000   0.051468104   -0.30185        0             -0.2608846     -0.0020340132 
   2948000   0.048554259   -0.30701        0             -0.26836385     0.0054292845 
   2949000   0.050355259   -0.30756479     0             -0.26748515     0.00045901845
   2950000   0.052638603   -0.30113396     0             -0.25923692    -0.00064750288
   2951000   0.048302989   -0.30746004     0             -0.26901388    -0.00064245012
   2952000   0.049822626   -0.30697086     0             -0.26731516    -0.0019193205 
   2953000   0.048047226   -0.30417318     0             -0.26593059     0.0085306738 
   2954000   0.048630015   -0.30612008     0             -0.26741363    -0.0036115102 
   2955000   0.049674129   -0.3082901      0             -0.26875259    -0.0027289239 
   2956000   0.047980543   -0.30737325     0             -0.26918374     0.0015013301 
   2957000   0.050618896   -0.29590551     0             -0.25561603     0.0051037023 
   2958000   0.050750609   -0.3052734      0             -0.26487909     0.0016142303 
   2959000   0.048583928   -0.30653331     0             -0.26786354    -0.0026321855 
   2960000   0.048994615   -0.30866461     0             -0.26966796     0.0032971534 
   2961000   0.052204086   -0.30773337     0             -0.26618218    -0.0086145867 
   2962000   0.050252376   -0.30779351     0             -0.26779576    -0.0067204634 
   2963000   0.049846163   -0.30868444     0             -0.26901001    -0.0054707199 
   2964000   0.048203382   -0.30873599     0             -0.27036911     0.0033047716 
   2965000   0.050139261   -0.30557664     0             -0.26566892    -0.00092584277
   2966000   0.047496116   -0.30674705     0             -0.26894311     0.003993814  
   2967000   0.048647108   -0.30927449     0             -0.27055443    -0.0011291514 
   2968000   0.048583466   -0.30799232     0             -0.26932292     0.00088262859
   2969000   0.053911432   -0.30763358     0             -0.26472345    -1.0598066e-05
   2970000   0.050822145   -0.30743322     0             -0.26698197     0.005365951  
   2971000   0.049868307   -0.3081372      0             -0.26844515    -0.0050132746 
   2972000   0.050400572   -0.30754457     0             -0.26742887    -0.0036363162 
   2973000   0.053081412   -0.3076799      0             -0.26543041    -0.00053176793
   2974000   0.050806821   -0.30728499     0             -0.26684594    -0.0015000484 
   2975000   0.049237084   -0.30756205     0             -0.26837241     0.0062748333 
   2976000   0.047824663   -0.30827721     0             -0.27021177     0.0038544175 
   2977000   0.05196883    -0.30804211     0             -0.26667816    -0.00026723545
   2978000   0.05213402    -0.30858946     0             -0.26709403     0.00094588697
   2979000   0.052586086   -0.30773075     0             -0.26587552     0.0048954769 
   2980000   0.050901746   -0.30501014     0             -0.26449553    -0.00072002726
   2981000   0.050888548   -0.30828589     0             -0.26778179    -0.0011292839 
   2982000   0.051183831   -0.307566       0             -0.26682687    -0.00076158682
   2983000   0.049377742   -0.30915956     0             -0.26985796     0.0055444818 
   2984000   0.050881844   -0.30798813     0             -0.26748936    -0.0067732988 
   2985000   0.052011759   -0.30776421     0             -0.2663661      0.0021022628 
   2986000   0.047613051   -0.30784004     0             -0.26994302    -0.0015551335 
   2987000   0.050055745   -0.30784266     0             -0.26800141     0.0092154187 
   2988000   0.0505393     -0.29548597     0             -0.25525985    -0.0012608854 
   2989000   0.047980435   -0.30893533     0             -0.2707459     -0.0037592996 
   2990000   0.048650926   -0.30835294     0             -0.26962985     0.0051819046 
   2991000   0.050622148   -0.30818865     0             -0.26789659    -0.0040915754 
   2992000   0.048429027   -0.30828168     0             -0.2697352     -0.001854285  
   2993000   0.050050679   -0.30277497     0             -0.26293775     0.00084071998
   2994000   0.050474621   -0.30804881     0             -0.26787416    -0.0072904726 
   2995000   0.050292111   -0.30749076     0             -0.26746138     4.0812753e-05
   2996000   0.047144689   -0.30878761     0             -0.27126338    -0.0010875727 
   2997000   0.049331832   -0.30810036     0             -0.26883531    -0.00037417152
   2998000   0.052219113   -0.30845564     0             -0.26689249     0.0075373538 
   2999000   0.050667406   -0.30881848     0             -0.26849039     0.0047951244 
   3000000   0.050890713   -0.30160477     0             -0.26109894     0.0055364056 
   3001000   0.050058585   -0.30772096     0             -0.26787745    -0.0034954586 
   3002000   0.051259904   -0.30733221     0             -0.26653253     0.000969996  
   3003000   0.049522399   -0.30978953     0             -0.2703728     -0.0051605039 
   3004000   0.049295044   -0.30451597     0             -0.2652802     -0.001883569  
   3005000   0.051357757   -0.30813182     0             -0.26725425     0.001788026  
   3006000   0.049511194   -0.30897846     0             -0.26957064     0.003973901  
   3007000   0.050263823   -0.30797254     0             -0.26796568     0.0015297308 
   3008000   0.04980637    -0.30842588     0             -0.26878312    -0.0074718246 
   3009000   0.051208615   -0.30721686     0             -0.266458       0.0021751992 
   3010000   0.051702909   -0.30798086     0             -0.26682858     0.0060594823 
   3011000   0.050388304   -0.3072593      0             -0.26715336    -0.0022127735 
   3012000   0.049992391   -0.30730434     0             -0.26751352     0.0069994595 
   3013000   0.051781467   -0.30869726     0             -0.26748245     0.0079046861 
   3014000   0.052553803   -0.30738552     0             -0.26555598    -0.0020107151 
   3015000   0.047923366   -0.30808004     0             -0.26993604     0.0021513743 
   3016000   0.050875336   -0.30882847     0             -0.26833489    -0.0030067765 
   3017000   0.051142055   -0.30783689     0             -0.26713101    -0.0014305653 
   3018000   0.051129356   -0.3092916      0             -0.26859582     0.0044848609 
   3019000   0.046876216   -0.30885106     0             -0.27154052    -3.0806144e-05
   3020000   0.051239125   -0.30833349     0             -0.26755035    -0.0022815622 
   3021000   0.050071921   -0.30750994     0             -0.26765582     0.0086649113 
   3022000   0.051339752   -0.30767952     0             -0.26681628     0.0035598501 
   3023000   0.048716013   -0.30769315     0             -0.26891825    -0.0023413478 
   3024000   0.048519283   -0.30795402     0             -0.2693357     -0.0019759436 
   3025000   0.049300575   -0.31013773     0             -0.27089755     0.0028331865 
   3026000   0.050475126   -0.30994487     0             -0.26976983     0.0010721632 
   3027000   0.050022334   -0.30921056     0             -0.26939591    -0.00037173557
   3028000   0.050493202   -0.30832641     0             -0.26813697     0.0059199181 
   3029000   0.046380845   -0.30832041     0             -0.27140416    -0.00036974388
   3030000   0.050557158   -0.3100883      0             -0.26984796    -0.0030089841 
   3031000   0.048610038   -0.30929328     0             -0.27060273    -0.0048687237 
   3032000   0.050810127   -0.30929874     0             -0.26885705    -0.0005484688 
   3033000   0.048234009   -0.30895834     0             -0.27056708    -0.0011666995 
   3034000   0.051802317   -0.30619355     0             -0.26496214    -0.002993853  
   3035000   0.050547047   -0.30627826     0             -0.26604597     0.004482249  
   3036000   0.049509172   -0.30965556     0             -0.27024935     0.0091847971 
   3037000   0.050103608   -0.31012105     0             -0.27024171     0.0036139841 
   3038000   0.052569666   -0.30891163     0             -0.26706946     0.0018972126 
   3039000   0.051713604   -0.30927825     0             -0.26811745     0.0083154411 
   3040000   0.051322338   -0.30964216     0             -0.26879279    -0.0014440033 
   3041000   0.051138274   -0.30923684     0             -0.26853397     0.00048668568
   3042000   0.050879459   -0.31028375     0             -0.26978688    -0.0012962301 
   3043000   0.050057812   -0.31000632     0             -0.27016343    -0.0038455765 
   3044000   0.049139139   -0.31034796     0             -0.27123628     0.000782648  
   3045000   0.050064525   -0.31157471     0             -0.27172648    -0.00017434368
   3046000   0.048578659   -0.30459827     0             -0.2659327      0.0050995684 
   3047000   0.051448188   -0.31095239     0             -0.27000285    -0.00022722396
   3048000   0.050652058   -0.30904969     0             -0.26873382    -0.0020019218 
   3049000   0.050289928   -0.30829185     0             -0.26826421     0.0023627545 
   3050000   0.047053565   -0.30866055     0             -0.27120885    -0.0048063319 
   3051000   0.048718285   -0.3102773      0             -0.27150059     0.0052847368 
   3052000   0.052406296   -0.30980893     0             -0.26809679     0.0080051452 
   3053000   0.050795454   -0.30785701     0             -0.267427       0.0023145874 
   3054000   0.048290335   -0.30825013     0             -0.26981404    -0.006080931  
   3055000   0.0510119     -0.30882596     0             -0.26822368     0.0025316798 
   3056000   0.046664137   -0.3084605      0             -0.27131877    -0.0016766866 
   3057000   0.050367952   -0.3088235      0             -0.26873375    -0.002969582  
   3058000   0.049524368   -0.30954154     0             -0.27012324    -0.004003905  
   3059000   0.051013372   -0.30969217     0             -0.26908872    -0.0041942362 
   3060000   0.049863449   -0.30924755     0             -0.26955936     0.0080755639 
   3061000   0.051329147   -0.31003071     0             -0.26917592     0.0067325569 
   3062000   0.050286668   -0.30856083     0             -0.26853579     0.00057634325
   3063000   0.048860983   -0.30895998     0             -0.27006969     0.0037076117 
   3064000   0.0504695     -0.30979964     0             -0.26962907     0.0050910215 
   3065000   0.053488312   -0.30912899     0             -0.26655563     0.00044050899
   3066000   0.047809053   -0.30954321     0             -0.27149019    -0.0015998964 
   3067000   0.051515661   -0.3090325      0             -0.26802925    -0.0062920221 
   3068000   0.050403991   -0.30936645     0             -0.26924802     0.0052493104 
   3069000   0.049858197   -0.31007381     0             -0.2703898      0.0013488641 
   3070000   0.050609785   -0.30880915     0             -0.26852692     0.0015467455 
   3071000   0.052472172   -0.30890892     0             -0.26714435     0.0061133141 
   3072000   0.052355048   -0.30997338     0             -0.26830203    -0.0087543494 
   3073000   0.051395145   -0.30847112     0             -0.26756379     0.00013318853
   3074000   0.052206594   -0.30886968     0             -0.2673165      0.00030581428
   3075000   0.050675617   -0.30701008     0             -0.26667546    -0.00105541   
   3076000   0.049761452   -0.30888596     0             -0.26927895     0.0058942122 
   3077000   0.051274473   -0.31012735     0             -0.26931607     0.0017764945 
   3078000   0.050023864   -0.30803801     0             -0.26822214     0.0017843124 
   3079000   0.049790224   -0.30826012     0             -0.26863021     0.0048079459 
   3080000   0.049799287   -0.30901261     0             -0.26937549     0.0024085878 
   3081000   0.050094934   -0.30780454     0             -0.2679321     -0.0012329868 
   3082000   0.050090075   -0.30768958     0             -0.26782101    -0.0057946218 
   3083000   0.051266485   -0.30731445     0             -0.26650954     0.0049262743 
   3084000   0.051939698   -0.30794428     0             -0.26660352     0.0024052169 
   3085000   0.049149547   -0.30871924     0             -0.26959928     0.0061422747 
   3086000   0.051750036   -0.30800914     0             -0.26681934     0.0013485065 
   3087000   0.04918986    -0.30804763     0             -0.26889558     0.00032598637
   3088000   0.050317814   -0.3079155      0             -0.26786567    -0.0040301312 
   3089000   0.049584841   -0.30872757     0             -0.26926113    -0.0053976253 
   3090000   0.049591148   -0.30852575     0             -0.26905429    -0.0070245376 
   3091000   0.050691634   -0.30910085     0             -0.26875347     0.012760765  
   3092000   0.052465413   -0.30838128     0             -0.2666221      0.0040869153 
   3093000   0.050894206   -0.30944525     0             -0.26893664    -0.0017201486 
   3094000   0.050341122   -0.30858872     0             -0.26852034     0.0025038028 
   3095000   0.050239789   -0.30910255     0             -0.26911481    -0.0018792117 
   3096000   0.050946244   -0.30852618     0             -0.26797616     0.0043628986 
   3097000   0.049984057   -0.30827278     0             -0.2684886      0.001803705  
   3098000   0.04810144    -0.30724348     0             -0.26895774     0.002505693  
   3099000   0.050163625   -0.30785153     0             -0.26792442     0.003766332  
   3100000   0.050417573   -0.30737463     0             -0.2672454      0.0051782368 
   3101000   0.050786721   -0.30856797     0             -0.26814492     0.00011180775
   3102000   0.04814195    -0.30943136     0             -0.27111338    -0.0073481437 
   3103000   0.050062521   -0.308973       0             -0.26912636    -0.0033737499 
   3104000   0.051820846   -0.30910422     0             -0.26785807    -0.0018731838 
   3105000   0.049945025   -0.30276857     0             -0.26301545    -0.0036643648 
   3106000   0.049592657   -0.30931027     0             -0.26983762     0.0022875786 
   3107000   0.049923314   -0.30827234     0             -0.26853651     0.0024421166 
   3108000   0.049233045   -0.30896454     0             -0.26977811     0.00043241244
   3109000   0.05012077    -0.30884846     0             -0.26895546    -0.0050761309 
   3110000   0.05071039    -0.30916462     0             -0.26880232    -0.0050915174 
   3111000   0.05008678    -0.30960974     0             -0.26974379     0.0024770522 
   3112000   0.051942815   -0.30227318     0             -0.26092994    -0.0071285029 
   3113000   0.049825229   -0.30855439     0             -0.26889663     0.00086189866
   3114000   0.051106339   -0.30950944     0             -0.26883199     0.002029271  
   3115000   0.047896252   -0.30931527     0             -0.27119284    -0.0050010892 
   3116000   0.049320182   -0.31016268     0             -0.27090689    -0.0067121725 
   3117000   0.053277032   -0.30710079     0             -0.2646956      0.0053723458 
   3118000   0.049675538   -0.30953577     0             -0.26999714    -0.0013729673 
   3119000   0.049892061   -0.30277438     0             -0.26306342     0.00029992271
   3120000   0.048364233   -0.308682       0             -0.27018709    -0.0010993493 
   3121000   0.049230841   -0.30911866     0             -0.26993399    -8.2174417e-05
   3122000   0.051507167   -0.30879442     0             -0.26779793    -0.0011701826 
   3123000   0.051692531   -0.3090989      0             -0.26795488     5.3002741e-07
   3124000   0.048999439   -0.30872092     0             -0.26972043    -0.0004882518 
   3125000   0.051385462   -0.30996426     0             -0.26906465     0.0017085619 
   3126000   0.052341562   -0.30866436     0             -0.26700374     0.0020594597 
   3127000   0.047252642   -0.31044375     0             -0.2728336      0.0039536472 
   3128000   0.050172778   -0.30638154     0             -0.26644714     0.0052581642 
   3129000   0.051603064   -0.30426561     0             -0.2631928      0.0025170743 
   3130000   0.049775473   -0.30959043     0             -0.26997227    -0.0018427686 
   3131000   0.049279422   -0.30955962     0             -0.27033628     0.0025564879 
   3132000   0.051042797   -0.30996313     0             -0.26933625     0.0021455352 
   3133000   0.049146063   -0.31008809     0             -0.27097089     0.0029048689 
   3134000   0.051271735   -0.30806151     0             -0.26725241    -0.008240059  
   3135000   0.050775014   -0.30886212     0             -0.26844838    -0.0056276538 
   3136000   0.050799264   -0.30941364     0             -0.2689806     -0.00020633337
   3137000   0.048785458   -0.31029754     0             -0.27146736     0.0038321172 
   3138000   0.048975784   -0.30949943     0             -0.27051777     0.0018735202 
   3139000   0.048857708   -0.31027491     0             -0.27138722     0.0020132688 
   3140000   0.052673787   -0.30889676     0             -0.26697172    -0.0039804549 
   3141000   0.049199914   -0.30906562     0             -0.26990556    -0.0087953387 
   3142000   0.052310811   -0.30265449     0             -0.26101835    -0.0041207858 
   3143000   0.051123834   -0.30829357     0             -0.26760219    -0.00119695   
   3144000   0.051215979   -0.30982353     0             -0.26905881     0.0022407028 
   3145000   0.052181546   -0.3034705      0             -0.26193725    -0.00029032218
   3146000   0.049072701   -0.30917153     0             -0.27011273     0.0010585256 
   3147000   0.048653873   -0.30952293     0             -0.27079749    -0.0062865119 
   3148000   0.051237296   -0.30900057     0             -0.26821889    -0.0017196466 
   3149000   0.049040694   -0.31006959     0             -0.27103626     0.0018414172 
   3150000   0.050286986   -0.30902543     0             -0.26900013    -0.0038989102 
   3151000   0.051526809   -0.30857703     0             -0.26756491    -0.003620234  
   3152000   0.050782091   -0.30915508     0             -0.26873571     0.0023337344 
   3153000   0.048234258   -0.30897137     0             -0.27057992    -0.0050740689 
   3154000   0.050319624   -0.31045955     0             -0.27040828     0.00059795724
   3155000   0.049393909   -0.30815939     0             -0.26884492     0.0076798113 
   3156000   0.048736645   -0.31043944     0             -0.27164812     0.0054947393 
   3157000   0.049624154   -0.30889587     0             -0.26939814    -0.00309529   
   3158000   0.052714797   -0.30844219     0             -0.26648451     0.0061608623 
   3159000   0.050097767   -0.30904299     0             -0.2691683     -0.00040896893
   3160000   0.050488683   -0.30979329     0             -0.26960746     0.0015580889 
   3161000   0.051366821   -0.30942325     0             -0.26853847     0.00028199027
   3162000   0.049769725   -0.30935381     0             -0.26974022     0.000932913  
   3163000   0.052418249   -0.30983913     0             -0.26811748     0.0088939811 
   3164000   0.048869367   -0.30906379     0             -0.27016683    -0.0036577461 
   3165000   0.047835642   -0.30229502     0             -0.26422084     0.00035706745
   3166000   0.05078941    -0.30790415     0             -0.26747895     0.0010143107 
   3167000   0.050249587   -0.31132592     0             -0.27133039    -0.0064124567 
   3168000   0.051334843   -0.30964699     0             -0.26878766     0.010089232  
   3169000   0.051503472   -0.30800978     0             -0.26701623     0.00010035648
   3170000   0.053513697   -0.30877929     0             -0.26618573     0.0010969974 
   3171000   0.05185692    -0.31053781     0             -0.26926294     0.00088419176
   3172000   0.04805413    -0.30966616     0             -0.27141807     0.0063130905 
   3173000   0.050358706   -0.30916893     0             -0.26908655     0.00067520575
   3174000   0.051807326   -0.31024544     0             -0.26901005    -0.00081152542
   3175000   0.049903617   -0.31016697     0             -0.27044681    -0.0043811138 
   3176000   0.050511703   -0.31104728     0             -0.27084312     0.0077607531 
   3177000   0.048238786   -0.31021655     0             -0.27182149    -0.0061799018 
   3178000   0.048525351   -0.3098036      0             -0.27118046    -0.0015553483 
   3179000   0.050364467   -0.30296377     0             -0.2628768      0.0022418239 
   3180000   0.050028396   -0.30596341     0             -0.26614393    -0.00036375428
   3181000   0.049710743   -0.30871771     0             -0.26915107     0.003520223  
   3182000   0.050836184   -0.30807922     0             -0.26761679    -0.0046000762 
   3183000   0.050158128   -0.3087481      0             -0.26882536    -0.0045131702 
   3184000   0.050034795   -0.309974       0             -0.27014943     0.0022865143 
   3185000   0.047395937   -0.30836467     0             -0.27064047    -0.010448933  
   3186000   0.049581712   -0.30934306     0             -0.26987911    -0.0016387074 
   3187000   0.050289236   -0.30941568     0             -0.26938859     0.008754369  
   3188000   0.049475721   -0.30851226     0             -0.26913268     0.0038149125 
   3189000   0.050544394   -0.30946717     0             -0.26923699     8.0572117e-05
   3190000   0.050419334   -0.3098644      0             -0.26973376    -0.0021492283 
   3191000   0.049230085   -0.30541314     0             -0.26622907     0.00012698374
   3192000   0.050326376   -0.30673644     0             -0.26667979     0.0054230881 
   3193000   0.05247007    -0.3086874      0             -0.26692451    -0.0027101312 
   3194000   0.048982393   -0.30859276     0             -0.26960584     0.0074612732 
   3195000   0.05017499    -0.30890342     0             -0.26896727     0.0039185455 
   3196000   0.050947599   -0.30836181     0             -0.26781071    -0.0065505351 
   3197000   0.051432151   -0.30861207     0             -0.2676753     -0.00060503792
   3198000   0.052857512   -0.30794808     0             -0.2658768     -0.0095090717 
   3199000   0.04902611    -0.30869722     0             -0.2696755      0.00072090494
   3200000   0.049365627   -0.30920897     0             -0.26991702    -0.0014592525 
   3201000   0.050329963   -0.30425406     0             -0.26419455     0.0040958601 
   3202000   0.051438535   -0.30862168     0             -0.26767982     0.0004352975 
   3203000   0.049637177   -0.30955804     0             -0.27004995    -0.0015870653 
   3204000   0.049413152   -0.30929857     0             -0.26996879    -0.0016653596 
   3205000   0.050811524   -0.3100628      0             -0.26962        0.0075281153 
   3206000   0.051003006   -0.30886187     0             -0.26826667    -0.0011405066 
   3207000   0.049112797   -0.30856167     0             -0.26947095    -0.00019082422
   3208000   0.047483173   -0.30645688     0             -0.26866324     0.0064486229 
   3209000   0.050633553   -0.30322052     0             -0.26291938     0.0020437441 
   3210000   0.048096859   -0.31094428     0             -0.27266219    -0.016560115  
   3211000   0.050366829   -0.30959321     0             -0.26950436     0.0016742024 
   3212000   0.050267573   -0.31032453     0             -0.27031468    -0.00071158943
   3213000   0.050183454   -0.3101923      0             -0.2702494     -0.00076374459
   3214000   0.0526396     -0.31006947     0             -0.26817164    -0.00025085333
   3215000   0.048300908   -0.30908035     0             -0.27063585     0.012435842  
   3216000   0.050538338   -0.31044698     0             -0.27022162    -0.0039368228 
   3217000   0.051400784   -0.30978788     0             -0.26887607    -0.0031312983 
   3218000   0.0506781     -0.31069626     0             -0.27035966     0.0027231084 
   3219000   0.051368105   -0.31133658     0             -0.27045078     0.0030675478 
   3220000   0.047329685   -0.30963125     0             -0.27195978    -0.0062205385 
   3221000   0.049313958   -0.31161353     0             -0.2723627     -0.0044983277 
   3222000   0.050437475   -0.31084252     0             -0.27069744     0.0068000807 
   3223000   0.049368988   -0.31025449     0             -0.27095986    -0.0091191629 
   3224000   0.05086674    -0.30442016     0             -0.26393342    -0.0050131077 
   3225000   0.050302722   -0.31153239     0             -0.27149457    -0.00076535141
   3226000   0.051093886   -0.31005612     0             -0.26938858     0.0031202191 
   3227000   0.050951951   -0.30771279     0             -0.26715822     0.0056256438 
   3228000   0.051736639   -0.3114762      0             -0.27029707     0.0063259598 
   3229000   0.052663739   -0.31189106     0             -0.26997402     0.0017861697 
   3230000   0.0495538     -0.31138462     0             -0.27194289    -0.0048014509 
   3231000   0.049273878   -0.31068426     0             -0.27146533     0.0011323607 
   3232000   0.049200436   -0.31212771     0             -0.27296724    -0.0031138442 
   3233000   0.050830625   -0.31214685     0             -0.27168885    -0.0033837329 
   3234000   0.051771845   -0.31086183     0             -0.26965467    -0.00021614871
   3235000   0.048542315   -0.31153539     0             -0.27289874     0.00070359949
   3236000   0.052344351   -0.31128639     0             -0.26962355     0.0042153043 
   3237000   0.051411261   -0.3110201      0             -0.27009995     0.0088934385 
   3238000   0.05075843    -0.30381808     0             -0.26341754    -0.0014314884 
   3239000   0.049835754   -0.30832388     0             -0.26865774     0.0027685344 
   3240000   0.048123951   -0.31148973     0             -0.27318607    -0.0024299072 
   3241000   0.051026961   -0.31111219     0             -0.27049792     0.0006976051 
   3242000   0.050053275   -0.31136449     0             -0.27152521     0.0010691586 
   3243000   0.049288222   -0.31174589     0             -0.27251555     0.0045548055 
   3244000   0.05071321    -0.3115979      0             -0.27123336    -0.0047942612 
   3245000   0.049800811   -0.31176436     0             -0.27212603     0.0098594671 
   3246000   0.048473924   -0.31102849     0             -0.27244628    -0.0051349136 
   3247000   0.049013948   -0.31322201     0             -0.27420997     0.0087084668 
   3248000   0.049866919   -0.31141945     0             -0.2717285     -0.0016766567 
   3249000   0.051491287   -0.31273242     0             -0.27174857     0.0059285715 
   3250000   0.050824966   -0.3122852      0             -0.2718317     -0.00069144578
   3251000   0.050724907   -0.31311872     0             -0.27274486     0.006752442  
   3252000   0.050165007   -0.31254183     0             -0.27261362     0.0075772555 
   3253000   0.050695991   -0.31247268     0             -0.27212184     0.0015001024 
   3254000   0.049172212   -0.31317387     0             -0.27403586     0.00031253427
   3255000   0.050591715   -0.31086946     0             -0.27060161    -0.0057342792 
   3256000   0.051332761   -0.31319654     0             -0.27233887     0.0022230417 
   3257000   0.048264508   -0.31132765     0             -0.27291212    -0.002413655  
   3258000   0.050009296   -0.31305948     0             -0.2732552      0.0050413325 
   3259000   0.050839026   -0.3113512      0             -0.27088651    -0.0096440834 
   3260000   0.052170718   -0.31105694     0             -0.26953231    -0.0081480525 
   3261000   0.051666927   -0.30514332     0             -0.26401967     0.0063041657 
   3262000   0.047714542   -0.31189766     0             -0.27391986     0.0050021207 
   3263000   0.049443572   -0.31203626     0             -0.27268227    -0.0055941036 
   3264000   0.049700241   -0.31149668     0             -0.27193839     0.0008842044 
   3265000   0.048656166   -0.31173434     0             -0.27300707     0.000788952  
   3266000   0.049352232   -0.30693683     0             -0.26765553    -0.00091523083
   3267000   0.04855155    -0.31224018     0             -0.27359618    -0.0055170012 
   3268000   0.051566318   -0.31127658     0             -0.27023301     0.0011604527 
   3269000   0.050771932   -0.31229393     0             -0.27188265     0.0046352597 
   3270000   0.052945764   -0.311312       0             -0.26917048     0.0021429906 
   3271000   0.049516197   -0.31217925     0             -0.27276745     0.0021189419 
   3272000   0.050299414   -0.30607785     0             -0.26604266    -0.005439823  
   3273000   0.050126477   -0.31209323     0             -0.27219569     0.0053674397 
   3274000   0.050267228   -0.31213659     0             -0.27212702     0.0032142528 
   3275000   0.050820183   -0.31163304     0             -0.27118336    -0.0051280732 
   3276000   0.049440801   -0.31208866     0             -0.27273688     0.00024882643
   3277000   0.049983187   -0.31175449     0             -0.271971      -0.0025528257 
   3278000   0.050295363   -0.31079353     0             -0.27076156    -0.0043538287 
   3279000   0.048951902   -0.31119722     0             -0.27223457    -0.0042218269 
   3280000   0.05250492    -0.31143916     0             -0.26964853     0.0057176966 
   3281000   0.050937677   -0.31213527     0             -0.27159206    -0.00010564036
   3282000   0.049653846   -0.31107937     0             -0.27155802     0.0074006199 
   3283000   0.053408709   -0.31119859     0             -0.26868859    -0.0032923637 
   3284000   0.051336112   -0.31085558     0             -0.26999524     0.0045706689 
   3285000   0.048217996   -0.30844424     0             -0.27006572    -0.0050559717 
   3286000   0.050293025   -0.30963883     0             -0.26960873     0.00088464089
   3287000   0.051710361   -0.29892858     0             -0.25777036    -0.00058250504
   3288000   0.049787574   -0.31019777     0             -0.27056997    -0.00097212585
   3289000   0.050725298   -0.31026611     0             -0.26989194     0.0092185247 
   3290000   0.050082377   -0.31065781     0             -0.27079537    -0.00041320306
   3291000   0.052106812   -0.31067579     0             -0.26920203    -0.0020090203 
   3292000   0.048591911   -0.31065498     0             -0.27197886    -0.0035670563 
   3293000   0.050752988   -0.31096583     0             -0.27056963     0.0012673963 
   3294000   0.050324852   -0.31030104     0             -0.27024561     0.0057068795 
   3295000   0.05000908    -0.30958965     0             -0.26978555     0.0097162934 
   3296000   0.052196765   -0.30999212     0             -0.26844676     4.9123887e-06
   3297000   0.047556056   -0.30428561     0             -0.26643396     0.0049464202 
   3298000   0.053248235   -0.30815917     0             -0.2657769      0.00065759002
   3299000   0.047989461   -0.30884478     0             -0.27064816    -0.0066638379 
   3300000   0.04867538    -0.3034038      0             -0.26466124    -0.010159037  
   3301000   0.049107673   -0.31045871     0             -0.27137207    -0.00331542   
   3302000   0.05197668    -0.31068787     0             -0.26931768    -0.0090847242 
   3303000   0.048693515   -0.31188226     0             -0.27312526    -0.00088091602
   3304000   0.048709986   -0.31160044     0             -0.27283034    -0.0030957924 
   3305000   0.047287434   -0.31010038     0             -0.27246254     0.004356305  
   3306000   0.050755749   -0.31068524     0             -0.27028684    -0.00089694223
   3307000   0.050150452   -0.31141962     0             -0.27150299     0.00038863021
   3308000   0.049096701   -0.30377007     0             -0.26469217    -0.0082856161 
   3309000   0.050647181   -0.31004936     0             -0.26973737    -0.006458726  
   3310000   0.04912653    -0.31019479     0             -0.27109314    -0.0015251205 
   3311000   0.052037371   -0.30918774     0             -0.26776924    -0.0023661981 
   3312000   0.051637809   -0.30373708     0             -0.26263661    -0.0026289525 
   3313000   0.047939294   -0.31018759     0             -0.27203091     0.00091500361
   3314000   0.04905339    -0.30963671     0             -0.27059328    -0.0028994833 
   3315000   0.050204327   -0.31041273     0             -0.27045323    -0.0069776614 
   3316000   0.049367477   -0.31036784     0             -0.27107441    -0.0022181968 
   3317000   0.050383982   -0.30982723     0             -0.26972473     0.0011196331 
   3318000   0.052014786   -0.30953618     0             -0.26813566    -0.00064926413
   3319000   0.048306419   -0.3093777      0             -0.27092881    -0.0048892622 
   3320000   0.048388266   -0.30888238     0             -0.27036834     0.0026355923 
   3321000   0.048566507   -0.30848586     0             -0.26982995     0.00023234741
   3322000   0.048724323   -0.31012828     0             -0.27134677    -0.003860854  
   3323000   0.049365331   -0.31009451     0             -0.27080279    -0.0055490295 
   3324000   0.052119991   -0.3090023      0             -0.26751804    -0.00037158198
   3325000   0.052034621   -0.30896252     0             -0.26754622     0.0075089729 
   3326000   0.049921622   -0.29713227     0             -0.25739777    -0.0058808321 
   3327000   0.050660353   -0.30990346     0             -0.26958099    -0.0034148751 
   3328000   0.048078995   -0.30873494     0             -0.27046707    -0.0030883518 
   3329000   0.04950431    -0.30878867     0             -0.26938634     0.00091849569
   3330000   0.051056286   -0.31026472     0             -0.26962711     0.002932947  
   3331000   0.049903694   -0.31066801     0             -0.27094779     0.0059355452 
   3332000   0.047625866   -0.30968067     0             -0.27177345    -0.00037708441
   3333000   0.047609727   -0.30935744     0             -0.27146307    -0.0010404106 
   3334000   0.049928115   -0.30931013     0             -0.26957047    -0.0092445429 
   3335000   0.048826394   -0.30899064     0             -0.27012788    -0.0017326392 
   3336000   0.050771211   -0.3097462      0             -0.26933549    -0.0025457047 
   3337000   0.049304326   -0.30534153     0             -0.26609836    -0.0036504007 
   3338000   0.052234346   -0.30393828     0             -0.26236301    -9.9585491e-05
   3339000   0.050499744   -0.30983642     0             -0.26964178    -0.0048590014 
   3340000   0.048886303   -0.30968638     0             -0.27077594    -0.010763337  
   3341000   0.051413998   -0.30828034     0             -0.26735801    -0.00095243385
   3342000   0.053575727   -0.30855489     0             -0.26591196     0.0013050288 
   3343000   0.047514849   -0.30887975     0             -0.2710609     -0.0012116647 
   3344000   0.05187608    -0.30967909     0             -0.26838898    -0.00011654234
   3345000   0.050969432   -0.30934361     0             -0.26877512    -0.0015319662 
   3346000   0.049407245   -0.30436218     0             -0.2650371      0.0078137576 
   3347000   0.051651943   -0.30384536     0             -0.26273364    -0.0033978595 
   3348000   0.04895454    -0.29853489     0             -0.25957013     0.0011141752 
   3349000   0.050534268   -0.30976147     0             -0.26953935    -0.0034854776 
   3350000   0.050923253   -0.31027908     0             -0.26974735    -0.0002823688 
   3351000   0.048062597   -0.3098062      0             -0.27155138     0.0034551662 
   3352000   0.049058471   -0.30985878     0             -0.2708113      0.0013664918 
   3353000   0.047566318   -0.30959009     0             -0.27173028     0.0035698755 
   3354000   0.049450231   -0.31031653     0             -0.27095724    -0.003011132  
   3355000   0.048121234   -0.29734303     0             -0.25904154    -0.00079304446
   3356000   0.048629367   -0.30909403     0             -0.27038809    -0.00171097   
   3357000   0.050550306   -0.30955442     0             -0.26931954    -0.0015402807 
   3358000   0.050083053   -0.3084787      0             -0.26861572     0.0057345119 
   3359000   0.049163475   -0.31014619     0             -0.27101514     0.0090148649 
   3360000   0.049439934   -0.30951982     0             -0.27016872     0.0050242114 
   3361000   0.0495393     -0.30792378     0             -0.26849359    -0.0054512527 
   3362000   0.048747109   -0.30870355     0             -0.26990389     0.011250644  
   3363000   0.048549683   -0.30922919     0             -0.27058668     0.0043987307 
   3364000   0.050040629   -0.30886336     0             -0.26903415    -0.0030804881 
   3365000   0.050807107   -0.30975979     0             -0.26932051    -0.0018266739 
   3366000   0.049196339   -0.30952733     0             -0.27037012    -0.0087362126 
   3367000   0.051136426   -0.31122262     0             -0.27052122    -0.0027902354 
   3368000   0.050664123   -0.31068693     0             -0.27036146    -0.0048196217 
   3369000   0.051999418   -0.31014312     0             -0.26875484    -0.0022864765 
   3370000   0.049723596   -0.31107502     0             -0.27149815    -0.003120214  
   3371000   0.049963097   -0.31115522     0             -0.27138772     0.0025009698 
   3372000   0.049735049   -0.30918515     0             -0.26959916     0.002116825  
   3373000   0.04969991    -0.30323276     0             -0.26367474    -0.0029694583 
   3374000   0.052454324   -0.31137267     0             -0.2696223     -0.0021396154 
   3375000   0.049893409   -0.31030308     0             -0.27059104     0.0020846724 
   3376000   0.050551347   -0.30341587     0             -0.26318016    -0.0015869896 
   3377000   0.048953305   -0.31070374     0             -0.27173997     0.0012815078 
   3378000   0.053282008   -0.31193519     0             -0.26952604     0.0024468174 
   3379000   0.051962272   -0.30952044     0             -0.26816172    -0.0016110361 
   3380000   0.048249299   -0.31028323     0             -0.27187981    -0.0062948383 
   3381000   0.049514021   -0.31017073     0             -0.27076066     0.0046963108 
   3382000   0.052137664   -0.31110157     0             -0.26960325     0.011037864  
   3383000   0.052104185   -0.31116172     0             -0.26969005     0.0036818543 
   3384000   0.049525613   -0.31131554     0             -0.27189625     0.0041643167 
   3385000   0.051126982   -0.31079858     0             -0.27010469    -0.0083432435 
   3386000   0.048331315   -0.31071532     0             -0.27224661     0.0031395929 
   3387000   0.051263248   -0.31106431     0             -0.27026197     0.0043737928 
   3388000   0.049864075   -0.31071806     0             -0.27102937     0.0024839163 
   3389000   0.051412705   -0.31031487     0             -0.26939357    -0.00056848055
   3390000   0.049662416   -0.31069891     0             -0.27117073     0.014530153  
   3391000   0.051394353   -0.31038485     0             -0.26947815    -0.010800674  
   3392000   0.049391488   -0.31071916     0             -0.27140662     0.0010606472 
   3393000   0.048705541   -0.31049971     0             -0.27173314     0.0031408016 
   3394000   0.048753955   -0.31162948     0             -0.27282438     0.00034151285
   3395000   0.049294888   -0.31142806     0             -0.27219241    -0.0022607795 
   3396000   0.048919238   -0.31127167     0             -0.27233501    -0.013501422  
   3397000   0.048583918   -0.31187352     0             -0.27320376     0.0038693714 
   3398000   0.049502432   -0.31124677     0             -0.27184593    -0.0053616485 
   3399000   0.050327603   -0.3126462      0             -0.27258858    -0.0011063549 
   3400000   0.050050838   -0.31130024     0             -0.2714629     -0.0031153005 
   3401000   0.049471294   -0.31249816     0             -0.2731221     -0.0043173091 
   3402000   0.049132446   -0.31308417     0             -0.27397781     0.005072242  
   3403000   0.048586397   -0.3069579      0             -0.26828617     0.0065650435 
   3404000   0.050175154   -0.31232582     0             -0.27238953    -0.0078426523 
   3405000   0.049624472   -0.31239398     0             -0.272896       0.0055554592 
   3406000   0.049466211   -0.31180793     0             -0.27243591     0.006028669  
   3407000   0.047813504   -0.30774219     0             -0.26968563    -0.0019158    
   3408000   0.05022281    -0.31237561     0             -0.2724014     -0.0032086873 
   3409000   0.053463026   -0.31257485     0             -0.27002163     0.011779444  
   3410000   0.0503583     -0.31361718     0             -0.27353512    -0.0054613897 
   3411000   0.051535662   -0.31396431     0             -0.27294514     0.00052500601
   3412000   0.052165466   -0.31322126     0             -0.27170081    -0.010540403  
   3413000   0.050954602   -0.3125696      0             -0.27201292     0.0030955345 
   3414000   0.049191207   -0.30814654     0             -0.26899342     0.0035621964 
   3415000   0.050721512   -0.31189549     0             -0.27152434     0.0038149858 
   3416000   0.05017713    -0.30651086     0             -0.266573      -0.0074101246 
   3417000   0.05022235    -0.31239243     0             -0.27241858    -0.0050857295 
   3418000   0.050749362   -0.3095846      0             -0.26919128     0.0023826247 
   3419000   0.049575336   -0.31067652     0             -0.27121765     0.0021056539 
   3420000   0.050574515   -0.31240987     0             -0.27215572     0.0048984139 
   3421000   0.04863283    -0.30948891     0             -0.27078021    -0.0068797179 
   3422000   0.051256363   -0.31090125     0             -0.27010439     0.0043669667 
   3423000   0.048889764   -0.31259828     0             -0.27368508    -0.00085146041
   3424000   0.051192166   -0.31212243     0             -0.27137667     0.0025273648 
   3425000   0.050120018   -0.3116682      0             -0.2717758     -0.0015698494 
   3426000   0.048533436   -0.31351045     0             -0.27488087    -0.0048647839 
   3427000   0.049060004   -0.31231915     0             -0.27327046    -0.0055420195 
   3428000   0.048935613   -0.3116561      0             -0.27270641     0.0039077735 
   3429000   0.048496172   -0.31340977     0             -0.27480985    -0.00041822378
   3430000   0.050246437   -0.31173881     0             -0.27174578     0.0016218331 
   3431000   0.048940504   -0.31146392     0             -0.27251034     0.00022644261
   3432000   0.050180637   -0.31100686     0             -0.27106621     0.0015554493 
   3433000   0.049718235   -0.30708037     0             -0.26750777    -0.0061539664 
   3434000   0.050810805   -0.31030086     0             -0.26985863    -0.0012631883 
   3435000   0.049737578   -0.31159724     0             -0.27200924     0.0040556482 
   3436000   0.049833077   -0.3058876      0             -0.26622358    -0.00058954287
   3437000   0.050030533   -0.31341776     0             -0.27359658     0.0055899195 
   3438000   0.049116063   -0.31273318     0             -0.27363987     0.00073998213
   3439000   0.050807928   -0.31307035     0             -0.27263042    -9.7583278e-05
   3440000   0.049232903   -0.31167288     0             -0.27248657    -0.0035232133 
   3441000   0.047720156   -0.31108757     0             -0.27310531    -0.0016493166 
   3442000   0.052733598   -0.31112675     0             -0.2691541     -0.00021382413
   3443000   0.049976824   -0.31155053     0             -0.2717721     -0.0080222287 
   3444000   0.050156491   -0.31180356     0             -0.27188213    -0.00021631891
   3445000   0.050616463   -0.31137762     0             -0.27109008    -0.0038986373 
   3446000   0.049092426   -0.31081996     0             -0.27174545     0.0046488175 
   3447000   0.049149181   -0.30749131     0             -0.26837164     0.00016300938
   3448000   0.052406572   -0.31321913     0             -0.27150678    -0.0042791043 
   3449000   0.049171285   -0.31063791     0             -0.27150064     0.0062299694 
   3450000   0.050402119   -0.30120937     0             -0.26109243    -0.0098522806 
   3451000   0.048562883   -0.30992275     0             -0.27126973     0.0061207952 
   3452000   0.049927583   -0.31223643     0             -0.2724972     -0.0042980925 
   3453000   0.051889933   -0.31260152     0             -0.27130038    -0.0020697696 
   3454000   0.050357396   -0.30926444     0             -0.2691831      0.002764529  
   3455000   0.048673268   -0.29813658     0             -0.2593957      0.0056040619 
   3456000   0.050493039   -0.31235691     0             -0.2721676      0.0019827433 
   3457000   0.049099607   -0.3049291      0             -0.26584889     0.00080464325
   3458000   0.052894071   -0.3115666      0             -0.26946623     0.0040697012 
   3459000   0.051203794   -0.31212154     0             -0.27136652    -0.0035778165 
   3460000   0.048177697   -0.31365127     0             -0.27530483     0.0027810998 
   3461000   0.049637557   -0.31262639     0             -0.27311799    -0.00073333048
   3462000   0.049699382   -0.31237094     0             -0.27281334     0.0051214923 
   3463000   0.049268708   -0.30578306     0             -0.26656824     0.00664895   
   3464000   0.049238398   -0.31115596     0             -0.27196527     0.00025535836
   3465000   0.052106113   -0.31141098     0             -0.26993777    -0.0089661951 
   3466000   0.050850831   -0.31202529     0             -0.2715512     -0.0020750102 
   3467000   0.05048744    -0.31153823     0             -0.27135338    -0.00135473   
   3468000   0.050874482   -0.30874717     0             -0.26825426    -0.0068372445 
   3469000   0.050837031   -0.31302399     0             -0.27256089    -0.0010135249 
   3470000   0.048644957   -0.30435291     0             -0.26563457     0.0036779778 
   3471000   0.047438932   -0.31308053     0             -0.2753221      0.0015807898 
   3472000   0.04755634    -0.31233315     0             -0.27448127     0.0036213764 
   3473000   0.049454036   -0.31133556     0             -0.27197324     0.0048275863 
   3474000   0.047238551   -0.31338985     0             -0.27579092    -8.8032691e-05
   3475000   0.051376665   -0.31297782     0             -0.2720852     -0.0049010345 
   3476000   0.04916715    -0.31338259     0             -0.27424861     0.0025841938 
   3477000   0.0522536     -0.30548216     0             -0.26389156     0.0045122131 
   3478000   0.049184225   -0.31390725     0             -0.27475968    -0.00079212727
   3479000   0.049952482   -0.31366573     0             -0.27390668    -0.0096080338 
   3480000   0.047629672   -0.31334096     0             -0.27543072    -0.002117549  
   3481000   0.048732852   -0.31266627     0             -0.27387796     0.0021246771 
   3482000   0.052021195   -0.31317644     0             -0.27177082     0.0013292773 
   3483000   0.050730893   -0.30594789     0             -0.26556927    -0.0070557626 
   3484000   0.05066269    -0.30653278     0             -0.26620845     0.0019604047 
   3485000   0.052177877   -0.31170884     0             -0.27017851     0.0010173946 
   3486000   0.051730369   -0.31437678     0             -0.27320264    -0.0037059222 
   3487000   0.048649852   -0.31080762     0             -0.27208538     0.002658856  
   3488000   0.050366134   -0.31275663     0             -0.27266833    -0.0022309823 
   3489000   0.049983032   -0.31298224     0             -0.27319887    -0.0094341588 
   3490000   0.051283186   -0.31334234     0             -0.27252413     0.007861902  
   3491000   0.049855368   -0.31325781     0             -0.27357606     0.010063307  
   3492000   0.052052604   -0.3126947      0             -0.27126408    -0.0090472841 
   3493000   0.052753946   -0.31174491     0             -0.26975607     0.00081115247
   3494000   0.051220029   -0.31242236     0             -0.27165442     8.3474744e-06
   3495000   0.049054632   -0.31162348     0             -0.27257905     0.00013263775
   3496000   0.052057389   -0.31215922     0             -0.27072479     0.010658703  
   3497000   0.052739213   -0.31223259     0             -0.27025548     0.00069916238
   3498000   0.0506279     -0.3122514      0             -0.27195476     0.0091636799 
   3499000   0.047618729   -0.311481       0             -0.27357947     0.00069576847
   3500000   0.050344555   -0.31195169     0             -0.27188057     0.0042920816 
   3501000   0.048592305   -0.31146386     0             -0.27278742     0.0042300376 
   3502000   0.050480722   -0.31221158     0             -0.27203208     0.0025467668 
   3503000   0.050262008   -0.31315703     0             -0.27315162    -0.0024861802 
   3504000   0.049336386   -0.30707649     0             -0.26780781     0.0093270717 
   3505000   0.050631327   -0.31156183     0             -0.27126245    -0.0050200706 
   3506000   0.051070436   -0.31204251     0             -0.27139364    -0.00049351344
   3507000   0.052916216   -0.31227626     0             -0.27015826     0.00080369299
   3508000   0.050018881   -0.31314536     0             -0.27333346    -0.0018270164 
   3509000   0.049683456   -0.31160044     0             -0.27205552    -0.0048321221 
   3510000   0.048805409   -0.31382537     0             -0.27497931     0.0047359303 
   3511000   0.051598884   -0.31365729     0             -0.2725878     -0.0024775994 
   3512000   0.049411036   -0.31264723     0             -0.27331913    -0.0025617717 
   3513000   0.048472774   -0.31335631     0             -0.27477501    -0.0012416057 
   3514000   0.050218063   -0.30536505     0             -0.26539461    -0.0038832683 
   3515000   0.049264665   -0.31075291     0             -0.27154131    -0.0016448478 
   3516000   0.050044135   -0.3103351      0             -0.2705031     -0.00097278417
   3517000   0.047300895   -0.31203021     0             -0.27438165    -0.0063213635 
   3518000   0.0504334     -0.31009361     0             -0.26995178     0.0028605838 
   3519000   0.049369669   -0.31078469     0             -0.27148952     0.0041234605 
   3520000   0.04940847    -0.3080431      0             -0.26871705    -0.0020477287 
   3521000   0.048753458   -0.31013573     0             -0.27133103     0.0038084333 
   3522000   0.049386234   -0.31161314     0             -0.27230478     0.0043383347 
   3523000   0.048386562   -0.31063026     0             -0.27211758     0.0097383127 
   3524000   0.05133523    -0.31032907     0             -0.26946944    -0.00087138577
   3525000   0.048784689   -0.31135658     0             -0.27252702     0.0083614009 
   3526000   0.049079194   -0.30890804     0             -0.26984407     0.0033981751 
   3527000   0.050141721   -0.31069748     0             -0.27078781    -8.1510388e-05
   3528000   0.051159733   -0.31135928     0             -0.27063933    -0.005874302  
   3529000   0.052669249   -0.3113184      0             -0.26939697    -0.0047636108 
   3530000   0.048123903   -0.31128882     0             -0.2729852      0.00086009477
   3531000   0.05235517    -0.31115309     0             -0.26948164     0.0045809424 
   3532000   0.051276554   -0.31149995     0             -0.27068701     0.0083907493 
   3533000   0.047715435   -0.31198501     0             -0.27400651     0.0039083348 
   3534000   0.048732762   -0.30999784     0             -0.27120961     0.010502495  
   3535000   0.048652268   -0.30981741     0             -0.27109324    -0.005918586  
   3536000   0.04968828    -0.3101691      0             -0.27062033    -0.003788392  
   3537000   0.048847334   -0.31153125     0             -0.27265182    -0.0016955104 
   3538000   0.049864924   -0.31094054     0             -0.27125118     0.00066750153
   3539000   0.05046949    -0.31031441     0             -0.27014385    -0.0042349827 
   3540000   0.050355214   -0.30974469     0             -0.26966509    -0.0087821336 
   3541000   0.051469551   -0.30444202     0             -0.26347547    -3.0642868e-05
   3542000   0.05053134    -0.30920508     0             -0.2689853     -0.0016635357 
   3543000   0.048946902   -0.30169543     0             -0.26273675     0.0070712927 
   3544000   0.049643394   -0.3097182      0             -0.27020516    -0.0046739786 
   3545000   0.05107053    -0.31109359     0             -0.27044464    -0.0093221589 
   3546000   0.048678968   -0.31177547     0             -0.27303005     0.0032865541 
   3547000   0.049189942   -0.31067817     0             -0.27152605     0.0034523811 
   3548000   0.049788531   -0.30375537     0             -0.26412681     0.0047291476 
   3549000   0.050733401   -0.3100696      0             -0.26968898    -0.0053304588 
   3550000   0.051104768   -0.31088041     0             -0.27020421    -0.00079093514
   3551000   0.050100114   -0.31065125     0             -0.27077469     0.0023674483 
   3552000   0.049311882   -0.31047151     0             -0.27122233    -0.0038432732 
   3553000   0.050726972   -0.30611788     0             -0.26574238     0.0030975372 
   3554000   0.049604742   -0.31172749     0             -0.27224521     0.0064050765 
   3555000   0.050582323   -0.30814335     0             -0.26788298     0.0035065478 
   3556000   0.05149564    -0.31229613     0             -0.27130882     0.001559356  
   3557000   0.051480909   -0.31169699     0             -0.2707214     -0.0021027455 
   3558000   0.049157286   -0.31278304     0             -0.27365691     0.0046430512 
   3559000   0.047956787   -0.3123965      0             -0.2742259      0.0024897342 
   3560000   0.049235461   -0.3111032      0             -0.27191485    -0.00011304415
   3561000   0.05161358    -0.31154951     0             -0.27046832     0.0056779245 
   3562000   0.049147158   -0.31127476     0             -0.27215669     0.0034114494 
   3563000   0.047022529   -0.31095578     0             -0.27352879     0.0029925318 
   3564000   0.049062276   -0.31144394     0             -0.27239344    -0.0056497867 
   3565000   0.051794366   -0.31213845     0             -0.27091337     0.010856039  
   3566000   0.052264732   -0.31092759     0             -0.26932813     0.0048085077 
   3567000   0.050249307   -0.31215191     0             -0.2721566      3.2853532e-07
   3568000   0.050437127   -0.31151509     0             -0.27137029     0.0025071618 
   3569000   0.051104735   -0.31130558     0             -0.27062941    -0.00015901292
   3570000   0.050577506   -0.31213986     0             -0.27188333    -0.0018787312 
   3571000   0.049814965   -0.31241948     0             -0.27276988    -0.00040501621
   3572000   0.050246831   -0.31128212     0             -0.27128879    -0.00034720026
   3573000   0.051965685   -0.3118106      0             -0.27044917    -0.001618316  
   3574000   0.050354117   -0.31176629     0             -0.27168756     0.001177846  
   3575000   0.0489353     -0.31195605     0             -0.27300661     0.0026217033 
   3576000   0.050029326   -0.31122162     0             -0.27140141    -0.0031723063 
   3577000   0.049818621   -0.31134091     0             -0.2716884     -0.0023368993 
   3578000   0.051583935   -0.3120179      0             -0.27096031     0.0064929598 
   3579000   0.048455668   -0.31244757     0             -0.27387989    -0.0077729629 
   3580000   0.048925588   -0.31222106     0             -0.27327935     0.0058257842 
   3581000   0.046303317   -0.31176197     0             -0.27490743    -0.0046449169 
   3582000   0.049880922   -0.31193609     0             -0.27223399    -0.012749456  
   3583000   0.050188259   -0.31279147     0             -0.27284475    -0.00020133001
   3584000   0.047024986   -0.31196046     0             -0.27453151    -0.00052334324
   3585000   0.049720746   -0.31128883     0             -0.27171422     0.00010850458
   3586000   0.052677164   -0.31152241     0             -0.26959468     0.00069148664
   3587000   0.05200822    -0.31260442     0             -0.27120912    -0.0024501629 
   3588000   0.05204657    -0.31288053     0             -0.27145472     0.0085467933 
   3589000   0.05095173    -0.31130585     0             -0.27075146    -0.0025797706 
   3590000   0.052450474   -0.31235409     0             -0.27060679    -0.0019023876 
   3591000   0.048592254   -0.31219303     0             -0.27351663    -0.0018983136 
   3592000   0.049398846   -0.31253009     0             -0.27321169     0.0026483673 
   3593000   0.047703416   -0.31175677     0             -0.27378783    -0.001739943  
   3594000   0.048009357   -0.31175984     0             -0.2735474      0.0021618601 
   3595000   0.049376557   -0.3116875      0             -0.27238685     0.0057847237 
   3596000   0.050030684   -0.31261639     0             -0.2727951     -0.0072631407 
   3597000   0.050311209   -0.3121214      0             -0.27207682    -0.0054965357 
   3598000   0.048923826   -0.31171469     0             -0.27277438     0.0027404796 
   3599000   0.049442456   -0.30994528     0             -0.27059218     0.0020792009 
   3600000   0.047462232   -0.30535847     0             -0.2675815      0.00010381404
   3601000   0.048416799   -0.31135161     0             -0.27281486    -0.0040859426 
   3602000   0.048649011   -0.30650884     0             -0.26778727     0.0018709689 
   3603000   0.051401347   -0.30434408     0             -0.26343182     0.00079678153
   3604000   0.051558948   -0.31074444     0             -0.26970674     3.9547396e-05
   3605000   0.050513719   -0.30926333     0             -0.26905757    -0.0025557944 
   3606000   0.050470997   -0.30947369     0             -0.26930193    -0.00038410768
   3607000   0.052311496   -0.31080405     0             -0.26916736     0.001487406  
   3608000   0.049670816   -0.31069175     0             -0.27115688     0.00046904711
   3609000   0.04973834    -0.31101937     0             -0.27143076     0.0075412069 
   3610000   0.049421099   -0.30695389     0             -0.26761778    -0.003033923  
   3611000   0.050507766   -0.31036857     0             -0.27016755    -0.0052355776 
   3612000   0.051320113   -0.31024213     0             -0.26939453    -0.0019035498 
   3613000   0.051197008   -0.29884092     0             -0.2580913      0.0068499301 
   3614000   0.052612461   -0.30982405     0             -0.26794782    -0.0021203617 
   3615000   0.052292709   -0.31045845     0             -0.26883672     0.0039563306 
   3616000   0.050827436   -0.3109115      0             -0.27045604    -0.0095608509 
   3617000   0.051738645   -0.31035721     0             -0.26917648     0.00067574676
   3618000   0.052101418   -0.31081507     0             -0.2693456      0.006223449  
   3619000   0.049392851   -0.31110155     0             -0.27178793     0.0047808571 
   3620000   0.049801397   -0.30300632     0             -0.26336752    -0.0016955123 
   3621000   0.049468773   -0.31080955     0             -0.2714355      0.0021721624 
   3622000   0.049710058   -0.31066536     0             -0.27109926    -0.00092722572
   3623000   0.047803319   -0.30994861     0             -0.27190016    -0.0065491784 
   3624000   0.04956526    -0.30687021     0             -0.26741936     0.0043926469 
   3625000   0.049851312   -0.30977275     0             -0.27009422    -0.0066839134 
   3626000   0.047365926   -0.30548106     0             -0.26778074     0.010791321  
   3627000   0.052296383   -0.30888643     0             -0.26726178    -0.0034608298 
   3628000   0.050860737   -0.30920535     0             -0.26872338    -0.0044337868 
   3629000   0.050319415   -0.30845796     0             -0.26840685     0.0033957737 
   3630000   0.049327724   -0.30952948     0             -0.27026769    -0.0039291217 
   3631000   0.051546477   -0.30910659     0             -0.26807882     0.015007686  
   3632000   0.047542609   -0.30854277     0             -0.27070183    -0.0039107311 
   3633000   0.047428199   -0.29885701     0             -0.26110713    -0.00022428689
   3634000   0.051691636   -0.30763446     0             -0.26649115     0.00029260824
   3635000   0.048341284   -0.3077114      0             -0.26923475     0.0025083807 
   3636000   0.048263653   -0.30846343     0             -0.27004858    -0.00023185739
   3637000   0.05182304    -0.30841862     0             -0.26717072    -0.00070817951
   3638000   0.048938037   -0.30786665     0             -0.26891503     0.0042202598 
   3639000   0.050500693   -0.30855409     0             -0.26835869     0.0032337452 
   3640000   0.049258555   -0.3096502      0             -0.27044347     0.004417768  
   3641000   0.049806414   -0.30255715     0             -0.26291436    -1.6229757e-06
   3642000   0.048216878   -0.30973713     0             -0.27135951     0.0030221982 
   3643000   0.0489871     -0.30907504     0             -0.27008437    -0.0013568751 
   3644000   0.050707929   -0.3100412      0             -0.26968086     0.0085183503 
   3645000   0.049507328   -0.30659241     0             -0.26718767    -0.00044720199
   3646000   0.049096741   -0.30834052     0             -0.26926258     0.0026248351 
   3647000   0.050027359   -0.30924449     0             -0.26942584    -0.008782254  
   3648000   0.049920437   -0.29992199     0             -0.26018844     0.0060921874 
   3649000   0.051339652   -0.30892241     0             -0.26805925     0.0061998123 
   3650000   0.048984792   -0.30800371     0             -0.26901488     0.0075493862 
   3651000   0.049491027   -0.30901827     0             -0.2696265     -0.0040377018 
   3652000   0.047582229   -0.30913788     0             -0.2712654     -0.0051346646 
   3653000   0.051764014   -0.31023894     0             -0.26903802     0.0049769792 
   3654000   0.049409901   -0.30881597     0             -0.26948878    -0.0093297472 
   3655000   0.050114379   -0.30786024     0             -0.26797232    -0.0054035641 
   3656000   0.053249132   -0.30133205     0             -0.25894907    -0.0051956363 
   3657000   0.050338832   -0.30933277     0             -0.2692662     -0.0036235879 
   3658000   0.054501495   -0.30818198     0             -0.26480219    -0.006514302  
   3659000   0.048881534   -0.30808622     0             -0.26917957     0.0056507601 
   3660000   0.051270274   -0.30880957     0             -0.26800164     0.0029132605 
   3661000   0.049145124   -0.30766664     0             -0.26855019     0.0060732528 
   3662000   0.049249891   -0.30870645     0             -0.26950662    -0.0062123942 
   3663000   0.049436114   -0.30112388     0             -0.26177582    -0.0049095921 
   3664000   0.051597533   -0.30631952     0             -0.26525111    -0.0041495461 
   3665000   0.050206594   -0.30791732     0             -0.26795601     0.0016936052 
   3666000   0.049122606   -0.30845919     0             -0.26936066    -0.0034979601 
   3667000   0.053359244   -0.30922527     0             -0.26675464     0.0059603449 
   3668000   0.05030016    -0.30890904     0             -0.26887326    -0.0044975203 
   3669000   0.049309365   -0.30619914     0             -0.26695197    -0.00061332928
   3670000   0.05047784    -0.30453432     0             -0.26435711     0.0021956855 
   3671000   0.050878821   -0.30766823     0             -0.26717187    -0.0024006976 
   3672000   0.047120228   -0.30824692     0             -0.27074216     0.0049212964 
   3673000   0.053020374   -0.30834951     0             -0.2661486      0.0031299086 
   3674000   0.049441132   -0.30687397     0             -0.26752192     0.0028008849 
   3675000   0.050615886   -0.30823358     0             -0.2679465      0.0033921166 
   3676000   0.048322835   -0.30862035     0             -0.2701584      0.0018974433 
   3677000   0.049521129   -0.30850768     0             -0.26909196     0.0034290968 
   3678000   0.049890554   -0.30764777     0             -0.26793801    -0.0039704923 
   3679000   0.051301173   -0.30620255     0             -0.26537002     0.0068838712 
   3680000   0.049652449   -0.30695762     0             -0.26743737    -0.00053299817
   3681000   0.050071258   -0.30822064     0             -0.26836705     0.00069767758
   3682000   0.050610002   -0.30746341     0             -0.26718101     0.0071504418 
   3683000   0.048303591   -0.31000914     0             -0.2715625      0.0013819777 
   3684000   0.046930774   -0.30959759     0             -0.27224363     0.0066693022 
   3685000   0.050067742   -0.30083843     0             -0.26098764     0.0016899249 
   3686000   0.049076044   -0.30916287     0             -0.27010141    -0.0020563444 
   3687000   0.051013543   -0.30731728     0             -0.26671369    -0.00080468697
   3688000   0.051080859   -0.30875225     0             -0.26809508    -0.011944428  
   3689000   0.052325229   -0.30203866     0             -0.26039105     0.0018148433 
   3690000   0.048203461   -0.30927195     0             -0.270905       0.00023206989
   3691000   0.049834367   -0.30888289     0             -0.26921785     0.003290521  
   3692000   0.049649931   -0.30762521     0             -0.26810697     0.0047275762 
   3693000   0.048683913   -0.30937044     0             -0.27062108     0.0029063599 
   3694000   0.049722837   -0.30944043     0             -0.26986416     0.010414755  
   3695000   0.050520068   -0.30953278     0             -0.26932197    -0.0039052457 
   3696000   0.049409796   -0.30880208     0             -0.26947497    -0.0040021172 
   3697000   0.05122459    -0.3057358      0             -0.26496423     0.00075969436
   3698000   0.052398708   -0.30954259     0             -0.2678365      0.0036327147 
   3699000   0.050752652   -0.30951465     0             -0.26911871    -0.010187854  
   3700000   0.050955206   -0.30897248     0             -0.26841532     2.7139908e-05
   3701000   0.049580971   -0.30845808     0             -0.26899473     0.0053107403 
   3702000   0.049568617   -0.30215024     0             -0.26269672     0.0022762252 
   3703000   0.051438683   -0.30743953     0             -0.26649755     0.0023205868 
   3704000   0.049593359   -0.30819112     0             -0.26871791    -0.006313075  
   3705000   0.051907434   -0.3084806      0             -0.26716553     0.001039521  
   3706000   0.047580328   -0.30848        0             -0.27060903    -0.011650292  
   3707000   0.049138998   -0.30743528     0             -0.2683237     -1.4171721e-05
   3708000   0.049557751   -0.30796576     0             -0.26852089    -0.0019366984 
   3709000   0.050751467   -0.30300876     0             -0.26261376    -0.0031220061 
   3710000   0.050100847   -0.30838198     0             -0.26850484    -0.0066623871 
   3711000   0.048226156   -0.30891675     0             -0.27053174    -0.0024806224 
   3712000   0.050816585   -0.30864526     0             -0.26819843     0.0026896517 
   3713000   0.050181665   -0.30870362     0             -0.26876215    -0.00048990071
   3714000   0.052148934   -0.30283235     0             -0.26132506    -0.00097288602
   3715000   0.049474539   -0.30890076     0             -0.26952212     0.00093330791
   3716000   0.049216076   -0.30933273     0             -0.27015981     0.0017660615 
   3717000   0.051783224   -0.3025442      0             -0.26132799    -0.0077369269 
   3718000   0.051360249   -0.31049491     0             -0.26961536     0.00026288352
   3719000   0.049617912   -0.30889288     0             -0.26940012     9.8403554e-05
   3720000   0.050959566   -0.31021374     0             -0.26965311     0.00094262501
   3721000   0.049382375   -0.30261986     0             -0.26331457    -0.00072749213
   3722000   0.04673346    -0.30925763     0             -0.27206072     0.0054367867 
   3723000   0.050505131   -0.31010364     0             -0.26990471    -0.0017972586 
   3724000   0.051882187   -0.30780572     0             -0.26651074    -0.0037138255 
   3725000   0.052211078   -0.30687256     0             -0.26531581    -0.0028432079 
   3726000   0.050861463   -0.30845847     0             -0.26797592    -0.0014756778 
   3727000   0.049421793   -0.30946589     0             -0.27012924    -0.0054321363 
   3728000   0.052391007   -0.30913251     0             -0.26743254    -0.0035675194 
   3729000   0.048331179   -0.30351929     0             -0.26505069    -0.0034949155 
   3730000   0.050130461   -0.30917117     0             -0.26927045    -0.0093018585 
   3731000   0.048993371   -0.31073241     0             -0.27173675    -0.0046062932 
   3732000   0.051503586   -0.31024878     0             -0.26925514     0.0017809595 
   3733000   0.049208998   -0.3098408      0             -0.27067351    -0.00071489968
   3734000   0.049276988   -0.30981976     0             -0.27059836    -0.00089598099
   3735000   0.050421087   -0.31077524     0             -0.2706432      0.0045660115 
   3736000   0.051683295   -0.30956143     0             -0.26842476    -0.0044957529 
   3737000   0.049219461   -0.30999089     0             -0.27081527     0.0026220557 
   3738000   0.052172252   -0.30997803     0             -0.26845218    -0.0075472826 
   3739000   0.050631105   -0.30938458     0             -0.26908539     0.0020550277 
   3740000   0.050205407   -0.31048946     0             -0.27052909     0.0020131883 
   3741000   0.052511401   -0.30938549     0             -0.26758969    -0.0058932044 
   3742000   0.050791206   -0.30998383     0             -0.2695572     -0.00024310062
   3743000   0.051861652   -0.30828287     0             -0.26700423     0.0055746157 
   3744000   0.05378762    -0.30995688     0             -0.2671453      0.0016121105 
   3745000   0.051347808   -0.30943943     0             -0.26856978    -0.0064847998 
   3746000   0.049204967   -0.30367194     0             -0.26450787     0.0085107324 
   3747000   0.047220353   -0.30965561     0             -0.27207116    -0.0021511631 
   3748000   0.049810052   -0.31024041     0             -0.27059472    -0.0028003528 
   3749000   0.047788664   -0.31037112     0             -0.27233433     0.00065757988
   3750000   0.04889221    -0.30881193     0             -0.26989679     0.0047801822 
   3751000   0.052096305   -0.30790832     0             -0.26644292    -0.0012863654 
   3752000   0.051701714   -0.30872475     0             -0.26757342    -0.0054813028 
   3753000   0.049395191   -0.30796647     0             -0.26865099    -0.0064828354 
   3754000   0.050332727   -0.30776506     0             -0.26770336     0.0034899027 
   3755000   0.050371489   -0.30845614     0             -0.26836358    -0.0024684719 
   3756000   0.048850602   -0.30862957     0             -0.26974754     0.00094715834
   3757000   0.04882547    -0.29192717     0             -0.25306514     0.0006439749 
   3758000   0.048134965   -0.30761059     0             -0.26929816     0.0048625949 
   3759000   0.050512751   -0.30712912     0             -0.26692412    -0.0047028297 
   3760000   0.051676498   -0.30782019     0             -0.26668893     0.0027805391 
   3761000   0.047019939   -0.30772666     0             -0.27030172    -0.0015135712 
   3762000   0.049772884   -0.30811637     0             -0.26850027    -0.0054766382 
   3763000   0.051201738   -0.30886597     0             -0.26811258    -0.004561485  
   3764000   0.04927817    -0.30717408     0             -0.26795174     0.011167691  
   3765000   0.051271278   -0.30763691     0             -0.26682818    -0.0050917996 
   3766000   0.052097604   -0.30801581     0             -0.26654937    -0.0036415022 
   3767000   0.048339694   -0.30664461     0             -0.26816924    -0.012250903  
   3768000   0.050883125   -0.30779578     0             -0.26729599     0.0054964582 
   3769000   0.050179909   -0.30758603     0             -0.26764595    -0.0032464779 
   3770000   0.050604646   -0.30361644     0             -0.26333831    -0.0072139509 
   3771000   0.049461734   -0.3084919      0             -0.26912345     0.0016499293 
   3772000   0.049992717   -0.30757712     0             -0.26778604     0.010991884  
   3773000   0.054611428   -0.30767708     0             -0.26420979     0.0025871425 
   3774000   0.0507593     -0.30807688     0             -0.26767565    -0.0063360433 
   3775000   0.050823974   -0.30761506     0             -0.26716235     0.0022433257 
   3776000   0.046589015   -0.30079295     0             -0.26371101    -0.0048226787 
   3777000   0.050745047   -0.30719829     0             -0.2668084     -0.0041308634 
   3778000   0.051505188   -0.30945354     0             -0.26845863    -0.00035029957
   3779000   0.055640106   -0.30797971     0             -0.26369366    -0.0035050977 
   3780000   0.051776552   -0.30876155     0             -0.26755065    -0.0062371723 
   3781000   0.049559027   -0.30722242     0             -0.26777653     0.0013859235 
   3782000   0.050958946   -0.30838071     0             -0.26782058    -0.0033320959 
   3783000   0.051375025   -0.30337497     0             -0.26248366     0.00034386575
   3784000   0.050285485   -0.30847162     0             -0.26844752     0.00057716091
   3785000   0.048237277   -0.30804645     0             -0.26965259     0.015701323  
   3786000   0.051630164   -0.3076425      0             -0.26654812    -0.0061294873 
   3787000   0.049049788   -0.30251307     0             -0.2634725      0.0044021446 
   3788000   0.046965612   -0.30759544     0             -0.27021375     0.0044740808 
   3789000   0.050688552   -0.30841173     0             -0.26806681     0.0057455179 
   3790000   0.049977768   -0.30767307     0             -0.26789389    -0.0051801041 
   3791000   0.049935848   -0.30840064     0             -0.26865482    -0.002535469  
   3792000   0.051134856   -0.30775569     0             -0.26705554     0.0036574606 
   3793000   0.051752524   -0.30858577     0             -0.267394       0.00029388332
   3794000   0.049997321   -0.30856728     0             -0.26877253    -0.0033361803 
   3795000   0.048969833   -0.30744369     0             -0.26846676    -0.0047577586 
   3796000   0.049458244   -0.30671119     0             -0.26734552    -0.0028404888 
   3797000   0.049082233   -0.30809938     0             -0.26903299    -0.004466893  
   3798000   0.051750773   -0.30837902     0             -0.26718864     0.0070413167 
   3799000   0.049325995   -0.30863947     0             -0.26937906     0.0092815591 
   3800000   0.047000081   -0.30899012     0             -0.27158099     0.0055176916 
   3801000   0.050127066   -0.30758405     0             -0.26768604     0.0064955447 
   3802000   0.051710497   -0.30757355     0             -0.26641522    -0.0022840143 
   3803000   0.048606788   -0.3079106      0             -0.26922264    -0.0047243974 
   3804000   0.0484224     -0.3092255      0             -0.2706843      0.0013498815 
   3805000   0.049301116   -0.30799561     0             -0.268755       0.005350668  
   3806000   0.050517179   -0.30856742     0             -0.2683589     -0.004266184  
   3807000   0.051536609   -0.30995132     0             -0.2689314     -0.0054520974 
   3808000   0.048622416   -0.30957718     0             -0.27087678    -0.00066063818
   3809000   0.050740863   -0.30948393     0             -0.26909738    -0.0043581032 
   3810000   0.05020855    -0.30912085     0             -0.26915798     0.0068836974 
   3811000   0.0517253     -0.31005367     0             -0.26888356     0.0028024678 
   3812000   0.051270563   -0.31043913     0             -0.26963097     0.0033812491 
   3813000   0.050505122   -0.31053575     0             -0.27033683    -0.009264817  
   3814000   0.048556404   -0.31014026     0             -0.27149239     0.0013511788 
   3815000   0.047909188   -0.31084791     0             -0.27271519    -0.0020024292 
   3816000   0.049853117   -0.31106124     0             -0.27138127    -0.00236095   
   3817000   0.048598237   -0.30992271     0             -0.27124155     0.00073839114
   3818000   0.051786939   -0.31027538     0             -0.26905621     0.0037897174 
   3819000   0.04950332    -0.31241235     0             -0.2730108      6.4577174e-05
   3820000   0.05204557    -0.31137586     0             -0.26995084    -0.00041342405
   3821000   0.049088921   -0.31135096     0             -0.27227924     0.0037362132 
   3822000   0.049028913   -0.30981766     0             -0.27079371    -5.5381603e-05
   3823000   0.050124797   -0.31199754     0             -0.27210134     0.00038802845
   3824000   0.05202264    -0.31107674     0             -0.26966997    -0.0056250861 
   3825000   0.051336282   -0.31140491     0             -0.27054443     0.001874209  
   3826000   0.046058753   -0.31122005     0             -0.27456016     0.0046176097 
   3827000   0.050606554   -0.30599781     0             -0.26571816    -0.0010661518 
   3828000   0.051643102   -0.31041208     0             -0.26930739     0.0097556884 
   3829000   0.051162396   -0.31028229     0             -0.26956022     0.0016797782 
   3830000   0.050910346   -0.31077723     0             -0.27025578    -0.0082776106 
   3831000   0.050354728   -0.309983       0             -0.26990379    -0.003876575  
   3832000   0.049585977   -0.30869446     0             -0.26922712    -0.0045667782 
   3833000   0.049830684   -0.31038683     0             -0.27072472     0.0056316584 
   3834000   0.049627626   -0.31109551     0             -0.27159502    -0.001684096  
   3835000   0.05109618    -0.31054882     0             -0.26987945    -0.002597443  
   3836000   0.050440465   -0.31013175     0             -0.2699843     -0.004991675  
   3837000   0.049604932   -0.31003717     0             -0.27055475    -0.0072511328 
   3838000   0.051374565   -0.31128194     0             -0.270391       0.0031314003 
   3839000   0.05183834    -0.31061061     0             -0.26935053    -0.0069649406 
   3840000   0.049807195   -0.3104569      0             -0.27081349    -0.0028118208 
   3841000   0.049325294   -0.31008077     0             -0.27082092    -0.0025236629 
   3842000   0.050501746   -0.31153315     0             -0.27133691    -0.0051209755 
   3843000   0.04771042    -0.31000801     0             -0.2720335      0.0054341045 
   3844000   0.048613992   -0.30918691     0             -0.27049321    -0.0029182247 
   3845000   0.047992064   -0.30972171     0             -0.27152302    -0.0038703629 
   3846000   0.049054888   -0.30355083     0             -0.2645062      0.00057532522
   3847000   0.049473158   -0.3093999      0             -0.27002236    -0.0028942785 
   3848000   0.047587737   -0.31039722     0             -0.27252035     0.0088932009 
   3849000   0.049566785   -0.30504818     0             -0.26559612     0.0069015416 
   3850000   0.052407847   -0.30960936     0             -0.26789599     0.0010870235 
   3851000   0.049596523   -0.30979932     0             -0.27032359    -0.00095794011
   3852000   0.05100761    -0.30879097     0             -0.2681921      0.0011346635 
   3853000   0.050889577   -0.30865955     0             -0.26815463    -0.004812611  
   3854000   0.051287884   -0.3095717      0             -0.26874975    -0.004130702  
   3855000   0.050420308   -0.30850684     0             -0.26837542     0.003126565  
   3856000   0.050417774   -0.30783498     0             -0.26770558    -0.00063372635
   3857000   0.054405651   -0.30793022     0             -0.26462673     0.00072138445
   3858000   0.049703425   -0.30820563     0             -0.26864481     0.005541478  
   3859000   0.04839359    -0.30837372     0             -0.26985544     0.00078701621
   3860000   0.052663438   -0.3084612      0             -0.2665444     -0.00020998251
   3861000   0.049198693   -0.30861612     0             -0.26945703    -0.0035720135 
   3862000   0.049646444   -0.30778464     0             -0.26826918     0.002526103  
   3863000   0.047859344   -0.30826577     0             -0.27017273     0.0010896754 
   3864000   0.050583702   -0.30753786     0             -0.26727639    -0.0053984982 
   3865000   0.051416074   -0.30766223     0             -0.26673824    -0.0042581603 
   3866000   0.052175181   -0.30796724     0             -0.26643906     0.0010162489 
   3867000   0.049121561   -0.30716529     0             -0.2680676     -0.0045567299 
   3868000   0.049005736   -0.30790975     0             -0.26890425     0.0019357027 
   3869000   0.052176939   -0.30726845     0             -0.26573887    -0.001339127  
   3870000   0.048916407   -0.30806668     0             -0.26913228    -0.0021103896 
   3871000   0.051909794   -0.30743418     0             -0.26611723    -0.00037212811
   3872000   0.051560676   -0.30098437     0             -0.25994529    -0.00072542331
   3873000   0.051842245   -0.30858215     0             -0.26731896     0.0032045645 
   3874000   0.050710898   -0.30699894     0             -0.26663624     0.0041798052 
   3875000   0.051257385   -0.30721095     0             -0.26641328     0.0025848689 
   3876000   0.050781153   -0.30775108     0             -0.26733246    -0.0007687194 
   3877000   0.05067288    -0.30811076     0             -0.26777831    -0.0087858735 
   3878000   0.049730856   -0.30736718     0             -0.26778453     0.0056544181 
   3879000   0.050594271   -0.30778043     0             -0.26751056    -0.0056896979 
   3880000   0.049745775   -0.30045224     0             -0.26085771     0.0023611406 
   3881000   0.049547406   -0.30784724     0             -0.2684106     -0.0038104049 
   3882000   0.049679545   -0.30711466     0             -0.26757284     0.0042727586 
   3883000   0.048855251   -0.30868679     0             -0.26980106     0.0042677366 
   3884000   0.048005393   -0.30631904     0             -0.26810975    -0.0030777323 
   3885000   0.053166436   -0.30538491     0             -0.26306774    -0.0034924508 
   3886000   0.050958463   -0.30714501     0             -0.26658525    -0.002173958  
   3887000   0.050746987   -0.30816361     0             -0.26777218    -0.0093517745 
   3888000   0.04915341    -0.30852167     0             -0.26939862     0.00033580661
   3889000   0.04736851    -0.30886468     0             -0.2711623     -0.0017601654 
   3890000   0.05196237    -0.30275418     0             -0.26139538     0.0057053257 
   3891000   0.050191652   -0.30799046     0             -0.26804104     0.0082791838 
   3892000   0.052139536   -0.30579089     0             -0.26429108     0.0032652859 
   3893000   0.050798848   -0.30919425     0             -0.26876154     0.0019755565 
   3894000   0.050836175   -0.30676409     0             -0.26630167     0.007882773  
   3895000   0.052728556   -0.30552623     0             -0.2635576     -0.00065209115
   3896000   0.051032334   -0.30822957     0             -0.26761102    -0.002528342  
   3897000   0.049517081   -0.30826653     0             -0.26885402    -0.0029416538 
   3898000   0.049737866   -0.30717333     0             -0.26758509     0.0038868023 
   3899000   0.050858812   -0.30758963     0             -0.2671092     -0.0030856938 
   3900000   0.049209602   -0.30806801     0             -0.26890024    -0.0081985765 
   3901000   0.04868464    -0.30846291     0             -0.26971298     0.0069464784 
   3902000   0.050108086   -0.3081674      0             -0.26828449    -0.0047362047 
   3903000   0.048878718   -0.30812832     0             -0.26922392     0.0055786327 
   3904000   0.050284162   -0.30982267     0             -0.26979962     0.0021597961 
   3905000   0.047767137   -0.29875105     0             -0.26073139    -0.00073806472
   3906000   0.051049067   -0.30880504     0             -0.26817317     0.0029103161 
   3907000   0.050649689   -0.29930884     0             -0.25899485    -0.0035676618 
   3908000   0.053111441   -0.30952274     0             -0.26724935    -0.0071015698 
   3909000   0.050762162   -0.30991803     0             -0.26951452     0.0029413269 
   3910000   0.050023344   -0.30984656     0             -0.2700311      0.0042790914 
   3911000   0.052646169   -0.30968423     0             -0.26778117     0.0011476148 
   3912000   0.048408393   -0.30821422     0             -0.26968416     0.008952916  
   3913000   0.049490662   -0.30813176     0             -0.26874029     0.00046725658
   3914000   0.051370103   -0.30926004     0             -0.26837264     0.0015484705 
   3915000   0.049318054   -0.30946174     0             -0.27020765    -0.00022638464
   3916000   0.049563506   -0.30448901     0             -0.26503956     0.00094342596
   3917000   0.052206638   -0.30862922     0             -0.26707599     0.001646965  
   3918000   0.049390872   -0.30831236     0             -0.26900032    -0.0082412214 
   3919000   0.051228155   -0.30746826     0             -0.26669385     0.001030425  
   3920000   0.051478268   -0.30824942     0             -0.26727593    -0.0013533963 
   3921000   0.048433155   -0.30744394     0             -0.26889417    -0.0027004413 
   3922000   0.048849156   -0.30908598     0             -0.27020511     0.0021763755 
   3923000   0.048899308   -0.30950436     0             -0.27058357     0.0024136094 
   3924000   0.050753696   -0.3086637      0             -0.26826693    -0.0021747997 
   3925000   0.049369417   -0.30900241     0             -0.26970744    -0.0016740758 
   3926000   0.050782816   -0.30736755     0             -0.26694761     0.0014463348 
   3927000   0.047606435   -0.30134098     0             -0.26344924     0.00068380123
   3928000   0.050545254   -0.3078073      0             -0.26757644    -0.0053840779 
   3929000   0.048361184   -0.30842618     0             -0.2699337      0.0028433766 
   3930000   0.050771895   -0.30825314     0             -0.26784189    -0.0046428258 
   3931000   0.054114889   -0.30776923     0             -0.26469716    -0.0035162319 
   3932000   0.048684039   -0.30111646     0             -0.26236701    -0.0055548954 
   3933000   0.049197057   -0.30860059     0             -0.26944281    -0.0022402694 
   3934000   0.051841087   -0.30826278     0             -0.26700051     0.00075583336
   3935000   0.049922862   -0.30377588     0             -0.2640404      0.00041111492
   3936000   0.049120628   -0.30843169     0             -0.26933474    -0.0018378909 
   3937000   0.049268646   -0.29845401     0             -0.25923925    -0.004474994  
   3938000   0.050391339   -0.30786832     0             -0.26775996     0.0012667362 
   3939000   0.052464626   -0.30798628     0             -0.26622772    -0.00076333008
   3940000   0.049976266   -0.30865269     0             -0.2688747     -0.0038462607 
   3941000   0.047925893   -0.30882825     0             -0.27068224     0.0041761778 
   3942000   0.051795179   -0.30902749     0             -0.26780176     0.00048128621
   3943000   0.049841659   -0.30676315     0             -0.2670923      0.0055914818 
   3944000   0.050264776   -0.30688816     0             -0.26688054    -0.0020552689 
   3945000   0.051107699   -0.3066356      0             -0.26595706     0.00032043688
   3946000   0.050530336   -0.30881331     0             -0.26859432     0.0045569713 
   3947000   0.049612082   -0.29340027     0             -0.25391215     0.0099748766 
   3948000   0.051194897   -0.29612831     0             -0.25538037    -0.0042980584 
   3949000   0.050459748   -0.30830621     0             -0.26814341    -0.0055133751 
   3950000   0.051198646   -0.30694941     0             -0.26619848    -0.00012865093
   3951000   0.049651567   -0.3059922      0             -0.26647266    -0.0048911895 
   3952000   0.05042941    -0.30652114     0             -0.26638248     0.0013853308 
   3953000   0.050617129   -0.30637581     0             -0.26608774    -0.0024131362 
   3954000   0.05181376    -0.30031678     0             -0.25907627     0.0054682981 
   3955000   0.050046498   -0.30528058     0             -0.26544669     0.0067927185 
   3956000   0.048159638   -0.30560857     0             -0.26727651     0.0012596803 
   3957000   0.047706292   -0.30469567     0             -0.26672445    -0.0073925389 
   3958000   0.054341912   -0.30691933     0             -0.26366657     0.0057481856 
   3959000   0.051029181   -0.30407418     0             -0.26345814     0.0033075431 
   3960000   0.052605998   -0.3060656      0             -0.26419451    -0.0051131324 
   3961000   0.049747682   -0.30622108     0             -0.26662503     0.00041452655
   3962000   0.049643063   -0.30630523     0             -0.26679246    -0.0020447953 
   3963000   0.049424439   -0.30692884     0             -0.26759008     0.0055200982 
   3964000   0.048187781   -0.30628853     0             -0.26793407    -0.0010699721 
   3965000   0.050948244   -0.30581036     0             -0.26525874     0.0035683713 
   3966000   0.050081666   -0.30643562     0             -0.26657374     0.00017984596
   3967000   0.049807413   -0.30600054     0             -0.26635695    -0.00076274953
   3968000   0.048959903   -0.30520006     0             -0.26623103     0.0050747577 
   3969000   0.05102228    -0.30573757     0             -0.26512703     0.00074925507
   3970000   0.048953822   -0.30653534     0             -0.26757116    -0.0031002325 
   3971000   0.04940964    -0.30758156     0             -0.26825457     0.0002194204 
   3972000   0.052555862   -0.30698869     0             -0.26515751    -0.00036417659
   3973000   0.048958405   -0.30764606     0             -0.26867823    -0.0036944552 
   3974000   0.049278915   -0.30677009     0             -0.26754716    -0.0042516642 
   3975000   0.047178834   -0.30714718     0             -0.26959578    -0.0048264633 
   3976000   0.051618319   -0.3058332      0             -0.26474825     0.011509119  
   3977000   0.054096804   -0.30567702     0             -0.26261935    -0.0028113326 
   3978000   0.052024346   -0.30611149     0             -0.26470336    -0.0043063652 
   3979000   0.051106943   -0.30682982     0             -0.26615189    -0.0033589626 
   3980000   0.048723633   -0.30646573     0             -0.26768476     0.0030440838 
   3981000   0.050348351   -0.30622412     0             -0.26614998    -0.006166737  
   3982000   0.050309301   -0.3071819      0             -0.26713884    -0.00027337785
   3983000   0.049925065   -0.30776421     0             -0.26802698    -0.00083893363
   3984000   0.048868822   -0.30694181     0             -0.26804528    -0.0028954664 
   3985000   0.048623708   -0.3082959      0             -0.26959447     0.0070201437 
   3986000   0.050705345   -0.30230639     0             -0.26194811     0.0036419039 
   3987000   0.050574813   -0.30519088     0             -0.26493649     0.0032012252 
   3988000   0.05014944    -0.30899605     0             -0.26908023     0.0098367766 
   3989000   0.048162525   -0.30917188     0             -0.27083752     0.0077315424 
   3990000   0.049757265   -0.30746821     0             -0.26786454     0.0027077168 
   3991000   0.048596544   -0.30322747     0             -0.26454765     0.0035398617 
   3992000   0.04888762    -0.30822971     0             -0.26931822     0.0034755105 
   3993000   0.054025096   -0.30918718     0             -0.26618658     0.00076911456
   3994000   0.050150534   -0.30877179     0             -0.2688551      0.0049573131 
   3995000   0.048142303   -0.30845734     0             -0.27013908    -0.002894319  
   3996000   0.050941151   -0.30737236     0             -0.26682639    -0.0091717996 
   3997000   0.053095837   -0.30851604     0             -0.26625508    -0.0045296931 
   3998000   0.05250731    -0.31003452     0             -0.26824198    -0.0045737106 
   3999000   0.050415221   -0.30889432     0             -0.26876696    -0.0022255398 
   4000000   0.055043302   -0.30893934     0             -0.26512831     0.0045188021 
   4001000   0.050527147   -0.30811855     0             -0.2679021      0.0072044305 
   4002000   0.049452561   -0.30328143     0             -0.26392029    -0.0038789378 
   4003000   0.04980617    -0.30812684     0             -0.26848424    -0.002363603  
   4004000   0.053921154   -0.30719661     0             -0.26427874     0.011546506  
   4005000   0.05052063    -0.30680419     0             -0.26659293    -0.0017294101 
   4006000   0.05090875    -0.30786434     0             -0.26734416     0.00017798675
   4007000   0.052978967   -0.30810816     0             -0.26594021     0.0068222988 
   4008000   0.050448686   -0.30778887     0             -0.26763487    -0.0021554699 
   4009000   0.049582102   -0.30878786     0             -0.26932361    -0.0068118839 
   4010000   0.049405126   -0.30993154     0             -0.27060815    -0.0064478798 
   4011000   0.050891003   -0.30823852     0             -0.26773246     0.011676422  
   4012000   0.053213893   -0.3096225      0             -0.26726757     0.0018737755 
   4013000   0.051492405   -0.30768422     0             -0.26669948     0.0039029251 
   4014000   0.048346248   -0.30951253     0             -0.27103194     0.0048602469 
   4015000   0.050414635   -0.30969402     0             -0.26956713    -0.0071276565 
   4016000   0.051448854   -0.30805111     0             -0.26710104     0.004076705  
   4017000   0.048821873   -0.30716822     0             -0.26830906     0.0024342068 
   4018000   0.051335939   -0.30855061     0             -0.26769041     0.0013915358 
   4019000   0.050935121   -0.30860477     0             -0.2680636      0.0055658289 
   4020000   0.049865461   -0.30824877     0             -0.26855898     0.0039365648 
   4021000   0.05274795    -0.30736031     0             -0.26537624    -0.0020224517 
   4022000   0.050995923   -0.30740157     0             -0.266812      -0.0009297879 
   4023000   0.050086676   -0.30866661     0             -0.26880075     0.0038226624 
   4024000   0.049309436   -0.30827944     0             -0.26903221     0.00431582   
   4025000   0.050210823   -0.31036534     0             -0.27040066    -0.00030199466
   4026000   0.049162346   -0.3085895      0             -0.26945935     0.0035612244 
   4027000   0.049754402   -0.30939278     0             -0.26979139    -0.0018160574 
   4028000   0.051321915   -0.30884199     0             -0.26799296     0.00060164187
   4029000   0.048386544   -0.31052208     0             -0.27200942     0.0064068755 
   4030000   0.048412217   -0.31129053     0             -0.27275743     0.0014124538 
   4031000   0.049178531   -0.3097363      0             -0.27059326     0.0015018184 
   4032000   0.052454732   -0.30185118     0             -0.26010049     0.0044107063 
   4033000   0.050749856   -0.30958287     0             -0.26918916     0.0025113784 
   4034000   0.049082993   -0.30994942     0             -0.27088242    -0.00055429079
   4035000   0.050135819   -0.30896948     0             -0.2690645     -0.0024322854 
   4036000   0.051275547   -0.3093179      0             -0.26850577     0.0021135454 
   4037000   0.048822293   -0.31053437     0             -0.27167487     0.0047253253 
   4038000   0.052108985   -0.30956853     0             -0.26809303    -0.00151466   
   4039000   0.050301221   -0.309986       0             -0.26994937    -0.00033463351
   4040000   0.048871915   -0.3094484      0             -0.27054941    -0.0043458693 
   4041000   0.048958048   -0.30967363     0             -0.27070608     0.0031937274 
   4042000   0.050570047   -0.30986567     0             -0.26961508     0.0065820654 
   4043000   0.051298138   -0.31051367     0             -0.26968356    -0.0059918365 
   4044000   0.049759362   -0.30978598     0             -0.27018064    -0.00021646729
   4045000   0.049850983   -0.30991288     0             -0.27023461     0.0019415282 
   4046000   0.052267448   -0.31031836     0             -0.26871674    -0.002086004  
   4047000   0.050330889   -0.30920084     0             -0.2691406      0.0026991765 
   4048000   0.051487497   -0.31048089     0             -0.26950006     0.0071312119 
   4049000   0.047161973   -0.31056471     0             -0.27302672     0.00026854498
   4050000   0.052099136   -0.30938222     0             -0.26791456     0.00021301857
   4051000   0.050262535   -0.31053047     0             -0.27052463     0.00016460626
   4052000   0.05178493    -0.30980868     0             -0.26859112     0.0037769491 
   4053000   0.048482608   -0.29957751     0             -0.26098838     0.0021298985 
   4054000   0.0479047     -0.31088204     0             -0.27275289    -0.0048352401 
   4055000   0.049766827   -0.30538743     0             -0.26577614     0.0067466819 
   4056000   0.048521842   -0.3109661      0             -0.27234575    -8.5623947e-05
   4057000   0.049233746   -0.31092627     0             -0.27173928    -0.0031500888 
   4058000   0.048289427   -0.30501583     0             -0.26658046     6.1580445e-05
   4059000   0.05043432    -0.31187878     0             -0.27173621    -0.0057744075 
   4060000   0.052370308   -0.31079138     0             -0.26910788    -0.0078600564 
   4061000   0.04827404    -0.31151635     0             -0.27309323     0.0049439949 
   4062000   0.050097567   -0.31268159     0             -0.27280706    -0.00032104008
   4063000   0.048873104   -0.31204083     0             -0.27314089    -0.0012858671 
   4064000   0.05099829    -0.31123591     0             -0.27064446     0.0021314496 
   4065000   0.050860249   -0.31110431     0             -0.27062273     0.0034364043 
   4066000   0.05161533    -0.31206924     0             -0.27098666    -0.0047529381 
   4067000   0.051213544   -0.31019743     0             -0.26943465     0.0050540003 
   4068000   0.049609194   -0.31021924     0             -0.27073342    -0.0055158525 
   4069000   0.049097667   -0.30935061     0             -0.27027194     0.0073062474 
   4070000   0.050460616   -0.30897802     0             -0.26881452     0.00091428067
   4071000   0.049641543   -0.31150548     0             -0.27199391     0.0017086941 
   4072000   0.050746116   -0.31042384     0             -0.2700331     -0.010359651  
   4073000   0.050112759   -0.30954962     0             -0.26966299    -1.7460716e-05
   4074000   0.050508375   -0.31253053     0             -0.27232902     0.0033972087 
   4075000   0.048283898   -0.3100226      0             -0.27159163     0.0040584551 
   4076000   0.050228627   -0.30463819     0             -0.26465934     0.0026808477 
   4077000   0.049563364   -0.30939916     0             -0.26994982    -0.0055669087 
   4078000   0.049419767   -0.3111709      0             -0.27183585     0.0032298428 
   4079000   0.050474625   -0.31035331     0             -0.27017867    -0.0029692694 
   4080000   0.048985843   -0.31195111     0             -0.27296145    -0.0013121023 
   4081000   0.051180345   -0.3116968      0             -0.27096045    -0.0011074405 
   4082000   0.048577923   -0.31058157     0             -0.27191658     0.0068191682 
   4083000   0.050826662   -0.3117228      0             -0.27126795    -0.0034707781 
   4084000   0.050848361   -0.31021888     0             -0.26974676    -0.0044660641 
   4085000   0.049524606   -0.31174136     0             -0.27232287     0.0055346785 
   4086000   0.049178255   -0.31182795     0             -0.27268514    -0.0035129371 
   4087000   0.05003123    -0.31076579     0             -0.27094406    -0.0056550323 
   4088000   0.048898187   -0.31117308     0             -0.27225318    -0.0055459629 
   4089000   0.049985236   -0.3073104      0             -0.26752528     0.0063191658 
   4090000   0.051250632   -0.31057997     0             -0.26978767     0.0017141607 
   4091000   0.050714054   -0.30580972     0             -0.2654445      0.0081126163 
   4092000   0.047000072   -0.30607866     0             -0.26866954     0.0037684709 
   4093000   0.048235689   -0.31063109     0             -0.2722385      0.0053797438 
   4094000   0.050248636   -0.30989931     0             -0.26990454     0.0037119088 
   4095000   0.04919737    -0.30922814     0             -0.2700701      0.0054797198 
   4096000   0.049389731   -0.31112477     0             -0.27181363     0.0051735089 
   4097000   0.048682835   -0.31003356     0             -0.27128507    -0.004925656  
   4098000   0.050336883   -0.3106605      0             -0.27059549     0.0019550936 
   4099000   0.049901809   -0.31065751     0             -0.27093878    -0.0056208288 
   4100000   0.050331548   -0.31035397     0             -0.2702932      0.003439435  
   4101000   0.053834513   -0.31104982     0             -0.26820091     0.0022049832 
   4102000   0.050118069   -0.30986414     0             -0.26997329    -0.0061184858 
   4103000   0.049189096   -0.30548757     0             -0.26633612     0.0061701617 
   4104000   0.050218767   -0.31135984     0             -0.27138884     0.0041050494 
   4105000   0.051125208   -0.31163337     0             -0.2709409      0.00092595622
   4106000   0.051434409   -0.31206008     0             -0.27112151     0.00038971133
   4107000   0.053563307   -0.3053988      0             -0.26276576     0.0041268823 
   4108000   0.0505696     -0.31153161     0             -0.27128137     0.00080794108
   4109000   0.050015554   -0.3116416      0             -0.27183234    -0.0012338257 
   4110000   0.051358903   -0.31018685     0             -0.26930838     0.0046080684 
   4111000   0.049712125   -0.31088405     0             -0.27131631    -0.0090316584 
   4112000   0.050030572   -0.3122178      0             -0.2723966     -0.0082817814 
   4113000   0.05202065    -0.31270608     0             -0.27130089    -0.0069857798 
   4114000   0.051468532   -0.29867869     0             -0.25771296    -0.0094252989 
   4115000   0.051752977   -0.30741743     0             -0.2662253      0.00012940684
   4116000   0.050312552   -0.30812929     0             -0.26808364    -1.7116026e-05
   4117000   0.048128659   -0.31195411     0             -0.27364671    -0.0025326104 
   4118000   0.051527494   -0.31271394     0             -0.27170127     0.0011254751 
   4119000   0.052177143   -0.31192398     0             -0.27039423     0.0034095914 
   4120000   0.047961149   -0.31190603     0             -0.27373195     0.00025859074
   4121000   0.049731991   -0.31298324     0             -0.27339968    -0.0066569524 
   4122000   0.048793531   -0.31346189     0             -0.27462529    -0.00040136001
   4123000   0.049278474   -0.31251931     0             -0.27329672    -0.0075751571 
   4124000   0.049997337   -0.31248258     0             -0.27268782     0.0046795717 
   4125000   0.049049016   -0.31326748     0             -0.27422753    -0.0024171007 
   4126000   0.051116234   -0.30016758     0             -0.25948225     0.0041816212 
   4127000   0.049135048   -0.30571591     0             -0.26660748     0.0031062947 
   4128000   0.051728045   -0.31243293     0             -0.27126063     0.0029744461 
   4129000   0.050692978   -0.31219053     0             -0.27184209    -0.00095398237
   4130000   0.051261252   -0.31234974     0             -0.27154899     0.0044242806 
   4131000   0.04940085    -0.31251951     0             -0.27319952     0.0048541748 
   4132000   0.048838856   -0.31186535     0             -0.27299267    -0.0071446527 
   4133000   0.053163582   -0.31282367     0             -0.27050878    -0.0027407298 
   4134000   0.04746431    -0.31279065     0             -0.27501203     0.0094261818 
   4135000   0.050578037   -0.31152156     0             -0.2712646      0.00067943052
   4136000   0.048370494   -0.3124828      0             -0.27398291    -0.0029886464 
   4137000   0.049885195   -0.31378169     0             -0.2740762      0.0031176504 
   4138000   0.048832655   -0.31248998     0             -0.27362224     0.0021733867 
   4139000   0.049540595   -0.31332383     0             -0.27389261    -0.0010573283 
   4140000   0.051573155   -0.31304991     0             -0.2720009      0.0022273564 
   4141000   0.049309288   -0.31309264     0             -0.27384553     0.0051456762 
   4142000   0.050468509   -0.31289181     0             -0.27272203    -0.0033127194 
   4143000   0.051407017   -0.31202541     0             -0.27110864     2.4888085e-06
   4144000   0.050043328   -0.31187622     0             -0.27204486    -0.0024527971 
   4145000   0.04755678    -0.31271867     0             -0.27486645     0.00047140792
   4146000   0.049325511   -0.3110674      0             -0.27180737     0.002505527  
   4147000   0.050857257   -0.31224501     0             -0.27176581    -0.0069997894 
   4148000   0.049646453   -0.31325059     0             -0.27373512    -0.00067069795
   4149000   0.049321218   -0.31286837     0             -0.27361177    -0.0056121966 
   4150000   0.05314771    -0.31136762     0             -0.26906536    -0.0047770347 
   4151000   0.051272678   -0.31209855     0             -0.2712887     -0.0011246464 
   4152000   0.052402908   -0.31240431     0             -0.27069487     0.0020642893 
   4153000   0.051059606   -0.31357478     0             -0.27293452     0.012028589  
   4154000   0.049918994   -0.31222346     0             -0.27249106     0.010217344  
   4155000   0.05060991    -0.31409339     0             -0.27381107     0.0058501825 
   4156000   0.052752474   -0.31213422     0             -0.27014655     0.0018916077 
   4157000   0.04988733    -0.31137888     0             -0.27167168     0.0037010671 
   4158000   0.047495974   -0.31363396     0             -0.27583014     0.0054792231 
   4159000   0.048497452   -0.31315785     0             -0.27455691     0.0047648826 
   4160000   0.049847192   -0.31192636     0             -0.27225112    -0.0042943515 
   4161000   0.049526788   -0.31305604     0             -0.27363582    -0.0013495367 
   4162000   0.0493489     -0.31271638     0             -0.27343773    -0.014479273  
   4163000   0.047246461   -0.31178566     0             -0.27418043     0.00210019   
   4164000   0.049515284   -0.31143641     0             -0.27202534     0.002417508  
   4165000   0.051627927   -0.31232982     0             -0.27123722    -0.0091284439 
   4166000   0.047540227   -0.31220561     0             -0.27436657    -0.0030464078 
   4167000   0.049680677   -0.30602016     0             -0.26647744     0.006218464  
   4168000   0.047554829   -0.31480984     0             -0.27695917     0.0065047006 
   4169000   0.051381445   -0.30810016     0             -0.26720374     0.004814629  
   4170000   0.05321321    -0.31286724     0             -0.27051285     0.0008627793 
   4171000   0.050696595   -0.31290928     0             -0.27255796    -0.002279641  
   4172000   0.050113994   -0.3134047      0             -0.27351709    -0.0025253517 
   4173000   0.0510614     -0.3140056      0             -0.27336392    -0.0038798756 
   4174000   0.049803767   -0.31295618     0             -0.2733155     -0.0015166014 
   4175000   0.050620272   -0.3067196      0             -0.26642903     0.0018704656 
   4176000   0.051447269   -0.30723883     0             -0.26629001     0.0095205468 
   4177000   0.049716413   -0.31444387     0             -0.27487271     0.0044555651 
   4178000   0.050795059   -0.31404024     0             -0.27361055    -0.011588191  
   4179000   0.052752067   -0.31474018     0             -0.27275283    -0.0027737597 
   4180000   0.048515878   -0.3129426      0             -0.27432699     0.0068639961 
   4181000   0.050535607   -0.31499783     0             -0.27477464    -0.0075198865 
   4182000   0.049708199   -0.31472961     0             -0.27516499     0.0055673405 
   4183000   0.04973962    -0.31470292     0             -0.2751133     -0.0040829425 
   4184000   0.049528059   -0.31510669     0             -0.27568545    -0.0068190297 
   4185000   0.051646115   -0.31468054     0             -0.27357346     0.00065058621
   4186000   0.049653287   -0.31422678     0             -0.27470587     0.0048421021 
   4187000   0.053272876   -0.30741373     0             -0.26501185    -0.0064106058 
   4188000   0.050845354   -0.30837258     0             -0.26790285     0.005015705  
   4189000   0.051330504   -0.31490915     0             -0.27405328     0.0010320657 
   4190000   0.04915514    -0.31480626     0             -0.27568184    -0.008617416  
   4191000   0.049251247   -0.31418978     0             -0.27498887     0.004636915  
   4192000   0.051846182   -0.31560268     0             -0.27433636    -0.0014994117 
   4193000   0.050978725   -0.3080436      0             -0.26746772    -0.0022964613 
   4194000   0.051380745   -0.31561942     0             -0.27472356     0.0063644013 
   4195000   0.049945447   -0.31508775     0             -0.2753343      0.001098977  
   4196000   0.047885576   -0.31420471     0             -0.27609078    -0.0044418459 
   4197000   0.05353399    -0.31441121     0             -0.2718015      0.0094802997 
   4198000   0.049345932   -0.31455617     0             -0.27527989     0.0038601783 
   4199000   0.051262783   -0.31625648     0             -0.27545451    -0.0018882801 
   4200000   0.049658985   -0.31515818     0             -0.27563273     0.0060169098 
   4201000   0.050621673   -0.31643841     0             -0.27614672    -0.0023709877 
   4202000   0.049467528   -0.31465542     0             -0.27528236     0.0022222897 
   4203000   0.051073527   -0.31178461     0             -0.27113327     0.0024865497 
   4204000   0.052652425   -0.30898851     0             -0.26708047    -0.0060306415 
   4205000   0.048868032   -0.31484594     0             -0.27595004    -0.00070054722
   4206000   0.049595576   -0.31476401     0             -0.27528903    -2.7152441e-05
   4207000   0.049386643   -0.31441375     0             -0.27510507    -0.0013092335 
   4208000   0.048994234   -0.31492087     0             -0.27592452     0.00032624923
   4209000   0.04925463    -0.31501731     0             -0.2758137     -0.0014002159 
   4210000   0.049714357   -0.31411606     0             -0.27454654     0.0065154467 
   4211000   0.051117533   -0.31404945     0             -0.27336309     0.0016907107 
   4212000   0.051511232   -0.31511296     0             -0.27411323    -0.0040704196 
   4213000   0.04669984    -0.31293515     0             -0.275765       0.00094023458
   4214000   0.04899086    -0.30922186     0             -0.27022819    -0.0031300087 
   4215000   0.0495022     -0.31373879     0             -0.27433814    -0.0043555532 
   4216000   0.050124848   -0.31423149     0             -0.27433524    -0.00061706379
   4217000   0.051378607   -0.3139027      0             -0.27300854     0.00069857288
   4218000   0.051077649   -0.31417778     0             -0.27352316     0.0037712642 
   4219000   0.050011868   -0.31372979     0             -0.27392347     0.00079820607
   4220000   0.051047729   -0.31594659     0             -0.27531579    -0.00083227477
   4221000   0.052554447   -0.31409829     0             -0.27226824    -0.0033388814 
   4222000   0.049355063   -0.31452396     0             -0.27524041     0.0026165001 
   4223000   0.048996465   -0.31410066     0             -0.27510254    -0.0015435204 
   4224000   0.051806984   -0.31465728     0             -0.27342216     0.0039208598 
   4225000   0.050756179   -0.31461405     0             -0.2742153      0.0013509553 
   4226000   0.050462555   -0.30738821     0             -0.26722317    -0.0057164535 
   4227000   0.053191246   -0.3159499      0             -0.27361299     0.001462809  
   4228000   0.04761076    -0.31371115     0             -0.27581596    -0.0042950142 
   4229000   0.051950781   -0.29586374     0             -0.25451416     0.0045174433 
   4230000   0.05089544    -0.31391724     0             -0.27340766     0.0046744834 
   4231000   0.053129973   -0.31445504     0             -0.2721669     -0.0017478264 
   4232000   0.049506677   -0.31483443     0             -0.27543021    -0.0059453009 
   4233000   0.047203139   -0.31413968     0             -0.27656893     0.0030913536 
   4234000   0.047649027   -0.31469856     0             -0.27677292     0.0057502107 
   4235000   0.050039314   -0.31545547     0             -0.2756273     -0.0050668828 
   4236000   0.051869535   -0.3145432      0             -0.27325829    -0.0014899501 
   4237000   0.04952117    -0.31413325     0             -0.2747175      0.0012895071 
   4238000   0.049575873   -0.31091212     0             -0.27145282     0.0011182876 
   4239000   0.051394711   -0.30539304     0             -0.26448607     0.0012718946 
   4240000   0.047807631   -0.31475451     0             -0.27670262     0.00035657146
   4241000   0.050516809   -0.31494775     0             -0.27473953     0.0012388053 
   4242000   0.050383477   -0.31385164     0             -0.27374954    -0.000335075  
   4243000   0.051096985   -0.31529105     0             -0.27462105    -0.0020604241 
   4244000   0.052823946   -0.31453575     0             -0.2724912      0.0025119429 
   4245000   0.051173703   -0.31447144     0             -0.27374037     0.0077921195 
   4246000   0.047567817   -0.31417481     0             -0.2763138      0.00082848016
   4247000   0.047236879   -0.31550725     0             -0.27790964    -0.0043980331 
   4248000   0.047026094   -0.31662311     0             -0.27919327     0.0016596747 
   4249000   0.052186928   -0.31470943     0             -0.2731719      0.011037439  
   4250000   0.049438086   -0.3136235      0             -0.27427387    -0.00034669326
   4251000   0.050230283   -0.30957028     0             -0.26959012    -0.0053299856 
   4252000   0.051292635   -0.31425811     0             -0.27343238     0.0015005591 
   4253000   0.051788079   -0.30880021     0             -0.26758013    -0.004058171  
   4254000   0.050350467   -0.31393939     0             -0.27386357     0.0067306606 
   4255000   0.049821939   -0.31448529     0             -0.27483014    -0.0058267656 
   4256000   0.048216396   -0.31391105     0             -0.27553381    -0.0095910567 
   4257000   0.050229246   -0.31397049     0             -0.27399115    -0.0011267461 
   4258000   0.050576816   -0.31461682     0             -0.27436083     0.00068803723
   4259000   0.04979325    -0.30914991     0             -0.26951759    -0.0072002151 
   4260000   0.050787439   -0.31464302     0             -0.2742194     -0.0018129215 
   4261000   0.051210255   -0.31485938     0             -0.27409922     0.0032201302 
   4262000   0.051651931   -0.31427555     0             -0.27316384    -0.0018864331 
   4263000   0.048439149   -0.31537745     0             -0.27682292    -0.00054097552
   4264000   0.050144082   -0.3147509      0             -0.27483935    -0.00098984708
   4265000   0.050629864   -0.31468928     0             -0.27439108     0.0046659564 
   4266000   0.050340662   -0.31513985     0             -0.27507183    -0.0011696217 
   4267000   0.04858179    -0.31569801     0             -0.27702994    -0.0055797514 
   4268000   0.047754163   -0.31400571     0             -0.27599639     0.004725172  
   4269000   0.051634179   -0.31367654     0             -0.27257896    -0.0029250624 
   4270000   0.050712718   -0.31452746     0             -0.27416331    -0.0078739236 
   4271000   0.050916475   -0.30157171     0             -0.26104538    -0.00082872694
   4272000   0.053537248   -0.31468278     0             -0.27207048     0.00019940099
   4273000   0.050821252   -0.31453335     0             -0.27408281     0.0015109811 
   4274000   0.050091143   -0.31324382     0             -0.2733744      0.007273035  
   4275000   0.051220042   -0.31415162     0             -0.27338367     0.00058570343
   4276000   0.050513548   -0.31523084     0             -0.27502522     0.0073595013 
   4277000   0.05363303    -0.31383335     0             -0.27114481     0.00218419   
   4278000   0.049436276   -0.31501936     0             -0.27567118    -0.0018023079 
   4279000   0.052478685   -0.31459154     0             -0.27282178    -0.0012036161 
   4280000   0.049085759   -0.31421765     0             -0.27514845     0.0076738105 
   4281000   0.05139568    -0.31404356     0             -0.27313581     0.0040040398 
   4282000   0.051499414   -0.31331032     0             -0.27232       -0.009283241  
   4283000   0.05034479    -0.3083911      0             -0.26831979    -0.0059755666 
   4284000   0.050854455   -0.31390304     0             -0.27342607    -0.00011044345
   4285000   0.048083154   -0.31483612     0             -0.27656494     0.005518587  
   4286000   0.05129476    -0.31485348     0             -0.27402606    -0.0046928247 
   4287000   0.051438507   -0.3137332      0             -0.27279136     3.5302267e-05
   4288000   0.051912698   -0.30922271     0             -0.26790345    -0.0071531433 
   4289000   0.051120196   -0.3144419      0             -0.27375342     0.00076155558
   4290000   0.047631342   -0.31418017     0             -0.2762686     -0.0033140119 
   4291000   0.049444593   -0.30746765     0             -0.26811284    -0.0047577643 
   4292000   0.050387723   -0.31348312     0             -0.27337764    -0.003982455  
   4293000   0.04921825    -0.31507495     0             -0.2759003     -0.0037246037 
   4294000   0.049032813   -0.30543086     0             -0.2664038      0.00029137995
   4295000   0.050660073   -0.31452333     0             -0.27420107    -0.00092683304
   4296000   0.0497368     -0.31460285     0             -0.27501547    -3.9604266e-06
   4297000   0.049699983   -0.310753       0             -0.27119492     0.00054945458
   4298000   0.048634727   -0.31461217     0             -0.27590197     0.0025698841 
   4299000   0.051906829   -0.3152613      0             -0.27394671     0.006347811  
   4300000   0.050957725   -0.31540557     0             -0.2748464     -0.0079301336 
   4301000   0.049238116   -0.31528819     0             -0.27609772    -0.0002549008 
   4302000   0.050845001   -0.31515038     0             -0.27468094     0.00015725729
   4303000   0.050231933   -0.31543872     0             -0.27545724    -0.003584131  
   4304000   0.05079407    -0.31044757     0             -0.27001866    -0.00064819067
   4305000   0.050610118   -0.31642967     0             -0.27614718    -0.0028955057 
   4306000   0.050472942   -0.31640955     0             -0.27623624     0.0082288418 
   4307000   0.049925726   -0.31634356     0             -0.2766058     -0.0017763735 
   4308000   0.050073496   -0.31574836     0             -0.27589299    -0.0069389237 
   4309000   0.05014264    -0.31484296     0             -0.27493255     0.00075167694
   4310000   0.048608374   -0.31593632     0             -0.2772471     -0.0044504173 
   4311000   0.047703817   -0.31120618     0             -0.27323692     0.00010882497
   4312000   0.051757716   -0.31671826     0             -0.27552235     0.0052681534 
   4313000   0.051461716   -0.3110356      0             -0.27007529    -0.004548772  
   4314000   0.050995685   -0.31658623     0             -0.27599685    -0.0015734208 
   4315000   0.050130563   -0.31680412     0             -0.27690333     0.0036641221 
   4316000   0.052017637   -0.30980911     0             -0.26840632     0.0061934909 
   4317000   0.048554759   -0.30521916     0             -0.26657261     0.0024376298 
   4318000   0.046382581   -0.31748701     0             -0.28056937     0.0015163044 
   4319000   0.04867163    -0.3151003      0             -0.27636073    -0.010075122  
   4320000   0.052277877   -0.31678353     0             -0.27517361    -0.010602461  
   4321000   0.050883732   -0.31584352     0             -0.27534325     0.0008703348 
   4322000   0.049696403   -0.30859066     0             -0.26903543    -0.0015668341 
   4323000   0.050943709   -0.31636423     0             -0.27581622     0.00032236515
   4324000   0.048344859   -0.3145012      0             -0.27602171     9.7625275e-05
   4325000   0.049779696   -0.31529519     0             -0.27567366     0.00030071674
   4326000   0.049590193   -0.29202594     0             -0.25255524     0.01072787   
   4327000   0.050849793   -0.31626014     0             -0.27578688    -0.0059561392 
   4328000   0.051413444   -0.31610401     0             -0.27518212    -0.0014635437 
   4329000   0.049307073   -0.31037435     0             -0.271129      -0.0056307306 
   4330000   0.047353491   -0.31679967     0             -0.27910925    -0.0020717462 
   4331000   0.049884061   -0.31593984     0             -0.27623525    -0.00097153494
   4332000   0.048793675   -0.30623894     0             -0.26740222     0.0022551546 
   4333000   0.0478351     -0.31539876     0             -0.27732501    -0.0072442778 
   4334000   0.047766783   -0.31622301     0             -0.27820364    -0.00055566735
   4335000   0.048494778   -0.31524973     0             -0.27665092    -0.0025953195 
   4336000   0.048916349   -0.31795828     0             -0.27902392    -0.0035349906 
   4337000   0.049613607   -0.31786311     0             -0.27837378    -0.00028734152
   4338000   0.048807633   -0.30479831     0             -0.26595049    -0.0017335863 
   4339000   0.050517019   -0.31657408     0             -0.27636569    -0.0036667381 
   4340000   0.048681082   -0.317408       0             -0.2786609      0.0026869566 
   4341000   0.050765825   -0.31685807     0             -0.27645165     0.0096006971 
   4342000   0.050930499   -0.31791691     0             -0.27737942     0.001483283  
   4343000   0.049818499   -0.31668796     0             -0.27703555     0.00090308348
   4344000   0.052035586   -0.31533795     0             -0.27392087     0.0021366073 
   4345000   0.049061784   -0.31739978     0             -0.27834966     0.0070215146 
   4346000   0.050428484   -0.31808746     0             -0.27794954     0.00056299574
   4347000   0.049499254   -0.31776887     0             -0.27837055    -0.0041928181 
   4348000   0.049738293   -0.31216545     0             -0.27257688    -0.0036734473 
   4349000   0.051550796   -0.31787783     0             -0.27684661    -0.0021373153 
   4350000   0.049199986   -0.31730683     0             -0.27814672    -0.0029662127 
   4351000   0.052093121   -0.31750066     0             -0.27603779     0.001159376  
   4352000   0.05068217    -0.31704981     0             -0.27670997    -0.00043545368
   4353000   0.04982482    -0.31800555     0             -0.2783481     -0.0014412827 
   4354000   0.049028934   -0.3171828      0             -0.27815884    -0.0032418699 
   4355000   0.050648475   -0.31719538     0             -0.27688236     0.0037623101 
   4356000   0.050709207   -0.31734481     0             -0.27698345     0.011202868  
   4357000   0.050046382   -0.31730442     0             -0.27747063     0.0026090573 
   4358000   0.048292184   -0.31719943     0             -0.27876187    -0.0018957928 
   4359000   0.051078413   -0.29901206     0             -0.25835683     0.01361767   
   4360000   0.049380531   -0.31813625     0             -0.27883244    -0.0011527786 
   4361000   0.05169286    -0.31865744     0             -0.27751315    -0.0016438898 
   4362000   0.051656987   -0.31813851     0             -0.27702278     0.0050166446 
   4363000   0.049060934   -0.31427723     0             -0.27522779    -0.0055953171 
   4364000   0.052486342   -0.31830032     0             -0.27652447    -0.0019165333 
   4365000   0.050532017   -0.31726362     0             -0.2770433     -0.0078330024 
   4366000   0.048123532   -0.31811887     0             -0.27981555     0.0026684834 
   4367000   0.050754196   -0.31134345     0             -0.27094628    -9.6496099e-05
   4368000   0.049097897   -0.30985132     0             -0.27077247     0.0034930386 
   4369000   0.049880979   -0.31641228     0             -0.27671014     0.0090042224 
   4370000   0.049976264   -0.3184442      0             -0.27866622     0.003140361  
   4371000   0.050957293   -0.31267486     0             -0.27211604     0.0025857081 
   4372000   0.04948494    -0.31106737     0             -0.27168046     0.0022941061 
   4373000   0.049760535   -0.31749877     0             -0.27789249     0.0051097322 
   4374000   0.048596216   -0.31806424     0             -0.27938469     0.0040795595 
   4375000   0.051070277   -0.31769514     0             -0.27704639     0.0077643624 
   4376000   0.04918362    -0.31785671     0             -0.27870962     0.0040578015 
   4377000   0.048452308   -0.31159786     0             -0.27303285     0.0013299221 
   4378000   0.05015003    -0.31012395     0             -0.27020766     0.0033038194 
   4379000   0.051795086   -0.31789287     0             -0.27666722    -0.0019540964 
   4380000   0.047388595   -0.31789661     0             -0.28017825     0.0061048608 
   4381000   0.047744917   -0.31730583     0             -0.27930386     0.0056742808 
   4382000   0.049844282   -0.31724797     0             -0.27757504    -0.0027019468 
   4383000   0.050109098   -0.31780577     0             -0.27792206     0.0046377414 
   4384000   0.051377816   -0.30589554     0             -0.26500201    -0.0055224363 
   4385000   0.051494459   -0.3171894      0             -0.27620303    -0.0030230319 
   4386000   0.050156995   -0.31829105     0             -0.27836922     0.0052214318 
   4387000   0.04891929    -0.31812121     0             -0.27918451     0.0030415515 
   4388000   0.04936028    -0.31404002     0             -0.27475233    -0.00078184454
   4389000   0.046216736   -0.31642853     0             -0.2796429     -0.00042673314
   4390000   0.049695293   -0.31743343     0             -0.27787909    -0.0011352033 
   4391000   0.0499329     -0.31485063     0             -0.27510717    -2.9688467e-06
   4392000   0.050926845   -0.30941844     0             -0.26888386     0.0025772031 
   4393000   0.048329142   -0.3168683      0             -0.27840132     0.0053018445 
   4394000   0.051194214   -0.31649594     0             -0.27574855    -0.0011395243 
   4395000   0.050182765   -0.31641344     0             -0.2764711      0.0040657254 
   4396000   0.052801905   -0.31515316     0             -0.27312614     0.0049235879 
   4397000   0.050056879   -0.31645314     0             -0.27661099     0.00058365105
   4398000   0.048057142   -0.30725316     0             -0.26900268    -0.00025088786
   4399000   0.049054942   -0.31584117     0             -0.27679651    -0.010400266  
   4400000   0.05019879    -0.31547461     0             -0.27551951     0.00089525653
   4401000   0.048642823   -0.31534071     0             -0.27662406     0.007769209  
   4402000   0.051462948   -0.30355599     0             -0.2625947     -0.0013102619 
   4403000   0.049640958   -0.31508126     0             -0.27557016     0.00022666141
   4404000   0.049687103   -0.31416796     0             -0.27462013    -0.0023851923 
   4405000   0.052034564   -0.31649438     0             -0.27507812     0.0043674234 
   4406000   0.053161828   -0.31561393     0             -0.27330043    -0.00010119996
   4407000   0.050076387   -0.31491963     0             -0.27506196     0.0078627424 
   4408000   0.047652991   -0.31505459     0             -0.27712579    -0.0011806012 
   4409000   0.053148338   -0.31495486     0             -0.27265211     0.0023360368 
   4410000   0.050018544   -0.31602277     0             -0.27621114     0.0060610561 
   4411000   0.049745596   -0.31468244     0             -0.27508806     0.0024466092 
   4412000   0.048492097   -0.314795       0             -0.27619832    -0.00025889636
   4413000   0.049716476   -0.31567965     0             -0.27610844     0.00043255424
   4414000   0.048425109   -0.30389274     0             -0.26534938     0.00061270065
   4415000   0.050490623   -0.31667882     0             -0.27649144    -0.00090507914
   4416000   0.050655678   -0.31469061     0             -0.27437186    -0.0039406087 
   4417000   0.050262835   -0.31434649     0             -0.27434042    -0.0014747128 
   4418000   0.050186213   -0.31559307     0             -0.27564798    -0.00079814881
   4419000   0.050221052   -0.3161909      0             -0.27621808    -0.00035474549
   4420000   0.047930556   -0.31601687     0             -0.27786714    -0.0044029262 
   4421000   0.050306783   -0.31660463     0             -0.27656358     0.0021262361 
   4422000   0.049042313   -0.31522181     0             -0.27618719    -0.0007658316 
   4423000   0.049184523   -0.31577213     0             -0.27662433    -0.0071018571 
   4424000   0.050257845   -0.31653897     0             -0.27653686    -0.0026188993 
   4425000   0.046760275   -0.31649408     0             -0.27927582    -0.0028903547 
   4426000   0.049500774   -0.31684526     0             -0.27744574    -0.0032601731 
   4427000   0.050978434   -0.31634888     0             -0.27577323    -0.0001241499 
   4428000   0.047972723   -0.31694459     0             -0.2787613     -0.00023128016
   4429000   0.049028232   -0.31705388     0             -0.27803048     0.00031983298
   4430000   0.050458583   -0.31720564     0             -0.27704376     0.0060782808 
   4431000   0.049280642   -0.31763737     0             -0.27841306    -0.004504026  
   4432000   0.04962759    -0.31678856     0             -0.2772881      0.0041306071 
   4433000   0.050968491   -0.31032484     0             -0.26975711     0.0014367344 
   4434000   0.04826081    -0.31114752     0             -0.27273494     0.0067287918 
   4435000   0.050775575   -0.31746401     0             -0.27704982     2.6459084e-05
   4436000   0.051745166   -0.31567398     0             -0.27448806    -0.00027830319
   4437000   0.049850416   -0.3156072      0             -0.27592939    -0.002067299  
   4438000   0.049865938   -0.3162944      0             -0.27660423     0.0066489797 
   4439000   0.053139795   -0.31729429     0             -0.27499833    -0.0057660494 
   4440000   0.047842826   -0.31757033     0             -0.27949043     0.0027268968 
   4441000   0.047959962   -0.31491489     0             -0.27674175     0.0036440019 
   4442000   0.052363689   -0.31721297     0             -0.27553475     0.0042215389 
   4443000   0.048815632   -0.31103798     0             -0.27218378    -0.0028685035 
   4444000   0.051276922   -0.31634432     0             -0.2755311      0.0016542239 
   4445000   0.048866084   -0.3173003      0             -0.27840595    -0.0048583811 
   4446000   0.048669388   -0.31575214     0             -0.27701435     0.0015905004 
   4447000   0.049207236   -0.31658198     0             -0.27741609     0.0052358154 
   4448000   0.049941972   -0.31801168     0             -0.27826099     0.002896899  
   4449000   0.048421116   -0.31678369     0             -0.27824351     0.0013565644 
   4450000   0.049727181   -0.31666352     0             -0.2770838     -0.0019623059 
   4451000   0.050456206   -0.31730105     0             -0.27714107     0.0046926014 
   4452000   0.048911479   -0.31649113     0             -0.27756065    -0.0029783861 
   4453000   0.051545463   -0.31628149     0             -0.27525452    -0.00065119656
   4454000   0.049361234   -0.31656867     0             -0.27728021    -0.002300099  
   4455000   0.046665823   -0.31475886     0             -0.27761578    -0.0067772017 
   4456000   0.050379103   -0.31548821     0             -0.27538959     0.0038011446 
   4457000   0.048443533   -0.31693753     0             -0.27837951    -0.00028476888
   4458000   0.048839663   -0.31244555     0             -0.27357224    -0.011630173  
   4459000   0.04881759    -0.31596371     0             -0.27710796    -0.002197052  
   4460000   0.050265881   -0.31574317     0             -0.27573467    -0.004687062  
   4461000   0.049811791   -0.31630242     0             -0.27665535    -0.0030192879 
   4462000   0.051593328   -0.31618979     0             -0.27512473    -0.0051833048 
   4463000   0.050292815   -0.31634477     0             -0.27631483    -0.0047753527 
   4464000   0.049468492   -0.3147724      0             -0.27539858     0.0052556974 
   4465000   0.050294516   -0.31495879     0             -0.2749275      0.0039014007 
   4466000   0.050134509   -0.31489202     0             -0.27498808    -0.0029512745 
   4467000   0.0479832     -0.31428299     0             -0.27609137     0.004737942  
   4468000   0.049306778   -0.3140307      0             -0.27478558    -0.001640437  
   4469000   0.051509356   -0.31443311     0             -0.27343489    -0.0078797126 
   4470000   0.05178639    -0.31580213     0             -0.2745834     -0.008959962  
   4471000   0.049020666   -0.31402554     0             -0.27500815    -0.00029544162
   4472000   0.05185454    -0.31515718     0             -0.2738842     -0.0050381183 
   4473000   0.049273412   -0.31534372     0             -0.27612516     0.0073215079 
   4474000   0.051535925   -0.31531453     0             -0.27429515    -0.0021817523 
   4475000   0.04995221    -0.31474333     0             -0.27498449     0.00071135876
   4476000   0.051372732   -0.30866272     0             -0.26777324     0.00063963109
   4477000   0.049781861   -0.31557056     0             -0.27594731    -0.0045120966 
   4478000   0.049799435   -0.31430298     0             -0.27466574    -0.00088552812
   4479000   0.04735116    -0.31602224     0             -0.27833367     0.00082428336
   4480000   0.052211512   -0.30830103     0             -0.26674393     0.0014423196 
   4481000   0.048081396   -0.31639319     0             -0.27812341    -0.0029834925 
   4482000   0.048745379   -0.31587619     0             -0.27707792    -0.0092861539 
   4483000   0.049032134   -0.31563344     0             -0.27660693    -0.0044229182 
   4484000   0.05016372    -0.31626818     0             -0.27634099    -0.0028677191 
   4485000   0.049643764   -0.31519567     0             -0.27568234    -0.00023352322
   4486000   0.049861645   -0.3152302      0             -0.27554345     0.0064605463 
   4487000   0.050618706   -0.31468249     0             -0.27439316     0.004426513  
   4488000   0.050271353   -0.31588792     0             -0.27587506     0.0092354732 
   4489000   0.05198432    -0.31315166     0             -0.27177539     0.009986292  
   4490000   0.047945464   -0.31546069     0             -0.2772991      0.0029711893 
   4491000   0.049013289   -0.31422362     0             -0.2752121      0.0065821864 
   4492000   0.04968412    -0.31613754     0             -0.27659209     0.0017941435 
   4493000   0.051217429   -0.31560383     0             -0.27483795     0.0025754433 
   4494000   0.048490334   -0.31577351     0             -0.27717823    -0.0037484664 
   4495000   0.050408164   -0.31515429     0             -0.27503254    -0.0023726501 
   4496000   0.05126788    -0.30915974     0             -0.26835372     0.007656032  
   4497000   0.051423712   -0.31517616     0             -0.2742461      0.00079111307
   4498000   0.05014956    -0.31624531     0             -0.27632939     0.0006127274 
   4499000   0.051116451   -0.31590663     0             -0.27522113    -0.0025301283 
   4500000   0.051673568   -0.3138991      0             -0.27277017    -0.0031695064 
   4501000   0.05139187    -0.31588531     0             -0.27498059     0.0061233094 
   4502000   0.051708568   -0.31568857     0             -0.27453178    -0.0067098286 
   4503000   0.049056104   -0.31270806     0             -0.27366247    -0.0012703286 
   4504000   0.051896147   -0.3149759      0             -0.27366981     0.0042594313 
   4505000   0.049023377   -0.31432516     0             -0.27530562    -0.0023071049 
   4506000   0.051426034   -0.31422793     0             -0.27329602     0.0049600409 
   4507000   0.048808226   -0.3131993      0             -0.274351       0.0078978499 
   4508000   0.048760804   -0.31460446     0             -0.27579391    -0.0037192792 
   4509000   0.049521732   -0.31329475     0             -0.27387854     0.0028122133 
   4510000   0.051387673   -0.31574007     0             -0.27483869     0.0069682145 
   4511000   0.049750289   -0.31464121     0             -0.27504309     0.0017004221 
   4512000   0.047679703   -0.3144065      0             -0.27645644     0.0037840848 
   4513000   0.052492191   -0.31433586     0             -0.27255536     0.00055334371
   4514000   0.049856886   -0.31534968     0             -0.27566671    -0.0029493651 
   4515000   0.047931732   -0.31414888     0             -0.27599821     0.0041390061 
   4516000   0.049978235   -0.31609428     0             -0.27631472    -0.00024948069
   4517000   0.051997509   -0.31500188     0             -0.27361511    -0.0014594734 
   4518000   0.049314231   -0.31532984     0             -0.27607879    -0.0020947598 
   4519000   0.051142882   -0.31563138     0             -0.27492484    -0.00074655808
   4520000   0.049757017   -0.31469605     0             -0.27509258     0.0084692609 
   4521000   0.051670682   -0.31531182     0             -0.27418519     0.0019729763 
   4522000   0.048723699   -0.31532338     0             -0.27654236    -0.0020197011 
   4523000   0.050362379   -0.31358282     0             -0.27349752    -0.005540192  
   4524000   0.04926924    -0.315308       0             -0.27609276     0.00072548385
   4525000   0.048290951   -0.31298164     0             -0.27454506     0.00050227826
   4526000   0.047475217   -0.31349626     0             -0.27570895    -0.0026211138 
   4527000   0.05014717    -0.3149606      0             -0.27504659     0.0019397883 
   4528000   0.050827508   -0.31199359     0             -0.27153807     0.0028046753 
   4529000   0.049961906   -0.31487793     0             -0.27511138     0.010748615  
   4530000   0.049782797   -0.31458949     0             -0.2749655      0.0024952562 
   4531000   0.048719582   -0.3137629      0             -0.27498516    -0.0034662499 
   4532000   0.049026726   -0.31481954     0             -0.27579733     0.0058881182 
   4533000   0.049788578   -0.3145324      0             -0.2749038     -0.0027108274 
   4534000   0.050777673   -0.31328624     0             -0.27287039    -0.0026323339 
   4535000   0.053985406   -0.30850493     0             -0.26553593    -0.0017237799 
   4536000   0.049473302   -0.31494319     0             -0.27556553     0.0024690213 
   4537000   0.050480452   -0.31439677     0             -0.27421748    -0.0071966479 
   4538000   0.049965845   -0.31331379     0             -0.2735441      0.005117345  
   4539000   0.05107898    -0.31165387     0             -0.27099819     0.0027733127 
   4540000   0.048281847   -0.31511303     0             -0.27668369    -0.0048617046 
   4541000   0.050533402   -0.31509593     0             -0.27487451    -0.0045664792 
   4542000   0.05430612    -0.31608564     0             -0.27286136     0.0061599389 
   4543000   0.052635918   -0.31384666     0             -0.27195176    -0.0018820471 
   4544000   0.052434762   -0.31343629     0             -0.27170149    -0.0001428056 
   4545000   0.04892682    -0.30684496     0             -0.26790227    -0.0010230544 
   4546000   0.05276306    -0.31219245     0             -0.27019635    -0.0030001298 
   4547000   0.050729802   -0.3134442      0             -0.27306645    -0.00080783764
   4548000   0.051120688   -0.3123059      0             -0.27161702    -0.0053389873 
   4549000   0.04767824    -0.3141538      0             -0.27620491     0.0031463497 
   4550000   0.050293255   -0.31285804     0             -0.27282776     0.0040302462 
   4551000   0.052165867   -0.31356077     0             -0.27204        0.00050072799
   4552000   0.052394217   -0.31222247     0             -0.27051995     0.00069932511
   4553000   0.047627664   -0.31247208     0             -0.27456343     0.0010199367 
   4554000   0.051800825   -0.31301931     0             -0.27178909    -0.0021342322 
   4555000   0.053435692   -0.31214326     0             -0.26961179    -0.0062837556 
   4556000   0.050352319   -0.31128516     0             -0.27120786     0.0045028951 
   4557000   0.049164996   -0.31276984     0             -0.27363757    -0.0065809738 
   4558000   0.049275867   -0.31304782     0             -0.27382731    -0.00035884593
   4559000   0.049988214   -0.31171645     0             -0.27192895    -0.00046079902
   4560000   0.051456796   -0.31130715     0             -0.27035076     0.0011891748 
   4561000   0.047633979   -0.31136084     0             -0.27344717     0.0039312795 
   4562000   0.051972375   -0.30691684     0             -0.26555007     0.004204953  
   4563000   0.052727675   -0.31057987     0             -0.26861194    -0.00099584322
   4564000   0.049988042   -0.30994189     0             -0.27015453    -0.0018182235 
   4565000   0.049475837   -0.3105585      0             -0.27117882    -0.0073659244 
   4566000   0.051114691   -0.30561068     0             -0.26492658    -0.0033587773 
   4567000   0.049508829   -0.30959614     0             -0.2701902     -0.0053680908 
   4568000   0.050265202   -0.31092184     0             -0.27091388    -0.00270535   
   4569000   0.050924248   -0.30942848     0             -0.26889596    -0.00044362227
   4570000   0.047820791   -0.31248166     0             -0.27441929     0.00062924042
   4571000   0.049981105   -0.31240284     0             -0.27262101     0.013851964  
   4572000   0.047966871   -0.31329205     0             -0.27511342    -0.0019978324 
   4573000   0.0493962     -0.29868573     0             -0.25936944    -0.0027522195 
   4574000   0.048261403   -0.31165638     0             -0.27324332    -0.0028130529 
   4575000   0.051103796   -0.31244452     0             -0.27176909     0.00045274416
   4576000   0.051161533   -0.31289718     0             -0.2721758      0.00089871869
   4577000   0.051166351   -0.31233949     0             -0.27161427     0.0050794164 
   4578000   0.048221652   -0.31185491     0             -0.27347348     0.0031888117 
   4579000   0.052441567   -0.31182263     0             -0.27008242    -0.0026356012 
   4580000   0.051729201   -0.31067703     0             -0.26950382    -0.0016360948 
   4581000   0.048694776   -0.31202566     0             -0.27326766    -0.00055160881
   4582000   0.049777265   -0.31247569     0             -0.2728561     -0.0057554295 
   4583000   0.049306302   -0.31266287     0             -0.27341814    -0.0011933726 
   4584000   0.047615068   -0.31309154     0             -0.27519293     0.00025306458
   4585000   0.049607685   -0.3132223      0             -0.27373768     0.0036925725 
   4586000   0.050873705   -0.31276191     0             -0.27226962    -0.0026350542 
   4587000   0.051185558   -0.31181763     0             -0.27107712     0.0058933339 
   4588000   0.049862386   -0.31180432     0             -0.27211698    -0.00036850946
   4589000   0.05250443    -0.31243361     0             -0.27064337    -0.004389796  
   4590000   0.051847707   -0.31247221     0             -0.27120468    -0.0028138054 
   4591000   0.04723944    -0.31320588     0             -0.27560624    -0.0047629571 
   4592000   0.050422671   -0.31306579     0             -0.2729325     -0.0051736913 
   4593000   0.048553408   -0.31303261     0             -0.27438714    -0.0032758471 
   4594000   0.051869254   -0.31366564     0             -0.27238096    -0.0075312271 
   4595000   0.055441342   -0.31391638     0             -0.26978853     0.0015006747 
   4596000   0.051137804   -0.31309562     0             -0.27239312    -0.0040090482 
   4597000   0.051149616   -0.31295769     0             -0.27224579    -0.0063270491 
   4598000   0.050868613   -0.31361467     0             -0.27312644    -0.0045872165 
   4599000   0.051521499   -0.31138133     0             -0.27037344    -0.0037443772 
   4600000   0.049583118   -0.31257962     0             -0.27311456    -0.0038127566 
   4601000   0.051136979   -0.31221995     0             -0.27151811    -0.0035796657 
   4602000   0.048271462   -0.31220141     0             -0.27378034    -2.5029545e-05
   4603000   0.049621138   -0.31199055     0             -0.27249522    -0.0010672662 
   4604000   0.049429      -0.31218199     0             -0.27283959    -0.00093293203
   4605000   0.049137872   -0.31166008     0             -0.2725494     -0.0034234793 
   4606000   0.049266709   -0.30777008     0             -0.26855686     0.0088911321 
   4607000   0.050651016   -0.3058294      0             -0.26551436    -0.0061093523 
   4608000   0.049838046   -0.31173167     0             -0.2720637     -0.0019334192 
   4609000   0.048916375   -0.31121211     0             -0.27227773     0.005804832  
   4610000   0.050584169   -0.31070318     0             -0.27044135    -0.0030411074 
   4611000   0.050077884   -0.31098765     0             -0.27112879    -0.0014721892 
   4612000   0.047636711   -0.31132953     0             -0.27341368     0.0031501317 
   4613000   0.049869141   -0.31150834     0             -0.27181562     0.0022502802 
   4614000   0.052911333   -0.31311404     0             -0.27099993     0.0021460111 
   4615000   0.049683386   -0.31154095     0             -0.27199608     0.0083706923 
   4616000   0.049434328   -0.31121432     0             -0.27186768    -0.0044207508 
   4617000   0.05180806    -0.3090736      0             -0.26783762     0.006542858  
   4618000   0.049229532   -0.31043012     0             -0.27124649     0.0055110833 
   4619000   0.048703186   -0.3106861      0             -0.27192141    -0.0086661014 
   4620000   0.051210732   -0.31052428     0             -0.26976374     0.0029984562 
   4621000   0.051784863   -0.31216301     0             -0.2709455     -0.0079749112 
   4622000   0.05094026    -0.30404484     0             -0.26349958     0.0041414436 
   4623000   0.050745721   -0.3102753      0             -0.26988488     0.00068643812
   4624000   0.047634891   -0.31034565     0             -0.27243125    -0.009538877  
   4625000   0.048870984   -0.31133402     0             -0.27243577     0.0047058797 
   4626000   0.048146253   -0.31044601     0             -0.27212461     0.0012399353 
   4627000   0.050784023   -0.31091637     0             -0.27049546    -0.0027173844 
   4628000   0.051176281   -0.31025858     0             -0.26952546     0.0078712911 
   4629000   0.050989564   -0.30749189     0             -0.26690738    -0.0048646603 
   4630000   0.049499499   -0.30962055     0             -0.27022205    -0.0044872424 
   4631000   0.049788909   -0.31040079     0             -0.27077193     0.0057560452 
   4632000   0.050552317   -0.30913565     0             -0.26889916    -0.0075186616 
   4633000   0.04993283    -0.30883115     0             -0.26908773     0.0019514647 
   4634000   0.047910022   -0.30858055     0             -0.27044716    -0.0011365356 
   4635000   0.048377911   -0.30761661     0             -0.26911082     0.0095117477 
   4636000   0.049480065   -0.3084473      0             -0.26906426    -0.0038279701 
   4637000   0.047853      -0.30803746     0             -0.26994947     0.0025436109 
   4638000   0.05196173    -0.3090893      0             -0.26773101     0.0070660828 
   4639000   0.052236555   -0.30853127     0             -0.26695423    -0.0012048372 
   4640000   0.049029765   -0.30930332     0             -0.2702787      0.0044507807 
   4641000   0.048345597   -0.30223608     0             -0.263756       0.0049149756 
   4642000   0.050142387   -0.31072448     0             -0.27081427     0.006409329  
   4643000   0.049052728   -0.31084116     0             -0.27179825    -6.7416985e-05
   4644000   0.049947049   -0.30983846     0             -0.27008373    -0.0054821299 
   4645000   0.04883789    -0.31015872     0             -0.27128681    -0.0051815903 
   4646000   0.047617382   -0.30744453     0             -0.26954407    -0.00067409498
   4647000   0.051452272   -0.30850831     0             -0.26755552    -0.0023838027 
   4648000   0.050472832   -0.30846824     0             -0.26829502     0.0019632897 
   4649000   0.052568226   -0.30854493     0             -0.2667039      0.0020931603 
   4650000   0.046986169   -0.30921684     0             -0.27181879     0.00050729909
   4651000   0.049058808   -0.30868289     0             -0.26963515     0.0064184622 
   4652000   0.050386299   -0.30966642     0             -0.26956207     0.00702396   
   4653000   0.049455766   -0.30950278     0             -0.27013908     2.7886585e-05
   4654000   0.049357303   -0.31025327     0             -0.27096794    -0.0058802282 
   4655000   0.049009913   -0.30988015     0             -0.27087132    -0.0026880847 
   4656000   0.050411984   -0.30961573     0             -0.26949094    -0.0027317863 
   4657000   0.04981854    -0.31003096     0             -0.27037851     0.0035945932 
   4658000   0.051286403   -0.30900461     0             -0.26818384    -0.0010235777 
   4659000   0.046465347   -0.30800497     0             -0.27102146     0.0044286603 
   4660000   0.052548441   -0.30987442     0             -0.26804914    -0.0035783688 
   4661000   0.050606868   -0.3082923      0             -0.26801239    -0.0059813924 
   4662000   0.049571889   -0.30801912     0             -0.26856299     0.0027116386 
   4663000   0.051756972   -0.30811314     0             -0.26691783     0.0073278811 
   4664000   0.049370198   -0.30896319     0             -0.26966759     0.0024334672 
   4665000   0.052511793   -0.30976953     0             -0.26797342     0.0075905706 
   4666000   0.048641836   -0.30881414     0             -0.27009828    -0.0018481447 
   4667000   0.050044667   -0.3090965      0             -0.26926408    -0.0028417275 
   4668000   0.05145787    -0.30455836     0             -0.26360111    -0.0004144258 
   4669000   0.050131498   -0.30982735     0             -0.26992581    -0.0002360236 
   4670000   0.049638572   -0.31073797     0             -0.27122877    -0.0011565859 
   4671000   0.052441191   -0.30947023     0             -0.26773032     0.0027316071 
   4672000   0.050997506   -0.30890364     0             -0.26831281    -0.00063163919
   4673000   0.050203585   -0.30912098     0             -0.26916207     0.0018655736 
   4674000   0.049518599   -0.30938655     0             -0.26997284     0.0043230169 
   4675000   0.049319314   -0.30971611     0             -0.27046102     0.0034132497 
   4676000   0.048528104   -0.30944911     0             -0.27082377    -0.0017790809 
   4677000   0.050213756   -0.30260391     0             -0.2626369     -0.002449089  
   4678000   0.048428242   -0.30295083     0             -0.26440497     0.0020335837 
   4679000   0.051818852   -0.30869364     0             -0.26744907    -0.0016456755 
   4680000   0.050468579   -0.3095933      0             -0.26942346    -0.0024469861 
   4681000   0.052639902   -0.30975587     0             -0.2678578      0.0029948282 
   4682000   0.04986057    -0.30999963     0             -0.27031373    -0.0023528754 
   4683000   0.051120011   -0.30881697     0             -0.26812863     0.0052264416 
   4684000   0.05042754    -0.30952823     0             -0.26939106     0.00085084551
   4685000   0.051073688   -0.31046483     0             -0.26981336    -0.0030522115 
   4686000   0.048931986   -0.30986508     0             -0.27091828    -0.0095869162 
   4687000   0.050384838   -0.31006184     0             -0.26995866     0.0010632508 
   4688000   0.048300416   -0.31012359     0             -0.27167948     0.0005506752 
   4689000   0.05076626    -0.30383999     0             -0.26343322     0.0043359535 
   4690000   0.052154629   -0.30937125     0             -0.26785943    -0.0039186813 
   4691000   0.051574984   -0.30973241     0             -0.26868195    -0.0014976415 
   4692000   0.04967128    -0.31069416     0             -0.27115892    -0.0012259557 
   4693000   0.051754969   -0.3105655      0             -0.26937178     0.0043033283 
   4694000   0.051259157   -0.31078315     0             -0.26998406    -0.00087952023
   4695000   0.051152125   -0.30980351     0             -0.26908961    -0.00051336419
   4696000   0.049440538   -0.30864173     0             -0.26929015    -0.007709278  
   4697000   0.048686064   -0.30993254     0             -0.27118148    -0.0057863966 
   4698000   0.047584599   -0.3017394      0             -0.26386503    -0.0013383805 
   4699000   0.050816843   -0.30964514     0             -0.26919811    -0.0024472179 
   4700000   0.052622708   -0.30844166     0             -0.26655727     0.0078955996 
   4701000   0.052587468   -0.30908955     0             -0.26723321    -0.0035873692 
   4702000   0.050151841   -0.31012949     0             -0.27021176    -0.0013528586 
   4703000   0.049991537   -0.31022955     0             -0.27043941     0.0037547257 
   4704000   0.04995327    -0.30496229     0             -0.26520261     0.0013542102 
   4705000   0.050000652   -0.30920673     0             -0.26940934     0.0013279164 
   4706000   0.051674537   -0.308741       0             -0.26761129     0.00078147027
   4707000   0.051202216   -0.31019134     0             -0.26943757    -0.0022810541 
   4708000   0.051214248   -0.31046574     0             -0.2697024      0.00085948149
   4709000   0.050862383   -0.30818074     0             -0.26769746    -0.0053879587 
   4710000   0.050427852   -0.30371141     0             -0.26357399     0.00041134224
   4711000   0.047234605   -0.31001712     0             -0.27242133     0.0079863488 
   4712000   0.050471768   -0.30906242     0             -0.26889005    -0.0055798175 
   4713000   0.048916716   -0.30812615     0             -0.2691915     -0.0033829946 
   4714000   0.049058513   -0.30785988     0             -0.26881237     0.0023703583 
   4715000   0.051055312   -0.30797821     0             -0.26734137     0.0083071261 
   4716000   0.049438798   -0.30843326     0             -0.26908306    -0.0015861635 
   4717000   0.049054361   -0.29714769     0             -0.25810348    -0.00093743463
   4718000   0.049946042   -0.30825692     0             -0.26850299     0.0043608111 
   4719000   0.046501599   -0.30781848     0             -0.27080612    -0.001083388  
   4720000   0.050670535   -0.30847576     0             -0.26814518    -0.0040266622 
   4721000   0.04934401    -0.30952642     0             -0.27025167    -0.0060835718 
   4722000   0.048461369   -0.3081265      0             -0.26955428    -0.0048761176 
   4723000   0.050911707   -0.30862054     0             -0.268098       0.0025164905 
   4724000   0.05042967    -0.30948805     0             -0.26934919    -0.0025174174 
   4725000   0.050291649   -0.30852494     0             -0.26849593    -0.0003189079 
   4726000   0.049826726   -0.31017742     0             -0.27051846     0.002466567  
   4727000   0.050948805   -0.30900722     0             -0.26845516     0.004588962  
   4728000   0.051205915   -0.30983749     0             -0.26908079     1.2697695e-05
   4729000   0.049245039   -0.30934833     0             -0.27015236     0.00012330079
   4730000   0.051714962   -0.30375114     0             -0.26258926     0.0048777807 
   4731000   0.048317302   -0.30851101     0             -0.27005346     0.0015760601 
   4732000   0.050176279   -0.31021636     0             -0.27027918    -0.00032371466
   4733000   0.050783717   -0.30914383     0             -0.26872317     0.0064586993 
   4734000   0.04992148    -0.30988105     0             -0.27014668    -0.0038555637 
   4735000   0.052127874   -0.30956198     0             -0.26807145    -0.0015867358 
   4736000   0.049922386   -0.31035017     0             -0.27061507    -0.0062359317 
   4737000   0.051709877   -0.30949468     0             -0.26833685     0.0029863378 
   4738000   0.048297128   -0.30981553     0             -0.27137404     0.00024473346
   4739000   0.048255572   -0.31074874     0             -0.27234032     0.00044105539
   4740000   0.049062304   -0.31039006     0             -0.27133953    -0.0017425436 
   4741000   0.052682517   -0.30716976     0             -0.26523777     0.0022876313 
   4742000   0.050620502   -0.30966885     0             -0.2693781     -0.0021050488 
   4743000   0.051771707   -0.31036101     0             -0.26915397     0.0038424317 
   4744000   0.049489183   -0.30985388     0             -0.27046359    -9.3622444e-05
   4745000   0.049449756   -0.30779277     0             -0.26843385     0.0037176622 
   4746000   0.047900005   -0.30215995     0             -0.26403454    -0.0053254914 
   4747000   0.050720352   -0.30828638     0             -0.26791615     0.0056297395 
   4748000   0.049555959   -0.30717729     0             -0.26773384    -0.00098843011
   4749000   0.049607516   -0.30837511     0             -0.26889063     0.0036831303 
   4750000   0.051799332   -0.29881634     0             -0.25758731    -0.0054799271 
   4751000   0.04865902    -0.30194977     0             -0.26322023     0.0052435665 
   4752000   0.048413279   -0.30852083     0             -0.26998689     0.00082063216
   4753000   0.050280752   -0.30886019     0             -0.26883985    -0.0020796643 
   4754000   0.051399915   -0.30750365     0             -0.26659254    -0.00045427732
   4755000   0.048132652   -0.30407098     0             -0.2657604      0.00050045235
   4756000   0.051758234   -0.30863393     0             -0.26743761     0.0031394584 
   4757000   0.048133868   -0.30729036     0             -0.26897881    -0.0056491597 
   4758000   0.049559934   -0.308222       0             -0.26877539    -0.0018979341 
   4759000   0.051301826   -0.30799993     0             -0.26716689    -0.0048827425 
   4760000   0.050739012   -0.30843005     0             -0.26804497    -0.0032508634 
   4761000   0.048241234   -0.30719552     0             -0.26879851    -0.0011935572 
   4762000   0.0515013     -0.30823883     0             -0.26724702    -2.7931304e-05
   4763000   0.049790972   -0.30650078     0             -0.26687028    -0.0072060721 
   4764000   0.052240308   -0.2876114      0             -0.24603138    -0.0063117319 
   4765000   0.04840755    -0.30414124     0             -0.26561186     5.7351883e-06
   4766000   0.051170003   -0.30891789     0             -0.26818977     0.00098672559
   4767000   0.050306607   -0.30110516     0             -0.26106424    -0.00017314502
   4768000   0.050873106   -0.30780251     0             -0.26731069     0.0060212946 
   4769000   0.050190953   -0.30864267     0             -0.26869381    -0.0095971528 
   4770000   0.049390376   -0.30951653     0             -0.27020488    -0.0069769242 
   4771000   0.052271617   -0.3095853      0             -0.26798036     0.00032152752
   4772000   0.049350824   -0.31096207     0             -0.2716819      0.0026753637 
   4773000   0.048810994   -0.3096826      0             -0.2708321      0.0081765123 
   4774000   0.050321792   -0.31019378     0             -0.27014078     0.0017965217 
   4775000   0.049009219   -0.31023389     0             -0.27122562     0.0011824619 
   4776000   0.051513052   -0.31006956     0             -0.26906839    -0.0010379869 
   4777000   0.048841961   -0.30989238     0             -0.27101723     0.0054015805 
   4778000   0.052597993   -0.29805044     0             -0.25618573     0.0012626836 
   4779000   0.048340931   -0.30949943     0             -0.27102307     0.0049375976 
   4780000   0.050175436   -0.30999309     0             -0.27005658    -0.00019168705
   4781000   0.051121686   -0.31003823     0             -0.26934857     0.0014828198 
   4782000   0.050460771   -0.31075028     0             -0.27058666    -0.0019276812 
   4783000   0.048931432   -0.2979488      0             -0.25900243     0.0071205116 
   4784000   0.049459183   -0.31029463     0             -0.27092821     0.0049704047 
   4785000   0.049530031   -0.31086243     0             -0.27143962    -0.0013134446 
   4786000   0.050328068   -0.30925599     0             -0.269198       0.0033138886 
   4787000   0.050028241   -0.31041053     0             -0.27059118    -0.0023062322 
   4788000   0.049247363   -0.31028141     0             -0.27108358     0.0042518059 
   4789000   0.051115678   -0.30864496     0             -0.26796007     0.0062571434 
   4790000   0.05134866    -0.30981675     0             -0.26894642     0.0027191905 
   4791000   0.051026553   -0.30490711     0             -0.26429317     0.0066023325 
   4792000   0.049025848   -0.30895298     0             -0.26993147    -0.00054927401
   4793000   0.050049784   -0.31095154     0             -0.27111504     0.00095431419
   4794000   0.049918358   -0.31046191     0             -0.27073001     0.0014389693 
   4795000   0.050288371   -0.31190346     0             -0.27187706    -0.00043002312
   4796000   0.050779248   -0.30974447     0             -0.26932736     0.00092784637
   4797000   0.04813466    -0.3108267      0             -0.27251452    -0.0035659499 
   4798000   0.050287267   -0.31193321     0             -0.27190768    -0.0038014425 
   4799000   0.051327556   -0.30993426     0             -0.26908074    -0.003680607  
   4800000   0.050733767   -0.31116467     0             -0.27078376    -0.010193328  
   4801000   0.051103061   -0.30922852     0             -0.26855367     0.0032097765 
   4802000   0.047028319   -0.31232062     0             -0.27488902    -0.0017038586 
   4803000   0.053457494   -0.31135628     0             -0.26880746     0.010137934  
   4804000   0.050078909   -0.31081679     0             -0.27095711     0.0030916331 
   4805000   0.048733772   -0.3113761      0             -0.27258706    -0.0028289026 
   4806000   0.051515736   -0.31019689     0             -0.26919359     0.0014844547 
   4807000   0.048177189   -0.31154763     0             -0.2732016     -0.0032104609 
   4808000   0.052084366   -0.3111094      0             -0.2696535     -0.0076622001 
   4809000   0.04945743    -0.31073858     0             -0.27137356     0.0030132412 
   4810000   0.049427567   -0.31142894     0             -0.27208769     0.0072328138 
   4811000   0.051159609   -0.31039483     0             -0.26967498    -0.0016924643 
   4812000   0.048267725   -0.31123507     0             -0.27281698     0.0052528154 
   4813000   0.050566022   -0.31062067     0             -0.27037328     0.0082210448 
   4814000   0.047868986   -0.31030838     0             -0.27220765    -0.0020199372 
   4815000   0.050979973   -0.31150071     0             -0.27092383     0.0020551746 
   4816000   0.050015566   -0.31042595     0             -0.27061668     0.0097750352 
   4817000   0.050410058   -0.3093846      0             -0.26926135    -0.00062970151
   4818000   0.052291564   -0.30975174     0             -0.26813092    -0.00054201164
   4819000   0.051875165   -0.31033153     0             -0.26904214     0.0010677237 
   4820000   0.047787322   -0.30972133     0             -0.27168561     0.0007665425 
   4821000   0.050364386   -0.31097623     0             -0.27088933     0.0021186629 
   4822000   0.050435158   -0.31088085     0             -0.27073761     0.0081595578 
   4823000   0.048433864   -0.30928275     0             -0.27073242     0.0010624127 
   4824000   0.052717771   -0.3088586      0             -0.26689855     0.0044819939 
   4825000   0.051567329   -0.30930334     0             -0.26825897    -0.0040629346 
   4826000   0.051051483   -0.31043531     0             -0.26980152     0.0023064542 
   4827000   0.049904334   -0.31063467     0             -0.27091394    -0.0028349706 
   4828000   0.04979232    -0.31147518     0             -0.27184361     0.0018224122 
   4829000   0.050164072   -0.31051124     0             -0.27058377    -0.00034367254
   4830000   0.051127638   -0.31174422     0             -0.27104982    -0.0051497551 
   4831000   0.049629399   -0.3108964      0             -0.2713945      0.0020923242 
   4832000   0.049023881   -0.31133558     0             -0.27231563    -0.0060708174 
   4833000   0.04922776    -0.31141889     0             -0.27223667    -0.0097520366 
   4834000   0.050214287   -0.31083311     0             -0.27086567    -0.003018453  
   4835000   0.047481231   -0.3122403      0             -0.27444821    -0.0073686277 
   4836000   0.051018161   -0.31075267     0             -0.2701454      0.0012374341 
   4837000   0.04772144    -0.30829616     0             -0.27031288    -0.0029213871 
   4838000   0.052467107   -0.31128407     0             -0.26952353    -0.0011117312 
   4839000   0.051485408   -0.31193071     0             -0.27095154     0.0025934026 
   4840000   0.04910948    -0.31238484     0             -0.27329676    -0.0031321428 
   4841000   0.049641669   -0.31192107     0             -0.2724094      0.00026657009
   4842000   0.048066643   -0.31011319     0             -0.27185515     0.0050230069 
   4843000   0.050567221   -0.30710197     0             -0.26685363    -0.0032787467 
   4844000   0.048109806   -0.3122553      0             -0.2739629     -0.00013495732
   4845000   0.050302427   -0.31073913     0             -0.27070154    -0.0058800419 
   4846000   0.051128203   -0.31023263     0             -0.26953777    -0.0056591308 
   4847000   0.051889063   -0.31275414     0             -0.27145369    -0.0027289395 
   4848000   0.04873007    -0.31364606     0             -0.27485997     0.0013524844 
   4849000   0.050448368   -0.31291683     0             -0.27276308    -0.0021161476 
   4850000   0.051397666   -0.31179278     0             -0.27088345     0.0060198363 
   4851000   0.049457543   -0.31147287     0             -0.27210776     0.00551499   
   4852000   0.050344541   -0.31224101     0             -0.2721699      0.00090255473
   4853000   0.050894099   -0.31307338     0             -0.27256486    -0.0029837694 
   4854000   0.051457406   -0.3129996      0             -0.27204272     0.0046704492 
   4855000   0.049954141   -0.31317033     0             -0.27340995     0.0030742654 
   4856000   0.049520316   -0.31296476     0             -0.27354968     0.0088169607 
   4857000   0.051635835   -0.31143564     0             -0.27033674    -0.00095887878
   4858000   0.051943418   -0.31318115     0             -0.27183744     0.004384389  
   4859000   0.051785007   -0.31088213     0             -0.2696645     -0.00043625932
   4860000   0.048724151   -0.31333945     0             -0.27455807    -0.0071418988 
   4861000   0.049204602   -0.31176814     0             -0.27260435    -0.0002279322 
   4862000   0.049830364   -0.31229776     0             -0.2726359     -0.0048995564 
   4863000   0.049074643   -0.31398701     0             -0.27492666     0.0046651    
   4864000   0.048244125   -0.31265649     0             -0.27425718    -0.0019239835 
   4865000   0.049413697   -0.31297896     0             -0.27364875    -0.0068296803 
   4866000   0.049683431   -0.31404606     0             -0.27450115     0.0042337071 
   4867000   0.050674101   -0.30626102     0             -0.2659276      0.0057273736 
   4868000   0.047892724   -0.31211942     0             -0.27399981    -0.0045562406 
   4869000   0.048596538   -0.31347192     0             -0.27479211    -0.0043764646 
   4870000   0.049625786   -0.31313784     0             -0.27363881     0.0031374198 
   4871000   0.050713558   -0.31326225     0             -0.27289742     0.0064231827 
   4872000   0.054077417   -0.31332749     0             -0.27028525    -0.0079233769 
   4873000   0.050228097   -0.31311708     0             -0.27313865    -0.00099297496
   4874000   0.046703437   -0.31415754     0             -0.27698452     0.010939154  
   4875000   0.050894435   -0.312873       0             -0.27236421    -0.0028766753 
   4876000   0.050932654   -0.31384432     0             -0.27330511     0.0050876191 
   4877000   0.052492665   -0.31344685     0             -0.27166597     0.0032358537 
   4878000   0.051321655   -0.31355082     0             -0.27270199    -0.00084715204
   4879000   0.051001661   -0.31307093     0             -0.2724768      0.0008074427 
   4880000   0.050993087   -0.31325097     0             -0.27266366    -0.0030893309 
   4881000   0.050992452   -0.31328889     0             -0.27270209     0.0069244506 
   4882000   0.048623039   -0.31411099     0             -0.27541009     0.00079976761
   4883000   0.048852535   -0.31386265     0             -0.27497908     0.0013649052 
   4884000   0.050720261   -0.31235951     0             -0.27198936    -0.00049991858
   4885000   0.049964388   -0.30282778     0             -0.26305925     0.0020728566 
   4886000   0.051838469   -0.31232783     0             -0.27106765    -0.0030581903 
   4887000   0.05041343    -0.31355033     0             -0.27342439     0.00081527211
   4888000   0.050156846   -0.31252208     0             -0.27260037    -0.0046528913 
   4889000   0.050670834   -0.31430744     0             -0.27397663    -0.00089268013
   4890000   0.049488354   -0.31324314     0             -0.27385351     0.0025478304 
   4891000   0.052492133   -0.31310158     0             -0.27132113     0.0028775444 
   4892000   0.050657405   -0.31102691     0             -0.27070679     0.0024343528 
   4893000   0.04903983    -0.30706224     0             -0.2680296      0.0015649625 
   4894000   0.048320994   -0.31249591     0             -0.27403542     0.003480729  
   4895000   0.05043211    -0.30815713     0             -0.26801632     0.0024461715 
   4896000   0.05121326    -0.31130721     0             -0.27054466    -0.00067981077
   4897000   0.050508945   -0.31145512     0             -0.27125316    -0.0018659638 
   4898000   0.050768287   -0.31295425     0             -0.27254587    -0.0064009664 
   4899000   0.053246454   -0.31221517     0             -0.26983432    -0.0049064634 
   4900000   0.04845907    -0.31212653     0             -0.27355614    -0.0026500533 
   4901000   0.049256705   -0.31292357     0             -0.27371831     0.0020367197 
   4902000   0.051945606   -0.31145682     0             -0.27011136     0.0014649333 
   4903000   0.051300981   -0.31216713     0             -0.27133475    -0.0024702455 
   4904000   0.052641297   -0.31237674     0             -0.27047755    -0.00054032467
   4905000   0.049264427   -0.31313895     0             -0.27392755     0.00021110838
   4906000   0.050562966   -0.31174729     0             -0.27150233     0.0091611812 
   4907000   0.050987864   -0.31223455     0             -0.2716514     -0.0065416661 
   4908000   0.048697865   -0.31169083     0             -0.27293037     0.005938573  
   4909000   0.046181472   -0.31219636     0             -0.27543879    -0.0010425344 
   4910000   0.054031583   -0.31163673     0             -0.26863096     0.0041133551 
   4911000   0.048956462   -0.312632       0             -0.27366572    -0.00012919414
   4912000   0.050663075   -0.31244008     0             -0.27211544    -0.0021629299 
   4913000   0.050629566   -0.30946236     0             -0.26916439    -0.0017897305 
   4914000   0.050902974   -0.30976298     0             -0.2692474     -0.0056855037 
   4915000   0.050508982   -0.31293222     0             -0.27273023     0.0017437318 
   4916000   0.049827948   -0.31350402     0             -0.27384409     0.0027873845 
   4917000   0.051769126   -0.31323645     0             -0.27203146     0.00093613789
   4918000   0.05495919    -0.31302179     0             -0.26927771    -0.0030496824 
   4919000   0.049926656   -0.3130121      0             -0.2732736     -0.0022413064 
   4920000   0.049908245   -0.30812359     0             -0.26839974     0.00058380865
   4921000   0.047589367   -0.31264238     0             -0.27476422     0.0042897436 
   4922000   0.049519264   -0.31365028     0             -0.27423604    -0.0099438469 
   4923000   0.053135226   -0.31384555     0             -0.27155323     0.0011029002 
   4924000   0.049361367   -0.31387794     0             -0.27458938    -0.00032040865
   4925000   0.050860223   -0.31302499     0             -0.27254343     0.0026018312 
   4926000   0.05049615    -0.31327931     0             -0.27308753    -0.0016028613 
   4927000   0.048419489   -0.313871       0             -0.27533211     0.0026227938 
   4928000   0.048488302   -0.31422075     0             -0.27562709    -0.0040458084 
   4929000   0.052284182   -0.31320639     0             -0.27159144    -0.00097200337
   4930000   0.049519899   -0.31407748     0             -0.27466273     0.0003690825 
   4931000   0.051226319   -0.31383612     0             -0.27306318    -0.0029832484 
   4932000   0.052625758   -0.31387945     0             -0.27199264     0.00055471096
   4933000   0.050049732   -0.31080136     0             -0.2709649     -0.0021652888 
   4934000   0.052596646   -0.31268878     0             -0.27082514     0.0058284747 
   4935000   0.049876291   -0.31469171     0             -0.2749933     -0.003306569  
   4936000   0.049689365   -0.31454538     0             -0.27499575    -0.0028122244 
   4937000   0.048280339   -0.30651384     0             -0.26808571     0.0048616034 
   4938000   0.052377391   -0.31420384     0             -0.27251471    -0.0035644435 
   4939000   0.050505688   -0.30715558     0             -0.26695621    -0.003341647  
   4940000   0.051950716   -0.31376857     0             -0.27241904    -0.0063460486 
   4941000   0.050336674   -0.31349404     0             -0.2734292      0.0054643697 
   4942000   0.05088225    -0.31328684     0             -0.27278775    -0.0090627696 
   4943000   0.0501451     -0.31401324     0             -0.27410088    -0.0037656409 
   4944000   0.049834292   -0.31254724     0             -0.27288226     0.00017765458
   4945000   0.050167082   -0.31270368     0             -0.27277382     0.0039227444 
   4946000   0.049695535   -0.30923416     0             -0.26967962    -0.0093570853 
   4947000   0.046697679   -0.31220458     0             -0.27503615    -0.0020344494 
   4948000   0.052283481   -0.31321413     0             -0.27159975    -0.002367484  
   4949000   0.049016521   -0.31296044     0             -0.27394635     0.00016493598
   4950000   0.04698922    -0.31282796     0             -0.27542748    -0.00090256215
   4951000   0.050277272   -0.30946095     0             -0.26944338     0.0017467034 
   4952000   0.048146217   -0.31247986     0             -0.27415848    -0.0026915336 
   4953000   0.052755482   -0.31149602     0             -0.26950596     0.0034457294 
   4954000   0.050502705   -0.31312983     0             -0.27293283     0.0013247852 
   4955000   0.049669982   -0.31254395     0             -0.27300975     0.0097081803 
   4956000   0.050796865   -0.31328478     0             -0.27285365     0.0060602245 
   4957000   0.050322276   -0.31248003     0             -0.27242664    -0.0034787556 
   4958000   0.049411488   -0.31159374     0             -0.27226528     0.0036564613 
   4959000   0.047833815   -0.31248864     0             -0.27441592    -0.00012240997
   4960000   0.051668613   -0.31241614     0             -0.27129115     0.002087754  
   4961000   0.051674614   -0.31193626     0             -0.27080649    -0.0023511038 
   4962000   0.049161276   -0.31134445     0             -0.27221515     0.0050720479 
   4963000   0.052106068   -0.31179922     0             -0.27032605     0.0081384706 
   4964000   0.049460012   -0.31185995     0             -0.27249288     0.0011800818 
   4965000   0.052308857   -0.31280731     0             -0.27117273     0.0095407356 
   4966000   0.051214577   -0.31235736     0             -0.27159376     0.0015167399 
   4967000   0.051650188   -0.312655       0             -0.27154468    -0.0047449949 
   4968000   0.05194479    -0.31262863     0             -0.27128382     0.0016830394 
   4969000   0.047060159   -0.30163706     0             -0.26418011     0.0066966172 
   4970000   0.050764736   -0.31386941     0             -0.27346385     0.0038172978 
   4971000   0.04810483    -0.31245802     0             -0.27416958     0.0058999247 
   4972000   0.050109444   -0.31235731     0             -0.27247333    -0.0019813214 
   4973000   0.051660151   -0.31224489     0             -0.27112663     0.0031468372 
   4974000   0.050480565   -0.31308729     0             -0.27290792    -0.0011471646 
   4975000   0.049951339   -0.31269903     0             -0.27294089     0.0099686954 
   4976000   0.052092146   -0.3122875      0             -0.27082541    -0.00052476742
   4977000   0.050418374   -0.30973447     0             -0.2696046     -0.0014604294 
   4978000   0.049201339   -0.31284873     0             -0.27368754     0.0014520762 
   4979000   0.048287255   -0.31289972     0             -0.27446608     0.00055550602
   4980000   0.051286406   -0.30620699     0             -0.26538622     0.0021239913 
   4981000   0.049486286   -0.3124634      0             -0.27307541    -0.0024527995 
   4982000   0.049417295   -0.31211507     0             -0.272782       0.0039728474 
   4983000   0.048006234   -0.31230671     0             -0.27409675     0.00085591616
   4984000   0.049587598   -0.31191161     0             -0.27244298     0.0032154851 
   4985000   0.050532923   -0.31296989     0             -0.27274884    -0.0050744383 
   4986000   0.049649466   -0.31032243     0             -0.27080456     0.0032491728 
   4987000   0.050467978   -0.31273832     0             -0.27256896    -0.0015873806 
   4988000   0.047901112   -0.31267055     0             -0.27454426    -0.0056465642 
   4989000   0.047766733   -0.31353912     0             -0.27551979    -0.0044250092 
   4990000   0.049521344   -0.31222257     0             -0.27280667    -0.0073886104 
   4991000   0.050580584   -0.31220555     0             -0.27194656    -0.0027454974 
   4992000   0.050379874   -0.31387817     0             -0.27377894    -0.0028227729 
   4993000   0.051340391   -0.31224714     0             -0.2713834      0.0020280118 
   4994000   0.050335591   -0.31153277     0             -0.27146879    -0.0035926623 
   4995000   0.049843914   -0.30747196     0             -0.26779932    -0.0010803094 
   4996000   0.047418228   -0.31256908     0             -0.27482713     0.0048194023 
   4997000   0.049296059   -0.31213765     0             -0.27290107    -0.0013068321 
   4998000   0.048329983   -0.31153675     0             -0.27306911     0.0024641324 
   4999000   0.053163857   -0.31196964     0             -0.26965454     0.00082493895
   5000000   0.049225472   -0.31075777     0             -0.27157737     0.0031046236 
   5001000   0.049720323   -0.30534764     0             -0.26577337     0.0033589848 
   5002000   0.04837184    -0.30569253     0             -0.26719157    -0.0079119534 
   5003000   0.052889      -0.30116536     0             -0.25906902     0.0087927078 
   5004000   0.050422969   -0.30378766     0             -0.26365413     0.002291219  
   5005000   0.04951548    -0.31211008     0             -0.27269885     0.0094307056 
   5006000   0.050995699   -0.31166927     0             -0.27107988    -0.003204527  
   5007000   0.05161585    -0.30564713     0             -0.26456414    -0.0022786023 
   5008000   0.050318782   -0.31131018     0             -0.27125957    -0.0010612176 
   5009000   0.049344586   -0.31107669     0             -0.27180148    -0.0057017106 
   5010000   0.050065746   -0.31102989     0             -0.27118068     0.0015727312 
   5011000   0.049961824   -0.31189615     0             -0.27212966     0.0013173358 
   5012000   0.052920028   -0.3104569      0             -0.26833587     0.0021692121 
   5013000   0.054135482   -0.3090709      0             -0.26598244    -0.0077609719 
   5014000   0.050240217   -0.31093868     0             -0.2709506     -0.0079323568 
   5015000   0.049620689   -0.30784978     0             -0.26835481     0.0081121198 
   5016000   0.050523974   -0.31090641     0             -0.27069248     0.0097921817 
   5017000   0.047670485   -0.31065237     0             -0.27270964    -0.011542499  
   5018000   0.050004913   -0.3108278      0             -0.27102701     0.0046282713 
   5019000   0.052212995   -0.30590919     0             -0.26435091     0.0032459486 
   5020000   0.049146356   -0.31106973     0             -0.27195231    -0.0030325337 
   5021000   0.050314798   -0.3112842      0             -0.27123677    -0.0060914494 
   5022000   0.051439426   -0.311241       0             -0.27029843    -0.0024472806 
   5023000   0.050450477   -0.31191089     0             -0.27175546    -0.0052681239 
   5024000   0.048435901   -0.31109856     0             -0.27254661     0.0019456593 
   5025000   0.051031105   -0.28700407     0             -0.2463865      0.0050257063 
   5026000   0.05218196    -0.31159861     0             -0.27006503     0.00040032338
   5027000   0.049332716   -0.30655668     0             -0.26729092     0.011270456  
   5028000   0.049390324   -0.31062051     0             -0.2713089     -0.011700492  
   5029000   0.049278794   -0.31187318     0             -0.27265034     0.0018034152 
   5030000   0.05108332    -0.31303725     0             -0.27237812    -0.0037723268 
   5031000   0.051757955   -0.3108104      0             -0.2696143     -0.001073426  
   5032000   0.048464534   -0.31193919     0             -0.27336445    -0.0080156659 
   5033000   0.052231624   -0.30866306     0             -0.26708996    -0.004823241  
   5034000   0.051208944   -0.30848407     0             -0.26772495    -0.0048634162 
   5035000   0.048470889   -0.30011864     0             -0.26153884    -0.014671884  
   5036000   0.049620842   -0.31040785     0             -0.27091276     0.0032311348 
   5037000   0.051223105   -0.31066961     0             -0.26989922    -0.001825814  
   5038000   0.049065264   -0.31216031     0             -0.27310743    -0.010108774  
   5039000   0.049793093   -0.3096676      0             -0.27003541     0.0058009856 
   5040000   0.049852094   -0.30799766     0             -0.2683185      0.0067837379 
   5041000   0.04955601    -0.30381148     0             -0.264368       0.0089350109 
   5042000   0.048583676   -0.31080214     0             -0.27213257     0.0015038414 
   5043000   0.051584154   -0.30622934     0             -0.26517158    -0.00040859173
   5044000   0.051579717   -0.30603877     0             -0.26498454    -0.0052938871 
   5045000   0.050694136   -0.31015737     0             -0.26980801     0.0027569951 
   5046000   0.048565245   -0.31033881     0             -0.27168391    -0.0024439785 
   5047000   0.049210946   -0.31153687     0             -0.27236803    -0.0016998055 
   5048000   0.051574808   -0.30436408     0             -0.26331376     0.0054114203 
   5049000   0.050717812   -0.30861645     0             -0.26824824    -0.0054865317 
   5050000   0.051352883   -0.31032823     0             -0.26945454     0.0089926164 
   5051000   0.048767233   -0.31105167     0             -0.272236       0.00062272054
   5052000   0.050089896   -0.31172971     0             -0.27186128    -0.0034209212 
   5053000   0.050901314   -0.30910423     0             -0.26858997    -0.0033465013 
   5054000   0.049965159   -0.31055741     0             -0.27078826    -0.0011939438 
   5055000   0.048805895   -0.31150028     0             -0.27265384     0.0073432702 
   5056000   0.050014008   -0.31103256     0             -0.27122454    -0.001934515  
   5057000   0.04923167    -0.31112512     0             -0.27193978     0.00092994632
   5058000   0.049262602   -0.3099286      0             -0.27071865    -0.0065680341 
   5059000   0.051333735   -0.31067257     0             -0.26981413    -0.0020366084 
   5060000   0.049650336   -0.30659428     0             -0.26707572     0.0013007988 
   5061000   0.050177533   -0.31033509     0             -0.27039691     0.0011933168 
   5062000   0.052025218   -0.31097697     0             -0.26956814     0.00092343158
   5063000   0.052304748   -0.31123527     0             -0.26960396    -0.0015257039 
   5064000   0.048311916   -0.31071415     0             -0.27226088    -0.0089625966 
   5065000   0.049988464   -0.31195477     0             -0.27216708     0.0063598827 
   5066000   0.047828719   -0.31055191     0             -0.27248324    -0.0024104452 
   5067000   0.050403327   -0.31033718     0             -0.27021929    -0.0022762031 
   5068000   0.050309431   -0.31027117     0             -0.270228       0.0083102268 
   5069000   0.049654534   -0.304676       0             -0.26515409    -0.0025713954 
   5070000   0.047678469   -0.30950504     0             -0.27155596     0.0073537118 
   5071000   0.053517433   -0.31066606     0             -0.26806953     0.003826371  
   5072000   0.050589323   -0.30730799     0             -0.26704205    -0.0029685808 
   5073000   0.052265234   -0.31013154     0             -0.26853168     0.0020418277 
   5074000   0.050193654   -0.30991183     0             -0.26996082     0.00057637049
   5075000   0.050648155   -0.31138772     0             -0.27107496    -0.0036928273 
   5076000   0.047773144   -0.31150386     0             -0.27347942    -0.0025708443 
   5077000   0.04826546    -0.31141012     0             -0.27299383     0.0027385834 
   5078000   0.049484947   -0.31115467     0             -0.27176775    -0.003662787  
   5079000   0.050577376   -0.31064238     0             -0.27038595    -0.0091217799 
   5080000   0.048958084   -0.31152448     0             -0.27255691    -0.0029267422 
   5081000   0.0517639     -0.30933174     0             -0.26813091    -0.006274155  
   5082000   0.049641815   -0.31064235     0             -0.27113057     0.0054189204 
   5083000   0.049993839   -0.30996574     0             -0.27017377    -0.009845648  
   5084000   0.050947242   -0.31050308     0             -0.26995226    -0.0044579009 
   5085000   0.05136155    -0.30836501     0             -0.26748442     0.0013127123 
   5086000   0.051955918   -0.3103742      0             -0.26902053    -0.0038653223 
   5087000   0.048150362   -0.31139113     0             -0.27306645    -0.0013654945 
   5088000   0.053134885   -0.31151014     0             -0.26921809     0.0028257483 
   5089000   0.048257324   -0.31051815     0             -0.27210833     0.0043722232 
   5090000   0.050381332   -0.31081918     0             -0.27071879     0.0022410943 
   5091000   0.050730799   -0.31033485     0             -0.26995631     0.00023210665
   5092000   0.051182567   -0.30768604     0             -0.26694791     0.00092287405
   5093000   0.051386271   -0.31055503     0             -0.26965477     0.0032843557 
   5094000   0.051170636   -0.31194167     0             -0.27121304    -0.0041267927 
   5095000   0.047999818   -0.31137178     0             -0.27316693    -0.0012879912 
   5096000   0.048267073   -0.31096484     0             -0.27254726     0.0028474472 
   5097000   0.051799693   -0.3103856      0             -0.26915628    -0.0029632677 
   5098000   0.049891108   -0.31033583     0             -0.27062563     0.003657299  
   5099000   0.048215613   -0.31014988     0             -0.27177327    -0.0023549974 
   5100000   0.047872899   -0.31100694     0             -0.27290311    -0.002664063  
   5101000   0.04999974    -0.31071139     0             -0.27091473     0.0015512186 
   5102000   0.052014372   -0.30976829     0             -0.2683681     -0.0010825455 
   5103000   0.050273778   -0.30299823     0             -0.26298344    -0.0011011083 
   5104000   0.050633366   -0.3103259      0             -0.2700249     -0.001615544  
   5105000   0.05128413    -0.30976166     0             -0.26894269     0.0020026541 
   5106000   0.049759744   -0.3098787      0             -0.27027306     0.0052538718 
   5107000   0.048209068   -0.31091081     0             -0.27253941    -0.00044412913
   5108000   0.049041244   -0.3105653      0             -0.27153154    -0.012399004  
   5109000   0.051358413   -0.30873712     0             -0.26785904     0.0017622074 
   5110000   0.049347803   -0.31039382     0             -0.27111606     0.00047444455
   5111000   0.052347556   -0.31026618     0             -0.2686008      0.00096262122
   5112000   0.048217842   -0.310335       0             -0.27195661    -0.010976453  
   5113000   0.053255688   -0.31020904     0             -0.26782085    -0.0021557544 
   5114000   0.050128305   -0.31106208     0             -0.27116308     0.0053368169 
   5115000   0.048600133   -0.31068691     0             -0.27200424    -0.0026833245 
   5116000   0.04908264    -0.31008722     0             -0.27102051     0.0068027061 
   5117000   0.051818779   -0.31041685     0             -0.26917234    -0.0022229136 
   5118000   0.053845546   -0.31045945     0             -0.26760176    -0.006573423  
   5119000   0.050744844   -0.30382058     0             -0.26343086     0.0016813595 
   5120000   0.051721323   -0.31057573     0             -0.26940879     0.0036630937 
   5121000   0.050021708   -0.31033834     0             -0.27052418    -0.0060525882 
   5122000   0.049771002   -0.31057733     0             -0.27096272     0.0043517655 
   5123000   0.050729681   -0.30949855     0             -0.26912089    -0.002439619  
   5124000   0.047028046   -0.30901199     0             -0.27158061    -0.0032318035 
   5125000   0.048733532   -0.30984291     0             -0.27105407     0.0041192762 
   5126000   0.048317965   -0.30903444     0             -0.27057635    -0.0026545731 
   5127000   0.049898771   -0.3091922      0             -0.2694759      0.0055606615 
   5128000   0.048927989   -0.30820285     0             -0.26925923    -0.0029356141 
   5129000   0.049966245   -0.30941277     0             -0.26964276     0.011112382  
   5130000   0.051244034   -0.31012175     0             -0.2693347     -0.0012957757 
   5131000   0.048867857   -0.30598359     0             -0.26708783    -2.6373206e-05
   5132000   0.052060898   -0.3084906      0             -0.26705338     0.0047085244 
   5133000   0.05112269    -0.30860809     0             -0.26791762    -0.00063409285
   5134000   0.05049876    -0.30928746     0             -0.2690936     -0.00078308709
   5135000   0.051441029   -0.309797       0             -0.26885316     0.0029679224 
   5136000   0.051201703   -0.30955976     0             -0.26880641     0.0010606894 
   5137000   0.050016225   -0.30952342     0             -0.26971363     0.0091133267 
   5138000   0.052597651   -0.30974014     0             -0.2678757      0.0027614015 
   5139000   0.05279523    -0.30927565     0             -0.26725395     0.00052826966
   5140000   0.050739747   -0.30433608     0             -0.26395041    -0.0036394203 
   5141000   0.052351046   -0.30875543     0             -0.26708727     9.7331637e-05
   5142000   0.050699241   -0.31022479     0             -0.26987136    -0.0021034648 
   5143000   0.051769864   -0.30961192     0             -0.26840635    -0.001859583  
   5144000   0.05025631    -0.30955921     0             -0.26955832     0.0082675096 
   5145000   0.048791377   -0.30866727     0             -0.26983238     0.0063340298 
   5146000   0.050875738   -0.29677709     0             -0.25628318    -0.0018689298 
   5147000   0.05137478    -0.30892468     0             -0.26803357     0.0070309475 
   5148000   0.051403761   -0.30990392     0             -0.26898974     0.0071068848 
   5149000   0.051831956   -0.30897129     0             -0.26771629    -0.011603535  
   5150000   0.050335892   -0.30550576     0             -0.26544153    -0.0023595563 
   5151000   0.048730454   -0.30970395     0             -0.27091755     0.008696959  
   5152000   0.05164953    -0.30867833     0             -0.26756853     0.0012407134 
   5153000   0.04792346    -0.30805723     0             -0.26991315     0.0007119604 
   5154000   0.048413626   -0.30779408     0             -0.26925986     0.0033352024 
   5155000   0.047269124   -0.29316344     0             -0.25554017     0.0036379491 
   5156000   0.052377694   -0.30668297     0             -0.2649936     -0.0060963395 
   5157000   0.050200521   -0.3072935      0             -0.26733703     0.0059978819 
   5158000   0.047204391   -0.30587217     0             -0.26830043     0.0008654085 
   5159000   0.051568736   -0.3027815      0             -0.26173601     0.00034438101
   5160000   0.046174216   -0.30816564     0             -0.27141385    -0.0032226722 
   5161000   0.048085419   -0.30735913     0             -0.26908614    -0.0006120783 
   5162000   0.049576927   -0.30760401     0             -0.26814387     0.0063298414 
   5163000   0.051015936   -0.30749444     0             -0.26688894     0.0031478171 
   5164000   0.050233914   -0.30655497     0             -0.26657192     0.00070500328
   5165000   0.050997937   -0.30010113     0             -0.25950996     0.0041366085 
   5166000   0.050053081   -0.30856518     0             -0.26872606     0.0010202127 
   5167000   0.050432106   -0.30616717     0             -0.26602637     0.0036878953 
   5168000   0.04685861    -0.29669056     0             -0.25939404     0.014199025  
   5169000   0.049338422   -0.30616075     0             -0.26689044    -0.0017726928 
   5170000   0.050629921   -0.30771512     0             -0.26741687    -0.0047458406 
   5171000   0.052045386   -0.30758741     0             -0.26616254     0.0037114211 
   5172000   0.048545175   -0.30759398     0             -0.26895506    -0.0025579092 
   5173000   0.05148558    -0.30134542     0             -0.26036612    -0.0076265057 
   5174000   0.047015293   -0.30650607     0             -0.26908484    -0.0022639661 
   5175000   0.04980413    -0.30808157     0             -0.26844059     0.0035713846 
   5176000   0.050686252   -0.30048227     0             -0.26013918     0.011319519  
   5177000   0.050388118   -0.3069415      0             -0.26683571    -4.9410538e-05
   5178000   0.049339411   -0.30590093     0             -0.26662985     0.00039693964
   5179000   0.050489481   -0.30694713     0             -0.26676066     0.002066855  
   5180000   0.05093286    -0.30116335     0             -0.26062398     0.0026587916 
   5181000   0.052475481   -0.30621957     0             -0.26445236    -0.002326853  
   5182000   0.051876418   -0.30723827     0             -0.26594789    -0.0019995179 
   5183000   0.050064507   -0.30592069     0             -0.26607247     0.00071729886
   5184000   0.050419824   -0.30691397     0             -0.26678294    -0.0040740513 
   5185000   0.048878637   -0.30237251     0             -0.26346817    -0.0025709579 
   5186000   0.051165566   -0.30766706     0             -0.26694247    -0.0018280954 
   5187000   0.048105036   -0.30557378     0             -0.26728518    -0.0042547057 
   5188000   0.049800539   -0.30763629     0             -0.26799817    -0.0029936041 
   5189000   0.050594044   -0.30656504     0             -0.26629534     0.0052674092 
   5190000   0.05005753    -0.30699663     0             -0.26715396     0.0032979729 
   5191000   0.051418776   -0.3072831      0             -0.26635697    -0.0015478347 
   5192000   0.04891113    -0.3073939      0             -0.26846369     0.0084504173 
   5193000   0.050042504   -0.30702089     0             -0.26719018     0.0078361076 
   5194000   0.051681261   -0.30710637     0             -0.26597132    -0.0069224634 
   5195000   0.049740081   -0.306973       0             -0.26738301     0.0012733068 
   5196000   0.051198965   -0.30736952     0             -0.26661834     0.0090941436 
   5197000   0.050932171   -0.30690577     0             -0.26636695    -0.0082144451 
   5198000   0.049514616   -0.30611988     0             -0.26670934    -0.0051760215 
   5199000   0.051326017   -0.30617002     0             -0.26531772     0.0053938931 
   5200000   0.050914895   -0.30620457     0             -0.2656795     -0.0060247055 
   5201000   0.052986117   -0.30596631     0             -0.26379267    -0.0049948709 
   5202000   0.050454293   -0.30784571     0             -0.26768725    -0.0015451002 
   5203000   0.050436508   -0.30689503     0             -0.26675072    -0.0030593097 
   5204000   0.051377075   -0.30677581     0             -0.26588287    -0.0044081818 
   5205000   0.051389596   -0.30640987     0             -0.26550697     0.0018498523 
   5206000   0.050793096   -0.30653358     0             -0.26610545    -0.0044191295 
   5207000   0.047153052   -0.30244333     0             -0.26491245     0.00054904108
   5208000   0.04812785    -0.30554427     0             -0.26723751     0.005716028  
   5209000   0.05114525    -0.30843221     0             -0.26772379    -0.0051449274 
   5210000   0.050889742   -0.30708028     0             -0.26657522    -0.0024119992 
   5211000   0.048670992   -0.30744374     0             -0.26870467    -0.00068869852
   5212000   0.051393034   -0.30620417     0             -0.26529853     0.0025114515 
   5213000   0.049554229   -0.30706517     0             -0.2676231     -0.0025829992 
   5214000   0.048885857   -0.307308       0             -0.26839792    -0.0052987573 
   5215000   0.048104881   -0.30674023     0             -0.26845175    -0.0019467853 
   5216000   0.048201816   -0.30586376     0             -0.26749813    -0.0063225356 
   5217000   0.049499667   -0.30669783     0             -0.26729919    -0.00051167904
   5218000   0.046365342   -0.30662661     0             -0.26972269     0.0027262947 
   5219000   0.051847537   -0.30593735     0             -0.26466995     0.0048456875 
   5220000   0.050998569   -0.30775312     0             -0.26716145     0.0064555978 
   5221000   0.051052127   -0.30725986     0             -0.26662556     0.0077666474 
   5222000   0.050870777   -0.3068066      0             -0.26631664     0.0054610572 
   5223000   0.047463922   -0.2994199      0             -0.26164159    -0.00035981403
   5224000   0.049037186   -0.3057305      0             -0.26669997     0.011769858  
   5225000   0.049125447   -0.30751275     0             -0.26841196     0.0069468058 
   5226000   0.052318437   -0.3065841      0             -0.26494189     0.0020164363 
   5227000   0.050885798   -0.29503797     0             -0.25453606     0.00020110588
   5228000   0.049453232   -0.30062316     0             -0.26126148    -0.0006902598 
   5229000   0.048997555   -0.30099925     0             -0.26200025     0.0054236351 
   5230000   0.049837548   -0.30554553     0             -0.26587796    -0.0076852854 
   5231000   0.049725777   -0.30498796     0             -0.26540935     0.0037462286 
   5232000   0.049871874   -0.3030996      0             -0.2634047      0.002484136  
   5233000   0.050001953   -0.30701446     0             -0.26721603    -0.0015639024 
   5234000   0.049896226   -0.29660955     0             -0.25689527     0.0086485299 
   5235000   0.048960365   -0.2988114      0             -0.25984201    -0.0053959236 
   5236000   0.051101135   -0.30781087     0             -0.26713756     0.011114625  
   5237000   0.049607592   -0.3078979      0             -0.26841336     0.0053934817 
   5238000   0.049374058   -0.30808996     0             -0.2687913      0.0014583574 
   5239000   0.050104339   -0.30901632     0             -0.2691364     -0.00036243722
   5240000   0.05026539    -0.30810833     0             -0.26810022     0.003087448  
   5241000   0.05047964    -0.29941506     0             -0.25923642    -0.0073767955 
   5242000   0.052574796   -0.30912814     0             -0.26728189    -0.0016542128 
   5243000   0.047408738   -0.3082599      0             -0.27052551     0.0014674317 
   5244000   0.051080064   -0.30832069     0             -0.26766415    -0.0056365363 
   5245000   0.050535      -0.30812441     0             -0.26790171     0.0044017578 
   5246000   0.048698484   -0.30763363     0             -0.26887268    -0.0045083874 
   5247000   0.049115037   -0.30753623     0             -0.26844373     0.0016147725 
   5248000   0.05159557    -0.30516497     0             -0.26409812    -0.0086925398 
   5249000   0.048750281   -0.30826318     0             -0.26946101     0.0023321324 
   5250000   0.051813972   -0.30888134     0             -0.26764066     0.00161225   
   5251000   0.048760715   -0.30855626     0             -0.26974578     0.0018150482 
   5252000   0.049853426   -0.30838928     0             -0.26870907     0.0040423365 
   5253000   0.050128197   -0.3085613      0             -0.26866239     0.0018676481 
   5254000   0.051132945   -0.30721556     0             -0.26651693     0.0038619216 
   5255000   0.047798935   -0.3078533      0             -0.26980834    -0.0032508678 
   5256000   0.049677201   -0.30789187     0             -0.26835192    -0.0056517839 
   5257000   0.052697526   -0.30727666     0             -0.26533273     0.0019096575 
   5258000   0.049676246   -0.30819655     0             -0.26865736    -0.00015023632
   5259000   0.049396266   -0.30814999     0             -0.26883365     0.0080547084 
   5260000   0.051719582   -0.30201339     0             -0.26084783     0.0021874531 
   5261000   0.048382783   -0.30836141     0             -0.26985173    -0.0046886294 
   5262000   0.049595533   -0.30673393     0             -0.26725898    -0.0034720836 
   5263000   0.048635051   -0.30141848     0             -0.26270802    -0.0044283672 
   5264000   0.051357851   -0.30692536     0             -0.26604772     0.0012848426 
   5265000   0.049948761   -0.30765533     0             -0.26789924     0.0037572971 
   5266000   0.049165698   -0.30847793     0             -0.26934511    -0.0021827216 
   5267000   0.050197508   -0.3078449      0             -0.26789082    -0.0016031775 
   5268000   0.047992722   -0.30917196     0             -0.27097276     0.0058196256 
   5269000   0.052696749   -0.30776003     0             -0.26581671     0.0026631894 
   5270000   0.04996441    -0.30880223     0             -0.26903368     0.0089021269 
   5271000   0.050393618   -0.30744778     0             -0.26733761     0.0033493834 
   5272000   0.049804924   -0.30741281     0             -0.2677712     -0.0042759039 
   5273000   0.049958849   -0.30827107     0             -0.26850695    -0.005189323  
   5274000   0.048584822   -0.30792877     0             -0.26925829     0.00062780276
   5275000   0.048943997   -0.30799157     0             -0.26903521     0.0048320618 
   5276000   0.051601652   -0.30673228     0             -0.26566059     0.0048494683 
   5277000   0.051521436   -0.30757012     0             -0.26656228    -0.0088122325 
   5278000   0.051218152   -0.30640506     0             -0.26563861     0.0068176129 
   5279000   0.047182367   -0.29951301     0             -0.26195879    -0.0047018476 
   5280000   0.049987082   -0.30508262     0             -0.26529603    -0.00065718721
   5281000   0.048721724   -0.30383851     0             -0.26505907     0.005748509  
   5282000   0.050811729   -0.30546762     0             -0.26502466    -0.0016418905 
   5283000   0.050072236   -0.29827404     0             -0.25841967     0.0059719565 
   5284000   0.051483279   -0.3044899      0             -0.26351243     0.0042903098 
   5285000   0.051716651   -0.29979896     0             -0.25863574    -0.0065940325 
   5286000   0.050605966   -0.30545336     0             -0.26517417    -0.0011326309 
   5287000   0.050702355   -0.30495063     0             -0.26459472     0.0065094272 
   5288000   0.049693264   -0.30570447     0             -0.26615173    -0.0089556293 
   5289000   0.050040937   -0.30484109     0             -0.26501163     0.0015598046 
   5290000   0.048816237   -0.30252195     0             -0.26366728     0.0061844255 
   5291000   0.048127945   -0.30497456     0             -0.26666772     0.0043734054 
   5292000   0.053041289   -0.30170084     0             -0.25948329     0.0099462476 
   5293000   0.049562689   -0.30517498     0             -0.26572618    -0.0033458387 
   5294000   0.047095731   -0.30228938     0             -0.26480412     0.001351894  
   5295000   0.051061623   -0.3058471      0             -0.26520524    -0.0039300468 
   5296000   0.047943564   -0.30447917     0             -0.26631909    -0.0017756868 
   5297000   0.046769554   -0.30422992     0             -0.26700428     0.00058563137
   5298000   0.050923831   -0.30578659     0             -0.2652544      0.0051554792 
   5299000   0.050637757   -0.30531761     0             -0.26501312    -0.0033986363 
   5300000   0.049584562   -0.30649257     0             -0.26702636     0.0025296536 
   5301000   0.04990331    -0.30572249     0             -0.26600257     0.0049863369 
   5302000   0.049219882   -0.30473791     0             -0.26556196    -0.0050173848 
   5303000   0.04952679    -0.3050587      0             -0.26563847    -0.0020371056 
   5304000   0.049367936   -0.30556292     0             -0.26626913     0.0055155811 
   5305000   0.049503041   -0.30552663     0             -0.2661253      0.0028775421 
   5306000   0.048146542   -0.30324344     0             -0.26492181     0.001830407  
   5307000   0.050105762   -0.29825226     0             -0.25837121    -0.0069842168 
   5308000   0.051802098   -0.29941301     0             -0.25818178    -0.0020293088 
   5309000   0.052087809   -0.29909528     0             -0.25763664    -0.0044906588 
   5310000   0.05080842    -0.30532772     0             -0.26488739    -0.0085819712 
   5311000   0.047819788   -0.3040268      0             -0.26596524     0.0059259217 
   5312000   0.05064756    -0.30495512     0             -0.26464283    -0.003001932  
   5313000   0.049382287   -0.30538821     0             -0.26608299    -0.0057524544 
   5314000   0.049830798   -0.30488091     0             -0.26521871     0.0044671583 
   5315000   0.050545092   -0.30340565     0             -0.26317492     0.0043863722 
   5316000   0.05245515    -0.30475131     0             -0.26300029     0.0051274321 
   5317000   0.049729095   -0.30407215     0             -0.26449089     0.0049444928 
   5318000   0.051503301   -0.30455634     0             -0.26356293    -0.0019057304 
   5319000   0.049831508   -0.30568828     0             -0.26602551     0.00095682226
   5320000   0.0530937     -0.3054196      0             -0.26316033     0.0037040065 
   5321000   0.050596448   -0.30586237     0             -0.26559076     0.00312701   
   5322000   0.049759333   -0.30579523     0             -0.26618991    -0.0029027754 
   5323000   0.049453802   -0.30698817     0             -0.26762603     0.0021448904 
   5324000   0.049219983   -0.3044875      0             -0.26531147    -0.003563217  
   5325000   0.049420138   -0.30531998     0             -0.26598464     0.0058281331 
   5326000   0.049372138   -0.30563164     0             -0.2663345     -0.00067080775
   5327000   0.048706714   -0.30507294     0             -0.26630544     0.0026710552 
   5328000   0.050648781   -0.29916005     0             -0.25884679     0.003742773  
   5329000   0.049672745   -0.30655532     0             -0.26701892     0.0024600003 
   5330000   0.050706356   -0.30599454     0             -0.26563545     0.00094950269
   5331000   0.051005056   -0.3019019      0             -0.26130506     0.00070083695
   5332000   0.049879147   -0.305202       0             -0.26550131    -0.0098111646 
   5333000   0.049263169   -0.30544862     0             -0.26623822     0.0034571651 
   5334000   0.049287585   -0.30482404     0             -0.26559421     0.0016138163 
   5335000   0.050846452   -0.30546755     0             -0.26499696    -0.0046788011 
   5336000   0.051626033   -0.30489245     0             -0.26380135    -0.0014346601 
   5337000   0.048482472   -0.30525296     0             -0.26666394    -0.00023406195
   5338000   0.049852613   -0.30725307     0             -0.2675735      0.0032614954 
   5339000   0.049398496   -0.30049474     0             -0.26117663     0.0076675554 
   5340000   0.050968609   -0.30495705     0             -0.26438923    -0.0057160845 
   5341000   0.049982424   -0.30681738     0             -0.2670345      0.0054730843 
   5342000   0.050403922   -0.30931907     0             -0.2692007      0.0019098804 
   5343000   0.04972663    -0.3081434      0             -0.26856411    -0.00091842482
   5344000   0.051746088   -0.30667892     0             -0.26549227    -9.3242053e-05
   5345000   0.052252075   -0.30140533     0             -0.25981594    -0.00019688527
   5346000   0.049614487   -0.30774564     0             -0.26825561     0.0078068462 
   5347000   0.050692301   -0.30751077     0             -0.26716287     0.0046966308 
   5348000   0.050418603   -0.30671208     0             -0.26658202     0.0033212381 
   5349000   0.047801201   -0.30778376     0             -0.26973699    -0.0018221408 
   5350000   0.049612996   -0.30184991     0             -0.26236107    -0.0043319745 
   5351000   0.048412786   -0.30768088     0             -0.26914733    -0.0024689111 
   5352000   0.047796161   -0.30922195     0             -0.27117919    -0.00082588311
   5353000   0.048297589   -0.30885175     0             -0.27040989    -0.0029656337 
   5354000   0.048780101   -0.30873027     0             -0.26990436     0.001260859  
   5355000   0.052682248   -0.30837952     0             -0.26644774    -0.0022677015 
   5356000   0.051679773   -0.30838879     0             -0.26725492    -0.0034579361 
   5357000   0.051309282   -0.3014713      0             -0.26063232    -0.00087345887
   5358000   0.050035084   -0.30753364     0             -0.26770884    -2.9868685e-05
   5359000   0.050920153   -0.30745104     0             -0.26692178    -0.00021453824
   5360000   0.049608997   -0.30738434     0             -0.26789868    -0.00090542918
   5361000   0.051724998   -0.30713554     0             -0.26596567     0.00557771   
   5362000   0.051149134   -0.30772917     0             -0.26701765     0.0033592971 
   5363000   0.051145117   -0.30764115     0             -0.26693283     0.0036451467 
   5364000   0.051105801   -0.30689527     0             -0.26621825    -0.0031365911 
   5365000   0.047865351   -0.30796863     0             -0.2698708      0.004612442  
   5366000   0.053019137   -0.30764632     0             -0.2654464     -0.0065498655 
   5367000   0.049825169   -0.30811587     0             -0.26845815    -0.0051692977 
   5368000   0.053330766   -0.30183955     0             -0.25939159    -0.00027013014
   5369000   0.051256554   -0.30754342     0             -0.2667464      0.0042930584 
   5370000   0.047897884   -0.30739049     0             -0.26926677    -0.0020628082 
   5371000   0.048846924   -0.30686473     0             -0.26798563     0.0046980751 
   5372000   0.047916387   -0.30910131     0             -0.27096286     0.0018586279 
   5373000   0.049836237   -0.30456017     0             -0.26489364    -0.0040721205 
   5374000   0.051691343   -0.30799056     0             -0.26684748    -0.00035401241
   5375000   0.051401805   -0.30849873     0             -0.2675861      0.012692371  
   5376000   0.051719098   -0.30787429     0             -0.26670912    -0.0084603527 
   5377000   0.049892161   -0.30670249     0             -0.26699145    -0.001298942  
   5378000   0.050004728   -0.3082585      0             -0.26845786    -0.0044200221 
   5379000   0.048843118   -0.3093665      0             -0.27049043    -0.00071445153
   5380000   0.052026668   -0.30834862     0             -0.26693864    -0.0062138852 
   5381000   0.051430819   -0.3079334      0             -0.26699768    -0.0015212598 
   5382000   0.051118628   -0.29851324     0             -0.25782601    -0.0027452126 
   5383000   0.048270432   -0.30460417     0             -0.26618393     0.003013783  
   5384000   0.05158985    -0.30826758     0             -0.26720528    -0.0027475562 
   5385000   0.050290559   -0.3002586      0             -0.26023046     0.00093599029
   5386000   0.051549911   -0.30824864     0             -0.26721813    -0.006664876  
   5387000   0.05226586    -0.30264976     0             -0.2610494     -0.0021220053 
   5388000   0.050308963   -0.30697122     0             -0.26692843     0.0015930326 
   5389000   0.053664035   -0.3066541      0             -0.26394088     0.0062301909 
   5390000   0.051151446   -0.30113902     0             -0.26042566     0.0087584989 
   5391000   0.051673624   -0.30822421     0             -0.26709524     0.0025880162 
   5392000   0.049101645   -0.3044511      0             -0.26536926     0.0026544758 
   5393000   0.051067383   -0.30761639     0             -0.26696995     0.0018819322 
   5394000   0.052189285   -0.30163723     0             -0.26009782    -0.0050910469 
   5395000   0.045445665   -0.30567545     0             -0.26950354     0.0092409616 
   5396000   0.051158562   -0.30637364     0             -0.26565462     0.0067290643 
   5397000   0.049232424   -0.30715798     0             -0.26797205     0.00095619708
   5398000   0.052023566   -0.30774725     0             -0.26633974    -0.0064577766 
   5399000   0.049444029   -0.3072676      0             -0.26791325     0.0024797316 
   5400000   0.052187795   -0.30741344     0             -0.26587522    -0.00061341244
   5401000   0.04941015    -0.30675905     0             -0.26743166     0.00042961198
   5402000   0.049179025   -0.29979409     0             -0.26065066    -0.00030547194
   5403000   0.048040907   -0.30109042     0             -0.26285286     0.0019321132 
   5404000   0.05084396    -0.30785307     0             -0.26738446    -0.0038029538 
   5405000   0.046124826   -0.30697136     0             -0.27025889     0.0019869288 
   5406000   0.04964552    -0.30829522     0             -0.26878049     0.0006593681 
   5407000   0.047696284   -0.3076425      0             -0.26967924    -0.0054529371 
   5408000   0.047424153   -0.30767591     0             -0.26992925    -0.0016486609 
   5409000   0.050552455   -0.30803634     0             -0.26779974    -0.0019787725 
   5410000   0.05018492    -0.30668354     0             -0.26673948    -0.0065256813 
   5411000   0.048887135   -0.30860894     0             -0.26969783    -0.0019335858 
   5412000   0.050448882   -0.30853918     0             -0.26838502     0.0037138497 
   5413000   0.051230099   -0.30200172     0             -0.26122576     0.0009637461 
   5414000   0.0498389     -0.30953054     0             -0.2698619      0.00046448217
   5415000   0.04975033    -0.3009454      0             -0.26134724     0.0079932687 
   5416000   0.049780665   -0.30873812     0             -0.26911582     0.00084140623
   5417000   0.053138799   -0.30821087     0             -0.26591571     0.00049832546
   5418000   0.04954861    -0.30424923     0             -0.26481163     0.0081588831 
   5419000   0.047893921   -0.30897354     0             -0.27085297    -0.0063850295 
   5420000   0.05195418    -0.30814543     0             -0.26679315    -0.0022051819 
   5421000   0.050860364   -0.30245656     0             -0.26197489    -0.0024618155 
   5422000   0.05018206    -0.30767533     0             -0.26773354    -0.0075432145 
   5423000   0.050686289   -0.30250965     0             -0.26216653     0.0021676916 
   5424000   0.048222354   -0.3087775      0             -0.27039553    -0.0021720126 
   5425000   0.050748768   -0.30939019     0             -0.26899735    -0.0069657278 
   5426000   0.051613325   -0.30940546     0             -0.26832448    -0.0044029011 
   5427000   0.051818976   -0.30889539     0             -0.26765072     0.00337377   
   5428000   0.05105982    -0.30838968     0             -0.26774925    -0.00017729045
   5429000   0.048948022   -0.30750273     0             -0.26854317    -0.0042966532 
   5430000   0.049144396   -0.30727638     0             -0.26816052     0.0063313114 
   5431000   0.048534876   -0.30740119     0             -0.26877046    -0.00263353   
   5432000   0.050280078   -0.30761123     0             -0.26759143    -0.001676542  
   5433000   0.051918924   -0.30848738     0             -0.26716316     0.0028266168 
   5434000   0.049229105   -0.30732981     0             -0.26814652     0.0041883436 
   5435000   0.050026007   -0.30708682     0             -0.26726925     0.0022485086 
   5436000   0.049072819   -0.30650895     0             -0.26745006    -0.0044703037 
   5437000   0.048821034   -0.30795767     0             -0.26909917     0.0033854143 
   5438000   0.048385621   -0.30824394     0             -0.26973201     0.0011881164 
   5439000   0.050773309   -0.30344513     0             -0.26303275     0.0013270113 
   5440000   0.051077216   -0.30866233     0             -0.26800806    -0.00045529984
   5441000   0.048999887   -0.30960194     0             -0.2706011     -0.0020639149 
   5442000   0.04928585    -0.3092818      0             -0.27005335     0.0018603547 
   5443000   0.050321991   -0.30823744     0             -0.26818428     0.0067131501 
   5444000   0.047779989   -0.30908949     0             -0.27105961    -0.0023981103 
   5445000   0.048888344   -0.30849652     0             -0.26958446    -0.0063915504 
   5446000   0.052383123   -0.30938827     0             -0.26769458     0.0049033896 
   5447000   0.048756591   -0.3084617      0             -0.2696545     -0.0018538917 
   5448000   0.053607324   -0.30971671     0             -0.26704863    -0.0038397892 
   5449000   0.050740748   -0.30707383     0             -0.26668736     0.0006705217 
   5450000   0.048629264   -0.30913874     0             -0.27043288    -0.0057762646 
   5451000   0.0483914     -0.30927431     0             -0.27075778     0.0043842455 
   5452000   0.049374161   -0.30819645     0             -0.2688977      0.0021062    
   5453000   0.048157582   -0.30942688     0             -0.27109645    -0.0043917519 
   5454000   0.050947248   -0.3089877      0             -0.26843687     0.0033478017 
   5455000   0.048871602   -0.30967589     0             -0.27077715    -0.00095284727
   5456000   0.050302428   -0.3088043      0             -0.26876671     0.0051696362 
   5457000   0.048566849   -0.30830894     0             -0.26965277     0.0060123662 
   5458000   0.048603643   -0.30873974     0             -0.27005428     0.0025736387 
   5459000   0.049919852   -0.30714028     0             -0.2674072     -0.00035258592
   5460000   0.051266555   -0.30400195     0             -0.26319697    -0.0015194789 
   5461000   0.050899485   -0.30753352     0             -0.26702071     0.00068306527
   5462000   0.050570696   -0.3067399      0             -0.26648879     0.0066255049 
   5463000   0.050210238   -0.30655288     0             -0.26658867    -0.0029283384 
   5464000   0.051041998   -0.30750969     0             -0.26688345     0.00019138559
   5465000   0.050778814   -0.30106459     0             -0.26064783     0.0019766797 
   5466000   0.050596302   -0.30833155     0             -0.26806005     0.0015585908 
   5467000   0.049186669   -0.30841555     0             -0.26926603    -0.0038928977 
   5468000   0.049709272   -0.30764408     0             -0.26807861     0.0012504028 
   5469000   0.048060127   -0.3074168      0             -0.26916394     0.0044964488 
   5470000   0.049969397   -0.30098468     0             -0.26121217     0.00012122961
   5471000   0.047356298   -0.30727446     0             -0.2695818     -0.0042661495 
   5472000   0.049847777   -0.3055495      0             -0.26587379    -0.00264069   
   5473000   0.047951706   -0.30689009     0             -0.26872353     0.0022146897 
   5474000   0.051139179   -0.30699478     0             -0.26629119    -0.0024545346 
   5475000   0.049826549   -0.30697073     0             -0.26731191    -0.0049211789 
   5476000   0.050674775   -0.30753096     0             -0.26719701     0.010537576  
   5477000   0.049803905   -0.30698592     0             -0.26734513     0.0015960847 
   5478000   0.049473565   -0.30691631     0             -0.26753844    -0.0079086298 
   5479000   0.049571174   -0.30759756     0             -0.26814201    -0.0041883614 
   5480000   0.051741283   -0.30765216     0             -0.26646933     0.00529864   
   5481000   0.048537403   -0.30891736     0             -0.27028462    -0.005562496  
   5482000   0.047623199   -0.30870535     0             -0.27080026     0.0024812879 
   5483000   0.050195459   -0.30238497     0             -0.26243253    -0.0050529677 
   5484000   0.050162076   -0.30842869     0             -0.26850281     0.00095190783
   5485000   0.050969037   -0.30668886     0             -0.26612069     0.0047717569 
   5486000   0.051194685   -0.3084676      0             -0.26771983    -0.006484438  
   5487000   0.047702107   -0.30732756     0             -0.26935966     0.0012341313 
   5488000   0.050490946   -0.30389905     0             -0.26371141    -0.0085560301 
   5489000   0.053841103   -0.30825708     0             -0.26540293    -0.0020573018 
   5490000   0.049326678   -0.30813301     0             -0.26887205    -0.0016044603 
   5491000   0.051303977   -0.30768331     0             -0.26684855    -0.01177352   
   5492000   0.052169556   -0.30715285     0             -0.26562915     0.0022624061 
   5493000   0.050890517   -0.3071622      0             -0.26665653     0.0031043465 
   5494000   0.049395682   -0.30648505     0             -0.26716918     0.0022180799 
   5495000   0.048867669   -0.30817806     0             -0.26928245     0.0068531102 
   5496000   0.049460338   -0.30705014     0             -0.2676828     -0.00098011473
   5497000   0.051127444   -0.30830154     0             -0.26760729     0.00081514937
   5498000   0.051435758   -0.30736249     0             -0.26642284     0.0024936429 
   5499000   0.050546482   -0.30791371     0             -0.26768187    -0.006115231  
   5500000   0.050709309   -0.3084333      0             -0.26807186    -3.6496803e-05
   5501000   0.049573823   -0.30830686     0             -0.2688492     -0.0033018126 
   5502000   0.049156883   -0.3084608      0             -0.26933499     0.003589677  
   5503000   0.050361015   -0.30731635     0             -0.26723213    -0.0008334997 
   5504000   0.054412195   -0.30831846     0             -0.26500975     0.0044988657 
   5505000   0.0520123     -0.3091212      0             -0.26772266     0.0035274124 
   5506000   0.050263924   -0.30805229     0             -0.26804534    -0.0017349057 
   5507000   0.050756624   -0.30869153     0             -0.26829243    -0.00016175462
   5508000   0.051328984   -0.30915913     0             -0.26830446     0.0031084727 
   5509000   0.047936551   -0.30759056     0             -0.26943606     0.0093438786 
   5510000   0.049842114   -0.30928833     0             -0.26961712     0.0024574538 
   5511000   0.05093753    -0.30227861     0             -0.26173552     0.0049133966 
   5512000   0.051169924   -0.30866838     0             -0.26794031     0.0036922413 
   5513000   0.050621833   -0.30677839     0             -0.26648657     0.0034897767 
   5514000   0.047895712   -0.30794041     0             -0.26981841    -0.0068204922 
   5515000   0.049512208   -0.30623032     0             -0.2668217     -0.0034886254 
   5516000   0.052377249   -0.30589503     0             -0.26420601     0.0036227891 
   5517000   0.048524896   -0.30551448     0             -0.26689169     0.0029589473 
   5518000   0.048027921   -0.30065368     0             -0.26242646     0.00092363754
   5519000   0.050234443   -0.2974863      0             -0.25750283     0.00014747148
   5520000   0.051706026   -0.30536439     0             -0.26420963     0.0040886511 
   5521000   0.049266595   -0.30600269     0             -0.26678955    -0.0024107434 
   5522000   0.049942477   -0.30731783     0             -0.26756674    -0.0053880798 
   5523000   0.050971867   -0.3068085      0             -0.26623808     0.00064852102
   5524000   0.049264403   -0.30489938     0             -0.26568799     0.00016284802
   5525000   0.050405193   -0.3051668      0             -0.26504742    -0.0018389334 
   5526000   0.050299192   -0.30424833     0             -0.26421332     0.00036570502
   5527000   0.053549301   -0.30619153     0             -0.26356963     0.001582055  
   5528000   0.051164169   -0.30703915     0             -0.26631567     0.0038953732 
   5529000   0.05047783    -0.30641982     0             -0.26624263     0.00016952916
   5530000   0.05301924    -0.30686641     0             -0.26466641    -0.0020679298 
   5531000   0.050728033   -0.30724333     0             -0.26686699     0.004505838  
   5532000   0.0508108     -0.30713833     0             -0.2666961      0.0020235262 
   5533000   0.048242595   -0.30749265     0             -0.26909456     0.0042131424 
   5534000   0.050028013   -0.30770643     0             -0.26788726     0.0038201398 
   5535000   0.05182515    -0.30110697     0             -0.25985739     0.0029294548 
   5536000   0.047843594   -0.3075627      0             -0.26948219     0.0043905679 
   5537000   0.052062811   -0.30686465     0             -0.26542591    -0.00081801492
   5538000   0.048333245   -0.307194       0             -0.26872375    -0.007198784  
   5539000   0.049591226   -0.30689676     0             -0.26742524     0.00471064   
   5540000   0.051008248   -0.30730635     0             -0.26670697    -0.0017420141 
   5541000   0.052909797   -0.30327336     0             -0.26116047    -0.0054082404 
   5542000   0.051763793   -0.30614347     0             -0.26494272    -0.0020795035 
   5543000   0.050135754   -0.30606461     0             -0.26615969    -0.0061332446 
   5544000   0.049942988   -0.2966831      0             -0.2569316      0.0026186116 
   5545000   0.048614233   -0.30832387     0             -0.26962998     0.0018143936 
   5546000   0.052576469   -0.30609281     0             -0.26424522    -0.0045337448 
   5547000   0.048465608   -0.30838324     0             -0.26980765     0.0072355606 
   5548000   0.052591417   -0.30825191     0             -0.26639243     0.0034445328 
   5549000   0.050589915   -0.30847985     0             -0.26821344    -0.0019445713 
   5550000   0.048936955   -0.30792496     0             -0.2689742      0.0013214895 
   5551000   0.050068157   -0.30694576     0             -0.26709464    -0.0030578546 
   5552000   0.052424801   -0.30807099     0             -0.26634412    -0.0029931677 
   5553000   0.050581399   -0.3075613      0             -0.26730167    -0.0032042115 
   5554000   0.050465974   -0.30745421     0             -0.26728644    -0.00042686742
   5555000   0.050635065   -0.30644282     0             -0.26614048     0.0024712773 
   5556000   0.050563811   -0.30789619     0             -0.26765056     0.003778796  
   5557000   0.051020339   -0.30817406     0             -0.26756506     0.00055195213
   5558000   0.05034848    -0.30557563     0             -0.26550139    -0.007286568  
   5559000   0.051272547   -0.30814358     0             -0.26733384    -0.0081813274 
   5560000   0.050882063   -0.30802286     0             -0.26752391    -0.0045790308 
   5561000   0.04821797    -0.30706827     0             -0.26868978     0.0061520893 
   5562000   0.04997898    -0.30876893     0             -0.26898878    -0.0013866277 
   5563000   0.052921574   -0.3070311      0             -0.26490883    -0.00051079631
   5564000   0.049248868   -0.30763996     0             -0.26844094     0.0036242239 
   5565000   0.050599035   -0.30806418     0             -0.26779051     0.007012526  
   5566000   0.049852396   -0.30807563     0             -0.26839624    -0.003388402  
   5567000   0.050977894   -0.30880549     0             -0.26823027     0.00044399312
   5568000   0.051623223   -0.3090609      0             -0.26797204    -0.00373063   
   5569000   0.049508913   -0.3074561      0             -0.2680501     -0.0033799362 
   5570000   0.051587597   -0.30767462     0             -0.26661411     0.003590389  
   5571000   0.049760481   -0.30898568     0             -0.26937945    -0.0046972284 
   5572000   0.050397322   -0.30776959     0             -0.26765648    -0.0028987293 
   5573000   0.049289364   -0.30786024     0             -0.26862899    -0.0018672211 
   5574000   0.053009617   -0.30765026     0             -0.26545792    -0.00068331383
   5575000   0.049596066   -0.30868826     0             -0.26921289    -0.00012773872
   5576000   0.051168298   -0.30840227     0             -0.2676755      0.0024684194 
   5577000   0.048482011   -0.30876339     0             -0.27017474    -0.0017145894 
   5578000   0.053300188   -0.3080719      0             -0.26564829     0.0052747219 
   5579000   0.050654464   -0.30853824     0             -0.26822045    -0.0053019222 
   5580000   0.051869484   -0.30862818     0             -0.26734332    -0.0015019464 
   5581000   0.048329601   -0.3097396      0             -0.27127225     0.0038804659 
   5582000   0.051788553   -0.30863223     0             -0.26741178     0.0036595304 
   5583000   0.050084568   -0.30307576     0             -0.26321157     0.0066687299 
   5584000   0.049319159   -0.30891973     0             -0.26966476     0.00054315746
   5585000   0.049531907   -0.30918067     0             -0.26975637     0.00016329304
   5586000   0.046930828   -0.30985982     0             -0.27250581     0.0051103274 
   5587000   0.053485374   -0.30944646     0             -0.26687544    -0.0019098692 
   5588000   0.049782909   -0.30853516     0             -0.26891107    -0.0032299075 
   5589000   0.0482523     -0.31001762     0             -0.2716118     -0.0018964985 
   5590000   0.049303791   -0.30899382     0             -0.26975108    -0.00085414285
   5591000   0.051403327   -0.29590963     0             -0.2549958      0.0029325479 
   5592000   0.051666672   -0.30958791     0             -0.26846447     0.0064563912 
   5593000   0.048576266   -0.30812596     0             -0.26946228    -0.00075252183
   5594000   0.05144482    -0.30939872     0             -0.26845186     0.0010631267 
   5595000   0.050676248   -0.30764832     0             -0.2673132     -0.00021090896
   5596000   0.051639458   -0.30808395     0             -0.26698217     0.0078259223 
   5597000   0.049432226   -0.30893815     0             -0.26959319    -0.0031629423 
   5598000   0.051345992   -0.30924264     0             -0.26837444     0.0022750214 
   5599000   0.048901247   -0.30931762     0             -0.27039528    -0.0026983969 
   5600000   0.051747414   -0.30789321     0             -0.2667055     -0.0008286026 
   5601000   0.049153419   -0.30865901     0             -0.26953596     0.0037042981 
   5602000   0.049512528   -0.30823955     0             -0.26883067    -0.0063686222 
   5603000   0.04970548    -0.31011143     0             -0.27054897     0.00032952249
   5604000   0.05060924    -0.30721525     0             -0.26693346    -0.011832406  
   5605000   0.047804546   -0.30728708     0             -0.26923765     0.0086445622 
   5606000   0.048161484   -0.30774496     0             -0.26941143    -0.012213946  
   5607000   0.050744138   -0.30915822     0             -0.26876906     0.0057532487 
   5608000   0.04884683    -0.30725911     0             -0.26838008    -0.002006511  
   5609000   0.049681563   -0.3028884      0             -0.26334498    -0.00027039567
   5610000   0.049486045   -0.30758284     0             -0.26819504    -0.0038037313 
   5611000   0.054436932   -0.3065226      0             -0.2631942      0.007766303  
   5612000   0.047881698   -0.30520014     0             -0.2670893     -4.964754e-06 
   5613000   0.050454713   -0.30825692     0             -0.26809812     0.0060513852 
   5614000   0.051472924   -0.30703323     0             -0.266064       0.0050759455 
   5615000   0.050407301   -0.30589601     0             -0.26577495     0.0074387258 
   5616000   0.049816761   -0.30669044     0             -0.26703941     0.0042247839 
   5617000   0.049000643   -0.30636485     0             -0.2673634      0.005064276  
   5618000   0.048555665   -0.30783054     0             -0.26918326    -0.003424492  
   5619000   0.05081579    -0.30695315     0             -0.26650695     0.0072682777 
   5620000   0.050682138   -0.30670975     0             -0.26636994    -0.0044541154 
   5621000   0.050595667   -0.29097224     0             -0.25070125    -0.00071845391
   5622000   0.049866616   -0.30729353     0             -0.26760282    -0.00080231727
   5623000   0.050545778   -0.30475798     0             -0.2645267      0.00087338233
   5624000   0.048988487   -0.30131159     0             -0.26231982    -0.0016744804 
   5625000   0.050171281   -0.30582838     0             -0.26589517    -0.0082759581 
   5626000   0.048071929   -0.30475303     0             -0.26649078    -0.0013339217 
   5627000   0.049455134   -0.3041864      0             -0.2648232      0.0020010339 
   5628000   0.050470624   -0.29994566     0             -0.2597742     -0.00030709441
   5629000   0.049851348   -0.30280347     0             -0.26312491    -0.0012305164 
   5630000   0.051070732   -0.30229024     0             -0.26164112    -0.0028719787 
   5631000   0.050298596   -0.30348099     0             -0.26344645     0.011974127  
   5632000   0.050090908   -0.30364629     0             -0.26377706    -0.0043726074 
   5633000   0.050767357   -0.30353276     0             -0.26312512    -0.0016704755 
   5634000   0.05006754    -0.30346359     0             -0.26361295     0.0050543343 
   5635000   0.050938415   -0.30151278     0             -0.26096899    -0.0037786677 
   5636000   0.051901898   -0.30471614     0             -0.26340547     0.0052140279 
   5637000   0.050488996   -0.30382652     0             -0.26364043     0.00030205462
   5638000   0.04999637    -0.30352957     0             -0.26373558    -0.0079081133 
   5639000   0.049690177   -0.303857       0             -0.26430673     0.00091759644
   5640000   0.053985984   -0.3053496      0             -0.26238013     0.0031717051 
   5641000   0.050358507   -0.30413524     0             -0.26405302    -0.0022858714 
   5642000   0.049748385   -0.30346578     0             -0.26386917    -0.0064892486 
   5643000   0.052303583   -0.30569516     0             -0.26406478     0.0050927654 
   5644000   0.050385147   -0.30451783     0             -0.26441441    -0.0059445858 
   5645000   0.051434722   -0.30512357     0             -0.26418475    -0.0024572618 
   5646000   0.049478238   -0.29910592     0             -0.25972433     0.001840017  
   5647000   0.050942216   -0.30540684     0             -0.26486002    -0.0038246856 
   5648000   0.050781381   -0.30427213     0             -0.26385333    -0.0043885983 
   5649000   0.049133429   -0.29931406     0             -0.26020692     0.0024863273 
   5650000   0.04685883    -0.3047994      0             -0.2675027      0.0017323496 
   5651000   0.049049338   -0.30579334     0             -0.26675314     0.00097762232
   5652000   0.049348525   -0.30233863     0             -0.26306029    -0.0010651064 
   5653000   0.050285432   -0.30464629     0             -0.26462223     0.0078094794 
   5654000   0.049095784   -0.30425126     0             -0.26517409     0.0054709756 
   5655000   0.04942128    -0.30504316     0             -0.26570691     0.0046361485 
   5656000   0.04828771    -0.30533394     0             -0.26689994     0.0036123676 
   5657000   0.049930971   -0.3055104      0             -0.26576847     0.0097585339 
   5658000   0.051513776   -0.30383786     0             -0.26283612     0.0026240615 
   5659000   0.047806125   -0.30428708     0             -0.26623639     0.0015432223 
   5660000   0.048825718   -0.3044707      0             -0.26560848    -0.0037341373 
   5661000   0.051050301   -0.30401829     0             -0.26338544     0.0007034926 
   5662000   0.050718744   -0.30520201     0             -0.26483306     0.0048963818 
   5663000   0.049970912   -0.30457431     0             -0.26480059    -0.0064289755 
   5664000   0.050680659   -0.29717304     0             -0.25683441    -0.0065668142 
   5665000   0.051759336   -0.30512101     0             -0.26392381     0.0040717743 
   5666000   0.051024666   -0.30478504     0             -0.26417259     0.0041445538 
   5667000   0.04865615    -0.30424391     0             -0.26551665     0.00093134547
   5668000   0.050929131   -0.3055387      0             -0.2650023      0.0023752633 
   5669000   0.051042749   -0.30606629     0             -0.26543945     0.0027293425 
   5670000   0.049927455   -0.30569739     0             -0.26595825    -0.002461597  
   5671000   0.05112338    -0.30577243     0             -0.26508141     0.006775466  
   5672000   0.047934671   -0.30548487     0             -0.26733186    -0.0029347384 
   5673000   0.051095421   -0.30648972     0             -0.26582096     0.0020303276 
   5674000   0.050884117   -0.30329762     0             -0.26279705     0.0092105513 
   5675000   0.047158271   -0.3000241      0             -0.26248906    -0.0035320029 
   5676000   0.049832805   -0.30300198     0             -0.26333818     0.00052193267
   5677000   0.050923723   -0.30593277     0             -0.26540067     0.0025493487 
   5678000   0.051078517   -0.30515311     0             -0.2644978      0.0062057192 
   5679000   0.04709905    -0.30522577     0             -0.26773787    -0.008105808  
   5680000   0.051740729   -0.30572094     0             -0.26453855     0.0081820806 
   5681000   0.0496217     -0.30303115     0             -0.26353538    -0.00043038568
   5682000   0.049963262   -0.29904307     0             -0.25927544     0.0094577329 
   5683000   0.046711218   -0.30420867     0             -0.26702946     0.0068390468 
   5684000   0.050140596   -0.30576235     0             -0.26585357     0.014306582  
   5685000   0.051120336   -0.30486724     0             -0.26417865    -0.0013393088 
   5686000   0.050653618   -0.30604157     0             -0.26572446     0.0015082083 
   5687000   0.049536409   -0.29856215     0             -0.25913426    -0.00073000371
   5688000   0.050219313   -0.30539894     0             -0.26542751     0.0054007444 
   5689000   0.051463431   -0.29987285     0             -0.25891117    -0.0018664985 
   5690000   0.05114278    -0.30245305     0             -0.26174659     0.010117458  
   5691000   0.053759847   -0.306308       0             -0.26351852     0.0045873024 
   5692000   0.051854189   -0.30592317     0             -0.26465048    -0.00063949438
   5693000   0.049465412   -0.30690025     0             -0.26752887    -0.00043093129
   5694000   0.050198926   -0.30633925     0             -0.26638404    -0.0013448923 
   5695000   0.051505708   -0.30795448     0             -0.26695916     0.0035802823 
   5696000   0.050244036   -0.29421288     0             -0.25422177     0.0087442326 
   5697000   0.052409601   -0.30670992     0             -0.26499515    -0.0011736564 
   5698000   0.051347865   -0.3049516      0             -0.26408191     0.0017770162 
   5699000   0.050234186   -0.3083456      0             -0.26836232    -0.00084911337
   5700000   0.049376115   -0.30619068     0             -0.26689037    -0.0068865905 
   5701000   0.047858844   -0.30564542     0             -0.26755277    -0.0084743773 
   5702000   0.05048014    -0.30693732     0             -0.26675829     0.0022526277 
   5703000   0.049405984   -0.30145001     0             -0.26212594    -0.0099118952 
   5704000   0.051190645   -0.30740423     0             -0.26665968    -0.0029578794 
   5705000   0.050384303   -0.30708776     0             -0.266985      -0.0012978679 
   5706000   0.051316957   -0.30649546     0             -0.26565037     0.0034057209 
   5707000   0.04965335    -0.30796018     0             -0.26843921    -0.0019460251 
   5708000   0.049383184   -0.30817889     0             -0.26887297     0.0033107264 
   5709000   0.048194148   -0.30171309     0             -0.26335356    -0.0036207095 
   5710000   0.050830227   -0.30669455     0             -0.26623687     0.0023317511 
   5711000   0.049704401   -0.306706       0             -0.2671444     -0.00082862806
   5712000   0.048724143   -0.30741936     0             -0.26863798     0.0030074773 
   5713000   0.050741296   -0.30903441     0             -0.26864751     0.0050826679 
   5714000   0.049962904   -0.30771844     0             -0.26795109     0.0042954515 
   5715000   0.050688542   -0.30847145     0             -0.26812654     0.00038369816
   5716000   0.05124742    -0.30821354     0             -0.2674238     -0.00084017364
   5717000   0.051841997   -0.30208237     0             -0.26081938     0.0037244261 
   5718000   0.049485419   -0.3067423      0             -0.267355      -0.0033036004 
   5719000   0.049365625   -0.3079333      0             -0.26864134    -0.0029981966 
   5720000   0.052922734   -0.30734868     0             -0.26522549     0.0057184809 
   5721000   0.050580147   -0.30442114     0             -0.26416251    -0.0062309081 
   5722000   0.049098842   -0.30810218     0             -0.26902257    -0.002577545  
   5723000   0.051627223   -0.30739038     0             -0.26629834    -0.0024780322 
   5724000   0.048405579   -0.30770373     0             -0.26917592    -0.00548052   
   5725000   0.047170822   -0.30161914     0             -0.26407411     0.003581343  
   5726000   0.049802656   -0.30725465     0             -0.26761485     0.0044476283 
   5727000   0.050747437   -0.30771384     0             -0.26732206     0.0034472032 
   5728000   0.050629562   -0.30719623     0             -0.26689826     0.0018366534 
   5729000   0.049458992   -0.30806713     0             -0.26870086    -0.00041537647
   5730000   0.051649092   -0.29996974     0             -0.25886029    -0.0016031633 
   5731000   0.051175119   -0.30602816     0             -0.26529596    -0.0041350976 
   5732000   0.050687935   -0.3089512      0             -0.26860677    -0.0022986328 
   5733000   0.049221458   -0.30775521     0             -0.268578      -0.0014043924 
   5734000   0.048101612   -0.30192555     0             -0.26363967     0.0022155408 
   5735000   0.050748669   -0.30836698     0             -0.26797421    -0.0020411358 
   5736000   0.052254975   -0.30084778     0             -0.25925609    -0.0027441266 
   5737000   0.04999726    -0.30725861     0             -0.26746392    -0.0013160737 
   5738000   0.051995631   -0.30589545     0             -0.26451018    -0.00056412454
   5739000   0.048027779   -0.30777212     0             -0.26954501    -0.00385994   
   5740000   0.04972628    -0.30802754     0             -0.26844853     0.0018637997 
   5741000   0.047743796   -0.3074057      0             -0.26940462     0.00089011333
   5742000   0.049146803   -0.30929889     0             -0.27018111     0.004447644  
   5743000   0.051920042   -0.30859312     0             -0.26726801     0.0031415686 
   5744000   0.050240275   -0.30795233     0             -0.26796421    -0.00020941082
   5745000   0.04890586    -0.30582914     0             -0.26690313     0.0043096314 
   5746000   0.051702052   -0.30919332     0             -0.26804172     0.0048095779 
   5747000   0.051845928   -0.30901801     0             -0.2677519     -0.0039477596 
   5748000   0.049131658   -0.30940229     0             -0.27029656     0.0031663157 
   5749000   0.051249423   -0.30887745     0             -0.26808611    -0.0046422839 
   5750000   0.048965166   -0.30964803     0             -0.27067482    -0.0030450118 
   5751000   0.050372458   -0.30989481     0             -0.26980149    -0.0013536884 
   5752000   0.048269831   -0.30970252     0             -0.27128275     0.0035890725 
   5753000   0.049321036   -0.30959334     0             -0.27033687     0.004117888  
   5754000   0.049662645   -0.30919491     0             -0.26966655    -0.0016726875 
   5755000   0.053465969   -0.30941501     0             -0.26685944    -0.006355481  
   5756000   0.050718953   -0.30955084     0             -0.26918172    -0.00054881653
   5757000   0.049030144   -0.30870759     0             -0.26968266     0.0021301039 
   5758000   0.051488168   -0.31051454     0             -0.26953318     0.0018253229 
   5759000   0.049346289   -0.30875204     0             -0.26947548    -0.0010119347 
   5760000   0.048254396   -0.30966504     0             -0.27125755    -0.0055231509 
   5761000   0.048818996   -0.30943387     0             -0.270577      -0.0024745298 
   5762000   0.050675939   -0.31049015     0             -0.27015526    -0.0068245345 
   5763000   0.05353293    -0.30326285     0             -0.26065399     0.002075316  
   5764000   0.050692533   -0.30938314     0             -0.26903505    -0.00028512782
   5765000   0.050235821   -0.31073789     0             -0.27075331    -0.0092160386 
   5766000   0.050520363   -0.30509175     0             -0.2648807      0.0046997191 
   5767000   0.050457207   -0.30867808     0             -0.26851729    -0.0061488918 
   5768000   0.051770077   -0.3058915      0             -0.26468576     0.0027161427 
   5769000   0.048670499   -0.30943867     0             -0.27069999     0.0041515864 
   5770000   0.049231358   -0.30085875     0             -0.26167366    -0.0047311501 
   5771000   0.05052475    -0.30848031     0             -0.26826576    -0.011017511  
   5772000   0.049053058   -0.3087825      0             -0.26973933     0.0012985729 
   5773000   0.049704885   -0.3074917      0             -0.26792972     0.00084633521
   5774000   0.050959025   -0.30767157     0             -0.26711137     0.0049533809 
   5775000   0.049740186   -0.30101249     0             -0.26142241    -0.0049028221 
   5776000   0.049777784   -0.30714896     0             -0.26752896     0.00036349285
   5777000   0.048792429   -0.30721752     0             -0.26838179    -0.0038501316 
   5778000   0.051914922   -0.30719822     0             -0.26587719     4.5382146e-05
   5779000   0.050037877   -0.30651094     0             -0.26668391    -0.0058393133 
   5780000   0.048547598   -0.30815037     0             -0.26950952     0.0028805892 
   5781000   0.04823252    -0.30798584     0             -0.26959577    -0.0040461455 
   5782000   0.049615577   -0.30706371     0             -0.26757281    -0.0029729983 
   5783000   0.0514773     -0.30692812     0             -0.26595541     0.0033443911 
   5784000   0.047074121   -0.30838695     0             -0.27091889    -0.0049730179 
   5785000   0.049318496   -0.30813667     0             -0.26888223     5.2899705e-05
   5786000   0.050924542   -0.30837264     0             -0.26783989     0.0024776418 
   5787000   0.053133458   -0.30677887     0             -0.26448796    -0.0046493569 
   5788000   0.045972292   -0.30820326     0             -0.27161219     0.0059659867 
   5789000   0.050925451   -0.30817396     0             -0.26764048     0.0046023464 
   5790000   0.050371626   -0.30698768     0             -0.26689501    -0.0020087135 
   5791000   0.050335721   -0.30694408     0             -0.26688        0.0067130968 
   5792000   0.049784703   -0.30087146     0             -0.26124595     0.0088102091 
   5793000   0.049389345   -0.30655904     0             -0.2672482     -0.0021945276 
   5794000   0.05050064    -0.30050942     0             -0.26031407    -0.0028198255 
   5795000   0.050099973   -0.30726864     0             -0.26739219    -0.0033339944 
   5796000   0.051881791   -0.2972166      0             -0.25592194     0.0043852646 
   5797000   0.052498167   -0.30552761     0             -0.26374236    -0.002409545  
   5798000   0.048137612   -0.30852385     0             -0.27020932    -0.0035563184 
   5799000   0.050201599   -0.30573213     0             -0.2657748     -0.0021667621 
   5800000   0.050565731   -0.30667807     0             -0.2664309      0.0015160016 
   5801000   0.051831452   -0.30725466     0             -0.26600006     0.0012130346 
   5802000   0.048839401   -0.30628156     0             -0.26740845     0.0069172199 
   5803000   0.05124043    -0.30584512     0             -0.26506094    -0.0018935583 
   5804000   0.050005231   -0.30706967     0             -0.26726863    -0.0084842726 
   5805000   0.04986109    -0.30716694     0             -0.26748063     0.00071420597
   5806000   0.049039275   -0.3065534      0             -0.2675212     -0.0060370975 
   5807000   0.050838084   -0.30673844     0             -0.2662745      0.0045584297 
   5808000   0.049812474   -0.30675556     0             -0.26710795     0.0032152113 
   5809000   0.050938732   -0.30667801     0             -0.26613396    -0.0055886801 
   5810000   0.048635629   -0.30654136     0             -0.26783044     0.004207698  
   5811000   0.049268258   -0.30729386     0             -0.2680794      0.01419411   
   5812000   0.049391434   -0.30696648     0             -0.26765399    -0.0014301554 
   5813000   0.052926454   -0.30574411     0             -0.26361796     0.002274978  
   5814000   0.052112219   -0.3073169      0             -0.26583883     0.0097098521 
   5815000   0.050706055   -0.30754881     0             -0.26718996    -0.0032519263 
   5816000   0.050352719   -0.30587756     0             -0.26579994    -0.0034400129 
   5817000   0.050621797   -0.30140584     0             -0.26111405    -0.004759485  
   5818000   0.048851586   -0.30644841     0             -0.2675656     -0.0012815618 
   5819000   0.050677503   -0.30665226     0             -0.26631614    -0.0067276661 
   5820000   0.049389556   -0.3073717      0             -0.2680607      0.005858452  
   5821000   0.048513999   -0.30737623     0             -0.26876212     0.0016395753 
   5822000   0.049439374   -0.30646124     0             -0.26711059    -0.0050969879 
   5823000   0.051285161   -0.30663778     0             -0.26581799    -0.002435178  
   5824000   0.050585752   -0.30003884     0             -0.25977575     0.0014833759 
   5825000   0.052644088   -0.30299883     0             -0.26109742    -0.00082650603
   5826000   0.052411556   -0.30665008     0             -0.26493376    -0.0042115807 
   5827000   0.048836421   -0.30641359     0             -0.26754285     0.0096295121 
   5828000   0.051937008   -0.30661566     0             -0.26527705     0.0029171572 
   5829000   0.050894759   -0.30583467     0             -0.26532562    -0.0045866713 
   5830000   0.048598825   -0.30672827     0             -0.26804664     0.0064150411 
   5831000   0.05086255    -0.3071098      0             -0.26662639    -0.0063924375 
   5832000   0.049209494   -0.30490811     0             -0.26574042     0.0019842122 
   5833000   0.048992763   -0.30024804     0             -0.26125286    -0.0042730848 
   5834000   0.050051101   -0.30597593     0             -0.26613838     0.00071765018
   5835000   0.049105956   -0.30662774     0             -0.26754247    -0.0023393865 
   5836000   0.052259885   -0.30644502     0             -0.26484942    -0.0045745792 
   5837000   0.051277786   -0.30623264     0             -0.26541872     0.0039794957 
   5838000   0.050835034   -0.3061673      0             -0.26570579     0.001496028  
   5839000   0.049109108   -0.3055347      0             -0.26644692    -0.001322861  
   5840000   0.050210118   -0.30711518     0             -0.26715107     0.0048422444 
   5841000   0.050168562   -0.30672101     0             -0.26678997     0.0024656828 
   5842000   0.050897956   -0.306134       0             -0.26562241     0.0018833882 
   5843000   0.049768793   -0.30716387     0             -0.26755102     0.0043384223 
   5844000   0.049727908   -0.3078234      0             -0.26824309    -0.00024017751
   5845000   0.050435655   -0.30423566     0             -0.26409203    -0.0013896795 
   5846000   0.049640917   -0.30699059     0             -0.26747953    -0.0032847819 
   5847000   0.049898003   -0.28812833     0             -0.24841263    -0.0015418386 
   5848000   0.049589659   -0.30631149     0             -0.26684122     0.003580008  
   5849000   0.050750661   -0.3069961      0             -0.26660175     0.0026123654 
   5850000   0.048499642   -0.3060139      0             -0.26741121     0.0037816694 
   5851000   0.04906406    -0.30542837     0             -0.26637644     0.00020927182
   5852000   0.047749686   -0.30757794     0             -0.26957217    -0.003061412  
   5853000   0.049587139   -0.30684774     0             -0.26737947    -0.0064389377 
   5854000   0.048840787   -0.3081109      0             -0.26923669     0.0014259273 
   5855000   0.048536208   -0.30507605     0             -0.26644426     0.00029609772
   5856000   0.052540403   -0.30046731     0             -0.25864844     0.0070741433 
   5857000   0.05216523    -0.30654923     0             -0.26502897    -0.0010913933 
   5858000   0.051509543   -0.30505943     0             -0.26406106    -0.0016417057 
   5859000   0.052857457   -0.30735894     0             -0.26528771    -0.00042577103
   5860000   0.049947384   -0.30759927     0             -0.26784428     0.00067225392
   5861000   0.051770384   -0.30751374     0             -0.26630775     0.0032293644 
   5862000   0.050337075   -0.30688629     0             -0.26682112    -0.0013384856 
   5863000   0.052125747   -0.30432387     0             -0.26283503     0.006953201  
   5864000   0.050531092   -0.30656512     0             -0.26634553     0.0016392438 
   5865000   0.049811902   -0.30835432     0             -0.26870716    -0.0050101832 
   5866000   0.051301346   -0.30800812     0             -0.26717545    -0.00014110778
   5867000   0.049177793   -0.30725685     0             -0.2681144      0.0022298251 
   5868000   0.051236745   -0.30705268     0             -0.26627143    -0.0027944229 
   5869000   0.049647932   -0.3075257      0             -0.26800905     0.000241493  
   5870000   0.05057975    -0.3070119      0             -0.26675358    -0.0026977829 
   5871000   0.051908709   -0.30743405     0             -0.26611797     0.0078540215 
   5872000   0.049930731   -0.30450327     0             -0.26476153    -0.0049060161 
   5873000   0.048779161   -0.30725972     0             -0.26843456    -0.002189601  
   5874000   0.047987988   -0.30660449     0             -0.26840905    -0.0017934765 
   5875000   0.04947826    -0.30561933     0             -0.26623773    -0.0041297343 
   5876000   0.04904478    -0.3039388      0             -0.26490222     0.00031238198
   5877000   0.052337344   -0.30644051     0             -0.26478325    -0.005443841  
   5878000   0.049364478   -0.30654391     0             -0.26725287    -0.0085150492 
   5879000   0.048882742   -0.30654288     0             -0.26763527     0.003287798  
   5880000   0.047029558   -0.30480202     0             -0.26736943     0.0088237582 
   5881000   0.051414645   -0.30726774     0             -0.2663449     -0.0019647861 
   5882000   0.049585977   -0.30562438     0             -0.26615704     0.0060578689 
   5883000   0.049142636   -0.30501917     0             -0.26590471    -0.0015940249 
   5884000   0.050208635   -0.30090486     0             -0.26094193    -0.0053423311 
   5885000   0.050210298   -0.30372529     0             -0.26376103    -0.0016037157 
   5886000   0.051543311   -0.30431819     0             -0.26329293    -0.0038604772 
   5887000   0.050624902   -0.30378294     0             -0.26348868    -0.0010354819 
   5888000   0.048757221   -0.30233312     0             -0.26352542    -0.0059178172 
   5889000   0.049649221   -0.30255224     0             -0.26303456     0.0037986348 
   5890000   0.051497712   -0.30321512     0             -0.26222616     0.0033253813 
   5891000   0.049811429   -0.30466653     0             -0.26501974     0.0034653789 
   5892000   0.050713555   -0.30362117     0             -0.26325635    -0.0030360423 
   5893000   0.0503041     -0.30424759     0             -0.26420867     0.013592549  
   5894000   0.05158667    -0.30391731     0             -0.26285755    -0.0036265922 
   5895000   0.04944496    -0.30408983     0             -0.26473473     0.0038743157 
   5896000   0.050100544   -0.30189393     0             -0.26201702     0.0058342451 
   5897000   0.052026045   -0.303235       0             -0.26182552    -0.0058740817 
   5898000   0.049994482   -0.3028476      0             -0.26305512    -0.0031284797 
   5899000   0.048985211   -0.30331915     0             -0.26432998     0.00095290443
   5900000   0.049304154   -0.30359788     0             -0.26435485    -0.00089443738
   5901000   0.050608479   -0.30422248     0             -0.2639413      0.00015858631
   5902000   0.050250491   -0.29400813     0             -0.25401188     0.00071169351
   5903000   0.047527782   -0.30384813     0             -0.26601899     0.0029039076 
   5904000   0.049147005   -0.30429388     0             -0.26517594    -0.0030495812 
   5905000   0.051058167   -0.30297174     0             -0.26233263     0.0029165046 
   5906000   0.04985862    -0.30381735     0             -0.26413301    -0.00096858956
   5907000   0.048750545   -0.30346614     0             -0.26466375    -0.0010371276 
   5908000   0.050324353   -0.29705685     0             -0.25700181    -0.0032987179 
   5909000   0.051538801   -0.30384452     0             -0.26282285     0.0033088415 
   5910000   0.051392439   -0.30454316     0             -0.26363799     0.0067141464 
   5911000   0.049995911   -0.30343812     0             -0.2636445      0.00091889907
   5912000   0.050771525   -0.30396443     0             -0.26355347     0.0015122531 
   5913000   0.050546341   -0.30361384     0             -0.26338212     0.010634893  
   5914000   0.051247338   -0.30360331     0             -0.26281363    -0.0046592031 
   5915000   0.050725341   -0.30391306     0             -0.26353886    -0.0063629971 
   5916000   0.051370936   -0.30353796     0             -0.26264991    -0.0021536083 
   5917000   0.050885724   -0.30412731     0             -0.26362546     0.002833112  
   5918000   0.051856989   -0.30509075     0             -0.26381583    -0.009707551  
   5919000   0.053909632   -0.30453591     0             -0.26162721     0.0025800532 
   5920000   0.049573852   -0.30521233     0             -0.26575464    -0.0063352408 
   5921000   0.051881314   -0.30540995     0             -0.26411567     0.0031510253 
   5922000   0.050868646   -0.30586598     0             -0.26537772    -0.002707213  
   5923000   0.051922835   -0.30396552     0             -0.26263819    -0.0052702123 
   5924000   0.049345371   -0.30195161     0             -0.26267578     0.00029358778
   5925000   0.052225426   -0.29212181     0             -0.25055363    -0.0032669982 
   5926000   0.0513183     -0.30492116     0             -0.264075      -0.0037414245 
   5927000   0.04921459    -0.30603696     0             -0.26686522    -0.0033605644 
   5928000   0.05074749    -0.30515836     0             -0.26476653     0.003233072  
   5929000   0.051939994   -0.3057607      0             -0.26441971    -0.0035538484 
   5930000   0.052672765   -0.30347736     0             -0.26155313    -0.0094206422 
   5931000   0.049864265   -0.30539298     0             -0.26570414    -0.0033094168 
   5932000   0.048112548   -0.30407846     0             -0.26578388     0.0051892078 
   5933000   0.051027094   -0.30409131     0             -0.26347693     4.0045963e-05
   5934000   0.04909821    -0.30206339     0             -0.26298429    -0.0030926125 
   5935000   0.047846256   -0.30539575     0             -0.26731312    -0.0049758974 
   5936000   0.048287985   -0.29906331     0             -0.26062909     0.0061149753 
   5937000   0.048684044   -0.30583546     0             -0.26708601     0.00072469933
   5938000   0.049424203   -0.30529151     0             -0.26595293    -0.0024586227 
   5939000   0.052960761   -0.30468042     0             -0.26252697     0.011757172  
   5940000   0.050261244   -0.3045692      0             -0.26456439    -0.0074449189 
   5941000   0.050896325   -0.30523264     0             -0.26472235     0.003631514  
   5942000   0.049821551   -0.30546974     0             -0.2658149      0.0048891305 
   5943000   0.048423324   -0.29793464     0             -0.25939271     0.002397829  
   5944000   0.047453365   -0.30131172     0             -0.2635418      0.0013202736 
   5945000   0.050262197   -0.29700026     0             -0.25699469     0.0044155662 
   5946000   0.051177368   -0.30122751     0             -0.26049352    -0.0017571318 
   5947000   0.051595512   -0.302985       0             -0.26191819    -0.0029677856 
   5948000   0.051246096   -0.30329607     0             -0.26250739    -0.0093641831 
   5949000   0.048181164   -0.30287271     0             -0.26452351     0.0013997948 
   5950000   0.051829472   -0.30209538     0             -0.26084236     0.0012253526 
   5951000   0.053489812   -0.3012502      0             -0.25867565    -0.0064187751 
   5952000   0.050217843   -0.30327249     0             -0.26330223     0.0032952917 
   5953000   0.05024409    -0.29532768     0             -0.25533653     0.0085300367 
   5954000   0.049147378   -0.30525432     0             -0.26613608    -0.0033384553 
   5955000   0.05083013    -0.30386043     0             -0.26340282    -0.0054541166 
   5956000   0.050046151   -0.30561195     0             -0.26577834     0.0010676092 
   5957000   0.050606093   -0.29965012     0             -0.25937083     0.0059515317 
   5958000   0.052226655   -0.3042868      0             -0.26271764    -0.0020601457 
   5959000   0.050947725   -0.3042783      0             -0.2637271      0.0082885288 
   5960000   0.052000438   -0.30285195     0             -0.26146285    -0.0061142435 
   5961000   0.049611333   -0.30475976     0             -0.26527224     0.0012682802 
   5962000   0.050851496   -0.30395335     0             -0.26347873     0.0018634826 
   5963000   0.051199944   -0.29512043     0             -0.25436848     0.0079409544 
   5964000   0.049779149   -0.29800214     0             -0.25838105    -0.0024528872 
   5965000   0.050265011   -0.30559397     0             -0.26558616     0.0030433336 
   5966000   0.052420722   -0.30490248     0             -0.26317886    -0.0014914439 
   5967000   0.048598694   -0.30431619     0             -0.26563466    -0.0039059612 
   5968000   0.050680379   -0.3039121      0             -0.26357369     0.0039476778 
   5969000   0.050459061   -0.30175378     0             -0.26159152    -0.0032893647 
   5970000   0.050628643   -0.30146181     0             -0.26116458    -0.0015976996 
   5971000   0.052475432   -0.3018412      0             -0.26007403     0.0026514283 
   5972000   0.049086485   -0.30219146     0             -0.26312169    -0.0029210107 
   5973000   0.050038138   -0.30254701     0             -0.26271978    -0.0022832553 
   5974000   0.054151301   -0.30412715     0             -0.2610261     -0.00046658401
   5975000   0.050036659   -0.3032871      0             -0.26346105    -0.0020300729 
   5976000   0.05093121    -0.30142098     0             -0.26088292    -0.0018714043 
   5977000   0.048535653   -0.29578904     0             -0.2571577     -0.0032178987 
   5978000   0.051045427   -0.30114915     0             -0.26052018     0.0017636505 
   5979000   0.051235963   -0.29290254     0             -0.25212192    -0.0004683894 
   5980000   0.049079938   -0.2907868      0             -0.25172223    -0.0030079374 
   5981000   0.050445706   -0.30103031     0             -0.26087868    -0.002148444  
   5982000   0.049733203   -0.30142997     0             -0.26184545    -0.00067203036
   5983000   0.050751665   -0.30250224     0             -0.26210708    -0.0024826368 
   5984000   0.052201082   -0.30402164     0             -0.26247284     0.0016350989 
   5985000   0.050247525   -0.30389011     0             -0.26389622     0.0019554023 
   5986000   0.047639354   -0.3023396      0             -0.26442165     0.0038002056 
   5987000   0.048741198   -0.30314749     0             -0.26435254     0.0053463619 
   5988000   0.047925209   -0.30295272     0             -0.26480725    -0.0020798191 
   5989000   0.048397268   -0.30323024     0             -0.26470904    -0.002172201  
   5990000   0.048471641   -0.30307214     0             -0.26449174    -0.00094570789
   5991000   0.049527399   -0.30329411     0             -0.26387339    -0.0041002759 
   5992000   0.051388559   -0.29910557     0             -0.25820349    -0.0010931831 
   5993000   0.050656791   -0.30407281     0             -0.26375317     0.0014607921 
   5994000   0.052523364   -0.30402022     0             -0.26221491     0.0026218353 
   5995000   0.052153719   -0.30354014     0             -0.26202904     0.0038775583 
   5996000   0.049591327   -0.30361092     0             -0.26413932     0.0035789149 
   5997000   0.047993697   -0.30292217     0             -0.26472218    -0.0039511537 
   5998000   0.050714351   -0.30290918     0             -0.26254373    -0.0011307019 
   5999000   0.049194505   -0.3035493      0             -0.26439354     0.0018909426 
   6000000   0.050748275   -0.30362621     0             -0.26323376     0.0090304509 
   6001000   0.049595575   -0.30278564     0             -0.26331066    -0.0064299094 
   6002000   0.049708607   -0.30346084     0             -0.26389589     0.0038262872 
   6003000   0.047633252   -0.29769388     0             -0.25978079    -0.0029285182 
   6004000   0.04962394    -0.30364485     0             -0.2641473     -0.0043000536 
   6005000   0.049949701   -0.30302798     0             -0.26327114     0.0023749465 
   6006000   0.050466002   -0.30370585     0             -0.26353807     0.0015926912 
   6007000   0.051583858   -0.30357061     0             -0.26251308     0.00086802929
   6008000   0.049208965   -0.3038128      0             -0.26464554    -0.00053839635
   6009000   0.05090825    -0.30313882     0             -0.26261903    -0.0032610717 
   6010000   0.047543972   -0.304298       0             -0.26645597    -0.00028657073
   6011000   0.049985483   -0.30351834     0             -0.26373302     0.0050102768 
   6012000   0.050009943   -0.30366812     0             -0.26386333     0.0053283672 
   6013000   0.048936594   -0.30529633     0             -0.26634586     0.0022623906 
   6014000   0.051427462   -0.30382936     0             -0.26289631     0.0079791134 
   6015000   0.049920138   -0.3042878      0             -0.26455449    -0.0028158086 
   6016000   0.049181886   -0.3039406      0             -0.26479489    -0.0030621638 
   6017000   0.049198046   -0.30400799     0             -0.26484942     0.004202022  
   6018000   0.04903084    -0.30421617     0             -0.26519069     0.0016876218 
   6019000   0.048146503   -0.30419763     0             -0.26587602     0.0086665877 
   6020000   0.050208759   -0.30477826     0             -0.26481522     0.0018773471 
   6021000   0.049351478   -0.30574306     0             -0.26646237     0.0049042664 
   6022000   0.050223021   -0.30488578     0             -0.26491139     0.0085301885 
   6023000   0.048718363   -0.30434922     0             -0.26557244     0.0025970513 
   6024000   0.051062351   -0.30408232     0             -0.26343988     1.728066e-05 
   6025000   0.050789566   -0.30505615     0             -0.26463083     0.0020260101 
   6026000   0.049070464   -0.30482602     0             -0.265769       0.0034959578 
   6027000   0.050791588   -0.30378948     0             -0.26336255    -0.008465378  
   6028000   0.047965863   -0.30430496     0             -0.26612713     0.0020568119 
   6029000   0.052468905   -0.30296525     0             -0.26120328     0.0020105479 
   6030000   0.051491901   -0.30361759     0             -0.26263326    -0.017042133  
   6031000   0.049397799   -0.30411303     0             -0.26479547     0.0010327414 
   6032000   0.049699672   -0.30465747     0             -0.26509964    -0.0089852332 
   6033000   0.049680413   -0.30507584     0             -0.26553334    -0.0056816575 
   6034000   0.050570141   -0.30517904     0             -0.26492837    -0.0072868367 
   6035000   0.051297372   -0.30432418     0             -0.26349468     0.0027441277 
   6036000   0.050439255   -0.3031377      0             -0.26299121    -0.0016796361 
   6037000   0.050939323   -0.30504865     0             -0.26450413     0.0033566931 
   6038000   0.050702141   -0.30535014     0             -0.26499441    -0.001762352  
   6039000   0.050374154   -0.30524351     0             -0.26514883     0.0060345453 
   6040000   0.049872925   -0.30526386     0             -0.26556813    -0.0033980926 
   6041000   0.049730993   -0.30469865     0             -0.26511589     0.0069906964 
   6042000   0.048119093   -0.30395707     0             -0.26565728    -0.0039500831 
   6043000   0.049191309   -0.30426104     0             -0.26510783    -0.0058603349 
   6044000   0.047136357   -0.3054536      0             -0.26793601     0.0020620034 
   6045000   0.048305838   -0.30340439     0             -0.26495596     0.0019702845 
   6046000   0.048431246   -0.30497381     0             -0.26642557     0.0023327905 
   6047000   0.052826129   -0.30302182     0             -0.26097552     0.0092877687 
   6048000   0.051756982   -0.30465992     0             -0.2634646     -0.001926431  
   6049000   0.051022178   -0.30491977     0             -0.2643093     -0.0022766342 
   6050000   0.047185622   -0.30264645     0             -0.26508964    -0.00046772744
   6051000   0.050973605   -0.30351282     0             -0.26294102    -0.0045413639 
   6052000   0.049902438   -0.30410811     0             -0.26438889    -0.003302181  
   6053000   0.051216169   -0.30456401     0             -0.26379914     0.0041965877 
   6054000   0.049066108   -0.30541579     0             -0.26636224    -0.0035674612 
   6055000   0.04698101    -0.30532394     0             -0.26792999    -0.0075563942 
   6056000   0.051432939   -0.30085902     0             -0.25992161    -0.0024341566 
   6057000   0.048135198   -0.30461135     0             -0.26629874    -0.00078684785
   6058000   0.049205668   -0.304999       0             -0.26583437    -0.00042853647
   6059000   0.051174483   -0.3049887      0             -0.26425701    -0.0045570008 
   6060000   0.05091275    -0.3041387      0             -0.26361534     0.003061493  
   6061000   0.049731813   -0.30281588     0             -0.26323246    -0.00021809693
   6062000   0.051705992   -0.29867889     0             -0.25752415    -0.0061445272 
   6063000   0.050203684   -0.30244932     0             -0.26249033    -0.0003200199 
   6064000   0.049554254   -0.30100739     0             -0.2615653     -0.0048458979 
   6065000   0.050654715   -0.30227146     0             -0.26195347    -0.0042623969 
   6066000   0.048859336   -0.30393601     0             -0.26504704    -0.0059464419 
   6067000   0.050851284   -0.30482504     0             -0.2643506      0.0029268794 
   6068000   0.04982484    -0.30568246     0             -0.266025      -6.5530746e-05
   6069000   0.049712835   -0.30620187     0             -0.26663356     0.0052787108 
   6070000   0.050008026   -0.30629795     0             -0.26649469     0.00045034857
   6071000   0.052082307   -0.30548098     0             -0.26402672    -0.0013881467 
   6072000   0.050140238   -0.30658069     0             -0.26667219    -0.0018943161 
   6073000   0.049118131   -0.30623628     0             -0.26714132    -0.00094565724
   6074000   0.049287415   -0.30680968     0             -0.26757998     0.00014003546
   6075000   0.050920316   -0.30726503     0             -0.26673564    -0.0028702151 
   6076000   0.0501908     -0.30694579     0             -0.26699705     0.0026958397 
   6077000   0.050179745   -0.30734592     0             -0.26740598     0.00048579308
   6078000   0.048241873   -0.30664719     0             -0.26824967    -0.013038007  
   6079000   0.04996959    -0.30184947     0             -0.2620768      0.0043018393 
   6080000   0.052229161   -0.30658441     0             -0.26501326     0.00086522437
   6081000   0.050952106   -0.30688732     0             -0.26633262    -0.0011523894 
   6082000   0.052727296   -0.30599562     0             -0.26402799     0.0078559486 
   6083000   0.049504736   -0.30498927     0             -0.2655866      0.0025683465 
   6084000   0.050444597   -0.30489797     0             -0.26474722     0.0023040962 
   6085000   0.053160374   -0.30719476     0             -0.26488242    -0.001256649  
   6086000   0.049908504   -0.30501521     0             -0.26529116     0.0037740634 
   6087000   0.047349113   -0.30660267     0             -0.26891573     0.0059517689 
   6088000   0.048276881   -0.30740671     0             -0.26898133     0.0050245407 
   6089000   0.049791005   -0.30682336     0             -0.26719283     0.0025674418 
   6090000   0.050928952   -0.30772745     0             -0.26719119     0.0012190049 
   6091000   0.049860738   -0.30666168     0             -0.26697565    -0.0049666315 
   6092000   0.049577938   -0.29798831     0             -0.25852737     0.0028684402 
   6093000   0.05235301    -0.3067388      0             -0.26506907     0.0012363058 
   6094000   0.049792952   -0.30799223     0             -0.26836015     0.0010430761 
   6095000   0.050585535   -0.30760192     0             -0.267339      -0.0036067359 
   6096000   0.05031979    -0.3083079      0             -0.26825649     0.0033808301 
   6097000   0.04766611    -0.30717706     0             -0.26923782    -0.0042035995 
   6098000   0.050598939   -0.30719482     0             -0.26692122     0.014863957  
   6099000   0.050280994   -0.30884363     0             -0.2688231     -0.0053031018 
   6100000   0.049466111   -0.30846398     0             -0.26909204     0.0056936884 
   6101000   0.050020054   -0.30816361     0             -0.26835078     0.0014304417 
   6102000   0.051401482   -0.30807643     0             -0.26716406     0.0068771291 
   6103000   0.047607847   -0.30826091     0             -0.27036804    -0.005152732  
   6104000   0.051162477   -0.3072097      0             -0.26648757    -0.002771165  
   6105000   0.050806413   -0.3063         0             -0.26586127    -0.0099278219 
   6106000   0.05204236    -0.3070673      0             -0.26564484     0.0009237505 
   6107000   0.049796454   -0.30716066     0             -0.2675258      0.011217511  
   6108000   0.049658552   -0.30814732     0             -0.26862222    -0.0042556303 
   6109000   0.04860271    -0.30859891     0             -0.26991419     0.0072636376 
   6110000   0.047649391   -0.30130427     0             -0.26337833    -0.0031182596 
   6111000   0.050999525   -0.30700898     0             -0.26641654     0.0018053863 
   6112000   0.049606388   -0.30722806     0             -0.26774447    -0.0015919114 
   6113000   0.051600263   -0.30754654     0             -0.26647595    -0.0057898345 
   6114000   0.048673573   -0.30682377     0             -0.26808264    -0.0070140623 
   6115000   0.051591016   -0.30868687     0             -0.26762365    -0.0033352076 
   6116000   0.051128248   -0.30883207     0             -0.26813718    -0.0015520655 
   6117000   0.049458181   -0.30761698     0             -0.26825136     0.00067056656
   6118000   0.051840768   -0.30817966     0             -0.26691765     0.00026939463
   6119000   0.049519783   -0.30793039     0             -0.26851574    -0.0026147042 
   6120000   0.04999739    -0.30726569     0             -0.26747089     0.010716353  
   6121000   0.04823422    -0.3069148      0             -0.26852338     0.0065355401 
   6122000   0.049913991   -0.30756265     0             -0.26783423    -0.0014942475 
   6123000   0.049532254   -0.30772228     0             -0.26829771     0.00072755575
   6124000   0.051484349   -0.30837744     0             -0.26739912    -0.0093250137 
   6125000   0.052198536   -0.30310885     0             -0.26156207     0.0074061353 
   6126000   0.050509413   -0.30741299     0             -0.26721065    -0.007493553  
   6127000   0.049238679   -0.30833046     0             -0.26913955    -0.0005514931 
   6128000   0.051029682   -0.30819161     0             -0.26757517     0.0043367801 
   6129000   0.049372094   -0.30794796     0             -0.26865086    -0.00049124966
   6130000   0.049578107   -0.30802311     0             -0.26856203     0.0056639826 
   6131000   0.048988026   -0.30838817     0             -0.26939677     0.00030801547
   6132000   0.053775184   -0.30473546     0             -0.26193378     0.0052673595 
   6133000   0.05035173    -0.30745476     0             -0.26737793    -0.0020807958 
   6134000   0.050420445   -0.30504269     0             -0.26491117     0.0092991415 
   6135000   0.050993381   -0.30774536     0             -0.26715781    -0.0061402833 
   6136000   0.050609474   -0.30829334     0             -0.26801136    -0.001019974  
   6137000   0.049701326   -0.30982134     0             -0.27026219    -0.00043837711
   6138000   0.04981057    -0.30683425     0             -0.26718815     0.0064252883 
   6139000   0.049339895   -0.30964978     0             -0.2703783      0.0020908783 
   6140000   0.052553554   -0.30862462     0             -0.26679528    -0.0010512072 
   6141000   0.050580139   -0.30856102     0             -0.2683024     -0.0012977606 
   6142000   0.047499042   -0.30845929     0             -0.27065302    -0.0031300132 
   6143000   0.04867923    -0.30856886     0             -0.26982324    -0.0063310351 
   6144000   0.047959436   -0.30854395     0             -0.27037124    -0.0034063233 
   6145000   0.050946844   -0.30288756     0             -0.26233706    -0.0035801777 
   6146000   0.050439886   -0.30926635     0             -0.26911936     0.0076700108 
   6147000   0.047591855   -0.30679277     0             -0.26891262     0.0034241736 
   6148000   0.049760638   -0.30777294     0             -0.26816659     0.0013290234 
   6149000   0.051151017   -0.30150738     0             -0.26079436     0.0028082021 
   6150000   0.048112642   -0.30885041     0             -0.27055575     0.0034622649 
   6151000   0.053017551   -0.30957482     0             -0.26737616     0.0022706251 
   6152000   0.047145589   -0.3095301      0             -0.27200515    -0.001438843  
   6153000   0.049130225   -0.30804103     0             -0.26893644     0.0012723166 
   6154000   0.050577904   -0.3091617      0             -0.26890485    -0.0015946812 
   6155000   0.047630691   -0.30881256     0             -0.27090151     0.0085502917 
   6156000   0.047871174   -0.30949259     0             -0.27139013    -0.0032924843 
   6157000   0.048231462   -0.30994231     0             -0.27155308    -0.0046691028 
   6158000   0.050491496   -0.3093566      0             -0.26916852     0.00068623443
   6159000   0.049310786   -0.31024611     0             -0.27099781     0.010314443  
   6160000   0.050742066   -0.31076219     0             -0.27037468     0.0023565559 
   6161000   0.054286532   -0.30997384     0             -0.26676516     0.0019751359 
   6162000   0.050675217   -0.31004598     0             -0.26971168    -0.00068527027
   6163000   0.049513654   -0.30960493     0             -0.27019515     0.0086933558 
   6164000   0.048353663   -0.31096013     0             -0.27247364     0.0035428362 
   6165000   0.049011816   -0.3097238      0             -0.27071345     0.0055026315 
   6166000   0.050705139   -0.31013443     0             -0.26977631     0.0036016419 
   6167000   0.051277848   -0.30743752     0             -0.26662356     0.0026856943 
   6168000   0.04910997    -0.3098991      0             -0.27081063     0.00024336882
   6169000   0.050824151   -0.30988361     0             -0.26943076     0.00023222407
   6170000   0.049358598   -0.30871225     0             -0.26942589    -0.0050516493 
   6171000   0.050531515   -0.30967223     0             -0.26945231     0.0042692552 
   6172000   0.047468856   -0.30988978     0             -0.27210754     0.0013317759 
   6173000   0.051653017   -0.30960884     0             -0.26849627    -0.0062999896 
   6174000   0.050717268   -0.30805812     0             -0.26769034    -0.0050303621 
   6175000   0.050051894   -0.30923817     0             -0.26939999    -0.0060959816 
   6176000   0.050512017   -0.31000575     0             -0.26980134    -0.0059324588 
   6177000   0.05076054    -0.30920214     0             -0.26879992     0.00085716921
   6178000   0.04887285    -0.30948722     0             -0.27058748     0.001619225  
   6179000   0.052041821   -0.31059391     0             -0.26917188    -0.0015126638 
   6180000   0.048423624   -0.31075403     0             -0.27221185     0.0060568809 
   6181000   0.049289396   -0.31086484     0             -0.27163357     0.0048835344 
   6182000   0.051527141   -0.31249951     0             -0.27148713    -0.0041094095 
   6183000   0.049035089   -0.31140242     0             -0.27237355    -0.0026385229 
   6184000   0.050208657   -0.30940575     0             -0.26944279    -0.0035963546 
   6185000   0.050384296   -0.30737895     0             -0.2672762     -0.0015426951 
   6186000   0.051540725   -0.31039766     0             -0.26937446    -0.0030090409 
   6187000   0.052344176   -0.30931689     0             -0.2676542     -0.0028290371 
   6188000   0.050046932   -0.30824976     0             -0.26841553    -0.0063131921 
   6189000   0.051126459   -0.30904618     0             -0.26835271     0.0063978986 
   6190000   0.050786621   -0.30867674     0             -0.26825377     0.0026809048 
   6191000   0.049841593   -0.3077986      0             -0.26812781     0.0046518238 
   6192000   0.050670442   -0.30873424     0             -0.26840373     0.0048948629 
   6193000   0.049844803   -0.30906305     0             -0.2693897      0.0096444838 
   6194000   0.050077082   -0.30606587     0             -0.26620765    -0.0045638212 
   6195000   0.051093013   -0.30880367     0             -0.26813682     0.0067782968 
   6196000   0.050871837   -0.30933754     0             -0.26884673    -0.0039802252 
   6197000   0.052631076   -0.30842463     0             -0.26653359    -0.0024779211 
   6198000   0.051353262   -0.30982111     0             -0.26894712     0.0013968275 
   6199000   0.052703883   -0.31037392     0             -0.26842492     0.0049976225 
   6200000   0.048656719   -0.30559458     0             -0.26686688     0.0045719473 
   6201000   0.048266925   -0.31096386     0             -0.27254641    -0.0020615222 
   6202000   0.050689812   -0.31034726     0             -0.27000133    -0.0010741678 
   6203000   0.048680464   -0.31087735     0             -0.27213074    -0.0034968008 
   6204000   0.046999025   -0.31035725     0             -0.27294897     0.0014769018 
   6205000   0.051738934   -0.31107094     0             -0.26988998     0.0073305554 
   6206000   0.050250939   -0.31115673     0             -0.27116012    -0.0059623759 
   6207000   0.049893686   -0.30997161     0             -0.27025936     0.0008456805 
   6208000   0.049902606   -0.31055151     0             -0.27083216     0.0037525702 
   6209000   0.050329426   -0.3108741      0             -0.27081502     0.0039611443 
   6210000   0.04731006    -0.31067979     0             -0.27302394    -0.0017297221 
   6211000   0.049132639   -0.31064408     0             -0.27153757    -0.00029059598
   6212000   0.050550858   -0.31047039     0             -0.27023507    -0.0014963825 
   6213000   0.050338172   -0.30576383     0             -0.26569779    -0.0035218882 
   6214000   0.050981726   -0.31080635     0             -0.27022809     0.00058811009
   6215000   0.047983772   -0.31039786     0             -0.27220577     9.0117269e-05
   6216000   0.049252114   -0.31120251     0             -0.2720009     -0.0046483859 
   6217000   0.05050878    -0.31092551     0             -0.27072367     0.0091749424 
   6218000   0.050279959   -0.31017649     0             -0.27015678     0.00072026213
   6219000   0.049535514   -0.31041661     0             -0.27098943    -0.0016515586 
   6220000   0.050265631   -0.31056651     0             -0.2705582      0.0099187347 
   6221000   0.049343776   -0.31123586     0             -0.2719613      0.0038598303 
   6222000   0.051130961   -0.31034819     0             -0.26965114    -0.0062218363 
   6223000   0.051153368   -0.31054696     0             -0.26983208    -0.00017079337
   6224000   0.047937839   -0.31093046     0             -0.27277494    -0.00012279375
   6225000   0.048726183   -0.30945048     0             -0.27066748    -0.00064510102
   6226000   0.049497787   -0.30821397     0             -0.26881682    -0.0012408325 
   6227000   0.049839992   -0.30933209     0             -0.26966258     0.0069528303 
   6228000   0.051706605   -0.30993061     0             -0.26877539     0.00075408264
   6229000   0.047959568   -0.30815363     0             -0.26998081     0.0039532807 
   6230000   0.051744054   -0.30857206     0             -0.26738703     0.00011740298
   6231000   0.049220832   -0.30564974     0             -0.26647303     0.0076375842 
   6232000   0.051030635   -0.31047126     0             -0.26985407    -0.0056325378 
   6233000   0.048567926   -0.30928068     0             -0.27062365     0.00015889655
   6234000   0.050457119   -0.31044182     0             -0.27028111    -0.0028120445 
   6235000   0.048858985   -0.30976625     0             -0.27087755     0.0044832802 
   6236000   0.04994581    -0.30221099     0             -0.26245725    -0.00087765356
   6237000   0.05284933    -0.30956319     0             -0.26749842     0.0094049287 
   6238000   0.048515938   -0.30956702     0             -0.27095137     0.0027959485 
   6239000   0.050934568   -0.30851499     0             -0.26797426    -0.0042414527 
   6240000   0.04986402    -0.31032145     0             -0.27063281     0.0029539446 
   6241000   0.04810507    -0.30911517     0             -0.27082654    -0.0054208228 
   6242000   0.049808049   -0.30893486     0             -0.26929077     0.0052887974 
   6243000   0.053914725   -0.30840439     0             -0.26549164     0.0052625974 
   6244000   0.050614733   -0.30395639     0             -0.26367023    -0.00060680031
   6245000   0.050106054   -0.30948761     0             -0.26960632    -0.004124982  
   6246000   0.051908797   -0.30894039     0             -0.26762423     0.0026947439 
   6247000   0.050661088   -0.30873001     0             -0.26840695    -0.0013666498 
   6248000   0.047152576   -0.30903044     0             -0.27149993     6.527148e-06 
   6249000   0.05150535    -0.30927163     0             -0.2682766      0.0058448551 
   6250000   0.047160465   -0.30841938     0             -0.27088259     0.00043094495
   6251000   0.049670943   -0.30778829     0             -0.26825333    -0.0037559147 
   6252000   0.049409238   -0.30712674     0             -0.26780008     0.0029665751 
   6253000   0.051322661   -0.30938705     0             -0.26853741     0.00042626719
   6254000   0.051651283   -0.30748647     0             -0.26637528    -0.0066705293 
   6255000   0.051279457   -0.30825746     0             -0.26744222     0.0062948028 
   6256000   0.050980989   -0.30956089     0             -0.26898321     0.0041357558 
   6257000   0.048414693   -0.30923914     0             -0.27070407     0.0050832665 
   6258000   0.049003318   -0.30844461     0             -0.26944103     0.0039645931 
   6259000   0.052062726   -0.30979736     0             -0.26835869     0.0017795595 
   6260000   0.050406365   -0.30948223     0             -0.26936192     0.0010285474 
   6261000   0.049665978   -0.31017895     0             -0.27064794     0.0064180992 
   6262000   0.053991046   -0.30711387     0             -0.26414037     0.0064074463 
   6263000   0.050559733   -0.31053057     0             -0.27028819     0.00021427389
   6264000   0.050014894   -0.30994056     0             -0.27013183     0.0040911234 
   6265000   0.052002123   -0.31021732     0             -0.26882688    -9.1754543e-05
   6266000   0.050293614   -0.31022849     0             -0.27019791    -0.0049115367 
   6267000   0.050745541   -0.30486405     0             -0.26447377    -0.0050092669 
   6268000   0.051529932   -0.31076129     0             -0.26974668    -0.00067768224
   6269000   0.050240213   -0.30551534     0             -0.26552727     0.0019591986 
   6270000   0.049406287   -0.30939087     0             -0.27006655     0.0051757172 
   6271000   0.05050527    -0.30906194     0             -0.2688629     -0.00016441707
   6272000   0.052029518   -0.31091286     0             -0.26950062    -0.00010632051
   6273000   0.051487427   -0.31143901     0             -0.27045824     0.0048847753 
   6274000   0.052630074   -0.31020377     0             -0.26831352    -9.9856553e-06
   6275000   0.049526209   -0.29153848     0             -0.25211872    -0.0072342908 
   6276000   0.049057167   -0.31051698     0             -0.27147054     0.0026094224 
   6277000   0.049309495   -0.30996602     0             -0.27071874    -0.0034941108 
   6278000   0.050055776   -0.31035998     0             -0.27051871     0.0017636125 
   6279000   0.049329133   -0.31123723     0             -0.27197433    -0.0053643399 
   6280000   0.049608522   -0.31002438     0             -0.2705391     -0.0026575881 
   6281000   0.052174727   -0.30529708     0             -0.26376925    -0.001001559  
   6282000   0.048091755   -0.31217888     0             -0.27390085    -0.00088987606
   6283000   0.051477755   -0.31068252     0             -0.26970945    -0.0046538087 
   6284000   0.05269851    -0.30750476     0             -0.26556004     0.0063514188 
   6285000   0.048217202   -0.30507983     0             -0.26670195     0.0037206971 
   6286000   0.050461032   -0.30847306     0             -0.26830923     0.001700138  
   6287000   0.049755201   -0.31116237     0             -0.27156034     0.0030001995 
   6288000   0.049270255   -0.31057454     0             -0.2713585      0.0082136208 
   6289000   0.050665716   -0.30998003     0             -0.26965328    -0.0020530533 
   6290000   0.050823217   -0.31039371     0             -0.2699416     -0.0043988456 
   6291000   0.049764473   -0.30548287     0             -0.26587346    -0.0082239895 
   6292000   0.046671733   -0.31185491     0             -0.27470713    -0.0015515006 
   6293000   0.052819628   -0.31210912     0             -0.270068       0.00067137355
   6294000   0.051125531   -0.31113209     0             -0.27043936    -0.0026913577 
   6295000   0.048274309   -0.31149        0             -0.27306667    -0.004195241  
   6296000   0.05176393    -0.31135768     0             -0.27015682    -0.0039467418 
   6297000   0.050405747   -0.30949779     0             -0.26937797     0.0054165173 
   6298000   0.047815371   -0.31054309     0             -0.27248504    -0.004570806  
   6299000   0.048292634   -0.31019154     0             -0.27175362     0.0015493539 
   6300000   0.049214209   -0.31071285     0             -0.27154141    -0.0092853375 
   6301000   0.048375079   -0.31094559     0             -0.27244205    -0.0059211986 
   6302000   0.049859455   -0.31236647     0             -0.27268146     0.0010082303 
   6303000   0.051836561   -0.3112261      0             -0.26996744    -0.0057971905 
   6304000   0.050862221   -0.31209142     0             -0.27160827     0.001873529  
   6305000   0.050691239   -0.31092625     0             -0.27057919     0.0022114274 
   6306000   0.051874918   -0.31152868     0             -0.27023948    -0.0013295868 
   6307000   0.050587275   -0.3118981      0             -0.27163379    -0.0064366286 
   6308000   0.051724359   -0.31126415     0             -0.27009479     0.0018822947 
   6309000   0.048762142   -0.31100379     0             -0.27219218    -0.0031573081 
   6310000   0.04995726    -0.31118285     0             -0.27141999     0.0015787764 
   6311000   0.049746006   -0.31135296     0             -0.27175825     0.0013309077 
   6312000   0.050235473   -0.31156013     0             -0.27157583     0.004324008  
   6313000   0.049317286   -0.31136774     0             -0.27211426    -0.00094068086
   6314000   0.052364623   -0.31130963     0             -0.26963066    -0.0018482249 
   6315000   0.049180917   -0.31150953     0             -0.2723646      0.0016148883 
   6316000   0.049177063   -0.31189589     0             -0.27275402    -0.0014253243 
   6317000   0.047521753   -0.31081631     0             -0.27299197     0.0046317437 
   6318000   0.051459229   -0.31074415     0             -0.26978582     0.0049321753 
   6319000   0.048323627   -0.31284392     0             -0.27438133     0.014927413  
   6320000   0.051934862   -0.31267727     0             -0.27134037    -0.0010103636 
   6321000   0.04812956    -0.3112656      0             -0.27295748    -0.0030987451 
   6322000   0.049331596   -0.31154903     0             -0.27228416    -0.01112343   
   6323000   0.049020827   -0.31228847     0             -0.27327096    -0.0017341958 
   6324000   0.049962048   -0.3122128      0             -0.27244614     0.0012297137 
   6325000   0.051233979   -0.31282244     0             -0.2720434      0.0025355592 
   6326000   0.049766229   -0.31174539     0             -0.27213458    -0.004324394  
   6327000   0.051549973   -0.30976362     0             -0.26873307     0.00099382304
   6328000   0.049362915   -0.31242209     0             -0.2731323     -0.0059781461 
   6329000   0.050015623   -0.31219216     0             -0.27238285    -0.0067245808 
   6330000   0.049850464   -0.31219131     0             -0.27251345    -0.0030754985 
   6331000   0.050899974   -0.31135124     0             -0.27083804     0.0073237511 
   6332000   0.049236779   -0.3121785      0             -0.27298911    -0.0020074228 
   6333000   0.052089391   -0.31278025     0             -0.27132035     0.010186597  
   6334000   0.050325677   -0.3127941      0             -0.272738       0.0055233989 
   6335000   0.053201005   -0.31078477     0             -0.26844009     0.0056100505 
   6336000   0.050302256   -0.3118099      0             -0.27177244     0.0011888307 
   6337000   0.05233187    -0.3095045      0             -0.26785161     0.0034023457 
   6338000   0.048455204   -0.31143719     0             -0.27286987     0.0024363262 
   6339000   0.050798254   -0.31201909     0             -0.27158685     0.0009904663 
   6340000   0.050901576   -0.31104659     0             -0.27053212     0.001584384  
   6341000   0.050862947   -0.31150228     0             -0.27101856    -0.0026896733 
   6342000   0.052463745   -0.31119482     0             -0.26943696    -0.0003635653 
   6343000   0.050482413   -0.3115084      0             -0.27132756    -0.0047660171 
   6344000   0.049403136   -0.3107435      0             -0.27142169     0.0086860978 
   6345000   0.053571845   -0.31134055     0             -0.26870071    -0.0025630867 
   6346000   0.048818638   -0.31131498     0             -0.2724584      0.0043652063 
   6347000   0.050805487   -0.29985829     0             -0.2594203     -0.0013298491 
   6348000   0.049528011   -0.30818511     0             -0.26876391    -0.0022994312 
   6349000   0.049949884   -0.31100996     0             -0.27125298     0.0031597743 
   6350000   0.049240842   -0.31135556     0             -0.27216293    -0.0081608978 
   6351000   0.049935735   -0.31081208     0             -0.27106635    -0.0040637299 
   6352000   0.051410006   -0.31103876     0             -0.27011961     9.6580225e-05
   6353000   0.05291324    -0.31131557     0             -0.26919994     0.0046051706 
   6354000   0.049665598   -0.31145698     0             -0.27192626    -0.0029456544 
   6355000   0.049386295   -0.31147779     0             -0.27216938     0.002737791  
   6356000   0.05148549    -0.31089407     0             -0.26991484     0.00078481063
   6357000   0.049201541   -0.31024691     0             -0.27108556    -0.0024662264 
   6358000   0.049851669   -0.31085708     0             -0.27117826     0.0076123372 
   6359000   0.050500372   -0.31156431     0             -0.27136917     0.005278942  
   6360000   0.049704542   -0.3127767      0             -0.27321499    -0.0062118086 
   6361000   0.046171437   -0.31236495     0             -0.27561538     0.002090271  
   6362000   0.050923141   -0.31431699     0             -0.27378535     0.0041241389 
   6363000   0.049542061   -0.31338614     0             -0.27395376    -0.0065980762 
   6364000   0.050749216   -0.31350908     0             -0.27311588     0.0012912674 
   6365000   0.047266819   -0.31376146     0             -0.27614003     0.0019108743 
   6366000   0.05109964    -0.31318168     0             -0.27250956     0.0050624921 
   6367000   0.051271649   -0.3147366      0             -0.27392757    -0.000661392  
   6368000   0.050237548   -0.31455231     0             -0.27456636     0.0012884278 
   6369000   0.05205983    -0.31430446     0             -0.27286809    -0.0012341704 
   6370000   0.048715116   -0.31400948     0             -0.27523529    -0.0047731119 
   6371000   0.049459441   -0.31355747     0             -0.27419084    -0.0024416664 
   6372000   0.051166184   -0.31478823     0             -0.27406315     0.0080539315 
   6373000   0.050231607   -0.31316564     0             -0.27318442    -0.0014552321 
   6374000   0.047944431   -0.31361138     0             -0.27545061    -0.004633077  
   6375000   0.049540083   -0.31468385     0             -0.27525304     0.00083457808
   6376000   0.048694082   -0.31368859     0             -0.27493115     0.0040121364 
   6377000   0.048632551   -0.31481801     0             -0.27610954     0.01101383   
   6378000   0.050917564   -0.31448443     0             -0.27395723     0.0092057716 
   6379000   0.052189053   -0.30788387     0             -0.26634465    -0.0058000853 
   6380000   0.04916656    -0.31536849     0             -0.27623498    -0.0027315443 
   6381000   0.050253978   -0.31453343     0             -0.2745344     -0.0073318795 
   6382000   0.051539298   -0.31530165     0             -0.27427959    -0.006086628  
   6383000   0.048185931   -0.31500126     0             -0.27664827    -0.0063325699 
   6384000   0.052068567   -0.31576653     0             -0.2743232     -0.001294973  
   6385000   0.04949111    -0.31642123     0             -0.2770294      0.0020328689 
   6386000   0.052120822   -0.3150384      0             -0.27355348    -0.0020481602 
   6387000   0.049818673   -0.31565089     0             -0.27599834    -0.0028258837 
   6388000   0.04964199    -0.31454906     0             -0.27503714    -0.0028980669 
   6389000   0.051159024   -0.31519031     0             -0.27447092     0.0050586935 
   6390000   0.048817264   -0.31613451     0             -0.27727902    -0.00032867661
   6391000   0.050676574   -0.31514918     0             -0.2748138     -0.001665816  
   6392000   0.049855343   -0.30880064     0             -0.2691189     -0.0056896322 
   6393000   0.048915285   -0.31502284     0             -0.27608933    -0.0096276862 
   6394000   0.050698613   -0.30585177     0             -0.26549885     0.0019247971 
   6395000   0.04973222    -0.3163391      0             -0.27675536     0.0021189556 
   6396000   0.04957759    -0.31605897     0             -0.2765983     -0.0022686745 
   6397000   0.052593478   -0.31609449     0             -0.27423337     0.001373438  
   6398000   0.051164741   -0.31032268     0             -0.26959875     0.0055069229 
   6399000   0.050699515   -0.3120732      0             -0.27171956     0.0051315965 
   6400000   0.04924305    -0.31642775     0             -0.27723336    -0.0073233585 
   6401000   0.048540175   -0.31618113     0             -0.27754619    -0.0064527374 
   6402000   0.05124446    -0.3163032      0             -0.27551581    -0.0037863027 
   6403000   0.051260715   -0.31591246     0             -0.27511213     0.0028318713 
   6404000   0.049436629   -0.30856423     0             -0.26921576     0.0013314893 
   6405000   0.051068649   -0.31612991     0             -0.27548246    -0.0040643876 
   6406000   0.04922529    -0.31541963     0             -0.27623937     0.0037203616 
   6407000   0.05084845    -0.31665305     0             -0.27618086     0.0045402939 
   6408000   0.049303624   -0.31645906     0             -0.27721646     0.0050487628 
   6409000   0.051503099   -0.31581063     0             -0.27481738     0.0031881751 
   6410000   0.04899626    -0.31600943     0             -0.27701147    -0.0053116984 
   6411000   0.049554179   -0.31661966     0             -0.27717763    -0.0067512383 
   6412000   0.048673821   -0.31644373     0             -0.27770241    -0.0024274147 
   6413000   0.049417201   -0.31531423     0             -0.27598122    -0.0033876791 
   6414000   0.0492101     -0.3157696      0             -0.27660144     0.0071068125 
   6415000   0.050559586   -0.3167676      0             -0.27652533    -0.00020667118
   6416000   0.048805999   -0.31597605     0             -0.27712952     0.00075788246
   6417000   0.050468212   -0.31643673     0             -0.27626718    -0.0011851565 
   6418000   0.05048563    -0.31408099     0             -0.27389758     0.001090485  
   6419000   0.050953414   -0.31657527     0             -0.27601954    -0.0013749281 
   6420000   0.048180084   -0.31617588     0             -0.27782755    -0.0026879753 
   6421000   0.05021694    -0.31520888     0             -0.27523934    -0.0073196316 
   6422000   0.048652855   -0.31672734     0             -0.27800271     0.0059821576 
   6423000   0.04996064    -0.31503633     0             -0.27527078     4.4950862e-05
   6424000   0.050571141   -0.30370618     0             -0.26345471    -0.00034901436
   6425000   0.049801717   -0.31542629     0             -0.27578724    -0.0023906294 
   6426000   0.048998864   -0.31158878     0             -0.27258874    -0.0032661701 
   6427000   0.04693829    -0.31686409     0             -0.27950414    -0.0031283355 
   6428000   0.052255831   -0.31686081     0             -0.27526843    -0.0086639731 
   6429000   0.051065099   -0.31646132     0             -0.27581669     0.0071824317 
   6430000   0.048923106   -0.31648999     0             -0.27755025     0.0017622463 
   6431000   0.050610088   -0.31579224     0             -0.27550978    -0.0050428855 
   6432000   0.050283338   -0.30898003     0             -0.26895763    -0.0060072117 
   6433000   0.051170544   -0.31567105     0             -0.2749425      0.0070426276 
   6434000   0.050242201   -0.3156622      0             -0.27567255     0.0032441636 
   6435000   0.04835362    -0.31607901     0             -0.27759255    -0.00073888063
   6436000   0.051909211   -0.31671059     0             -0.27539411    -0.0017794665 
   6437000   0.051942623   -0.31635011     0             -0.27500703    -0.004605616  
   6438000   0.04942519    -0.31546119     0             -0.27612183    -0.0023275079 
   6439000   0.047664554   -0.30254554     0             -0.26460753     0.0074679352 
   6440000   0.047398491   -0.31561283     0             -0.27788659    -0.0011725587 
   6441000   0.049271236   -0.3157791      0             -0.27656227     0.0014033746 
   6442000   0.048424623   -0.31284951     0             -0.27430653    -0.0035787546 
   6443000   0.049465586   -0.31582413     0             -0.27645261    -0.00075248722
   6444000   0.050789983   -0.30342848     0             -0.26300283     0.00078269283
   6445000   0.050049204   -0.30803798     0             -0.26820194    -0.0054045766 
   6446000   0.04953244    -0.31394892     0             -0.2745242      0.00024648525
   6447000   0.049539911   -0.31518286     0             -0.27575219     0.0010730218 
   6448000   0.050426287   -0.31477021     0             -0.27463404     0.0040454557 
   6449000   0.049554586   -0.31443807     0             -0.27499572    -0.0031959986 
   6450000   0.050244755   -0.31390244     0             -0.27391076     0.012737754  
   6451000   0.047721361   -0.31248753     0             -0.27450431     0.0028175691 
   6452000   0.050262145   -0.31539441     0             -0.27538888     0.00032278067
   6453000   0.051528945   -0.31439539     0             -0.27338157    -0.0053224756 
   6454000   0.048390285   -0.31560099     0             -0.27708535    -0.0025971768 
   6455000   0.049395845   -0.31531485     0             -0.27599884    -0.0035089092 
   6456000   0.047977295   -0.31365597     0             -0.27546905     0.003745632  
   6457000   0.052567313   -0.31470295     0             -0.27286266     0.0018386976 
   6458000   0.049291754   -0.31522137     0             -0.27598821     0.00072060975
   6459000   0.047067509   -0.31340641     0             -0.27594361     0.0048849605 
   6460000   0.049808211   -0.31422453     0             -0.2745803      0.0024289932 
   6461000   0.051918053   -0.31494105     0             -0.27361752    -0.0063083285 
   6462000   0.047252606   -0.31361632     0             -0.2760062     -0.00096939115
   6463000   0.051248971   -0.31433245     0             -0.27354147     0.0073129548 
   6464000   0.053173262   -0.31480006     0             -0.27247746    -0.0023957726 
   6465000   0.048537049   -0.31416788     0             -0.27553542    -0.0072405424 
   6466000   0.049158902   -0.30728815     0             -0.26816074     0.0092907047 
   6467000   0.049545605   -0.31504161     0             -0.2756064     -0.0033323842 
   6468000   0.050725525   -0.31456657     0             -0.27419222     0.0018960496 
   6469000   0.049610939   -0.30974257     0             -0.27025537    -0.00067531469
   6470000   0.050337351   -0.31391073     0             -0.27384535    -0.0020123341 
   6471000   0.048020834   -0.31444298     0             -0.2762214     -0.0020766305 
   6472000   0.048709271   -0.31474722     0             -0.27597769     0.0022716756 
   6473000   0.049370803   -0.31380684     0             -0.27451076     0.0026063834 
   6474000   0.051748263   -0.31356002     0             -0.27237163    -0.0066641237 
   6475000   0.048989511   -0.31166377     0             -0.27267118     0.0012922024 
   6476000   0.048223363   -0.3133238      0             -0.27494101     0.0069842317 
   6477000   0.049871003   -0.31372527     0             -0.27403106    -0.0038378567 
   6478000   0.05164631    -0.31325178     0             -0.27214454    -0.001820246  
   6479000   0.051167508   -0.31111511     0             -0.27038897    -0.0047177865 
   6480000   0.04952688    -0.31092516     0             -0.27150486    -0.0059929134 
   6481000   0.052500093   -0.31313421     0             -0.27134742    -0.0033053894 
   6482000   0.049754366   -0.3112224      0             -0.27162104     0.0091428333 
   6483000   0.049205565   -0.31294212     0             -0.27377756    -0.0041262083 
   6484000   0.050430162   -0.31259107     0             -0.27245181     0.0083850465 
   6485000   0.050322989   -0.3131338      0             -0.27307984     0.0088584755 
   6486000   0.050783376   -0.31278328     0             -0.27236289    -0.0026396033 
   6487000   0.049294805   -0.3118449      0             -0.27260931     0.004374119  
   6488000   0.049848775   -0.31431777     0             -0.27464126    -0.0018141086 
   6489000   0.049188187   -0.30193727     0             -0.26278655    -0.0072023166 
   6490000   0.048045109   -0.31507913     0             -0.27683822     0.0011535783 
   6491000   0.049963544   -0.31266244     0             -0.27289458    -0.00014002933
   6492000   0.051157135   -0.31304525     0             -0.27232737     0.00031267224
   6493000   0.049325606   -0.31353448     0             -0.27427438     0.0026649879 
   6494000   0.049795587   -0.31409773     0             -0.27446355     0.0018602306 
   6495000   0.04967543    -0.31450082     0             -0.27496228    -0.002313353  
   6496000   0.048958386   -0.31355265     0             -0.27458484     0.0011127206 
   6497000   0.049137127   -0.31395956     0             -0.27484948    -0.005488344  
   6498000   0.049672193   -0.30947022     0             -0.26993426     0.0056856108 
   6499000   0.048646069   -0.3135038      0             -0.27478457    -0.00072910811
   6500000   0.05054565    -0.31430481     0             -0.27407363     0.002686157  
   6501000   0.050473675   -0.31319138     0             -0.27301749    -0.0015223015 
   6502000   0.051507124   -0.31397424     0             -0.27297779     0.0052324891 
   6503000   0.048842419   -0.30728551     0             -0.26840999    -0.0070841934 
   6504000   0.051424453   -0.31398347     0             -0.27305282    -0.0014035481 
   6505000   0.049732669   -0.31422197     0             -0.27463787    -0.0002679291 
   6506000   0.05065727    -0.31362869     0             -0.27330866    -0.0025518001 
   6507000   0.049499209   -0.31336328     0             -0.273965       0.00664579   
   6508000   0.050839304   -0.31357677     0             -0.27311186     0.0031376173 
   6509000   0.049117106   -0.3139222      0             -0.27482805    -0.0020794761 
   6510000   0.051660643   -0.31349309     0             -0.27237445    -0.011161346  
   6511000   0.049640382   -0.31352396     0             -0.27401331    -0.0036901863 
   6512000   0.049940411   -0.31508283     0             -0.27533339     0.002334173  
   6513000   0.049498803   -0.31438043     0             -0.27498248     0.0029118351 
   6514000   0.047740667   -0.3144964      0             -0.27649781     0.0074437778 
   6515000   0.049801637   -0.31385307     0             -0.27421408    -0.0078362619 
   6516000   0.050216601   -0.31487133     0             -0.27490206     0.0026078045 
   6517000   0.048629553   -0.31496252     0             -0.27625644    -0.0047689581 
   6518000   0.050240857   -0.31466077     0             -0.27467219     0.0093128074 
   6519000   0.048999722   -0.3119388      0             -0.27293808    -0.0011284685 
   6520000   0.049887505   -0.31549711     0             -0.27578978    -0.0038896258 
   6521000   0.047995534   -0.31620019     0             -0.27799875     0.00025772952
   6522000   0.049539758   -0.30951353     0             -0.27008298     0.0035594614 
   6523000   0.052506853   -0.31428518     0             -0.27249301    -0.0032530684 
   6524000   0.050155277   -0.31512016     0             -0.27519969     0.0040748798 
   6525000   0.048672531   -0.31483747     0             -0.27609717     0.0002495788 
   6526000   0.049734518   -0.31491174     0             -0.27532617    -0.0022675793 
   6527000   0.049767831   -0.31307129     0             -0.2734592     -0.005726863  
   6528000   0.049253408   -0.31423238     0             -0.27502975     0.0022624367 
   6529000   0.049831801   -0.31430404     0             -0.27464104    -0.0022404593 
   6530000   0.049614262   -0.31401095     0             -0.2745211     -0.00012312455
   6531000   0.049299232   -0.313326       0             -0.27408689    -0.0044680583 
   6532000   0.049975034   -0.30192189     0             -0.26214488     0.0081618637 
   6533000   0.048847016   -0.31457124     0             -0.27569207    -0.0068958357 
   6534000   0.050160619   -0.31285994     0             -0.27293522    -0.00040310103
   6535000   0.049827297   -0.31263861     0             -0.2729792     -0.0049232228 
   6536000   0.049536829   -0.31349614     0             -0.27406792    -0.0036335069 
   6537000   0.052160591   -0.31429381     0             -0.27277724     0.0046476262 
   6538000   0.050862473   -0.31309385     0             -0.2726105      9.6534102e-05
   6539000   0.051079144   -0.30718641     0             -0.2665306     -0.005477262  
   6540000   0.050245347   -0.31441476     0             -0.2744226      0.0011734742 
   6541000   0.052593142   -0.31330781     0             -0.27144696     0.0012604596 
   6542000   0.049400989   -0.31388841     0             -0.27456831    -0.0024029706 
   6543000   0.052360643   -0.3130928      0             -0.271417      -0.0015919554 
   6544000   0.049163346   -0.31286992     0             -0.27373897    -0.0020694161 
   6545000   0.049744415   -0.30913619     0             -0.26954275     0.001414358  
   6546000   0.050074715   -0.3123544      0             -0.27249806    -0.0024278575 
   6547000   0.050887531   -0.31220771     0             -0.27170442    -0.0063913293 
   6548000   0.048101496   -0.31450904     0             -0.27622326     0.0085988522 
   6549000   0.051474643   -0.31279341     0             -0.27182281     0.0044455709 
   6550000   0.053645312   -0.31354407     0             -0.27084576     0.0032128841 
   6551000   0.048018177   -0.31282263     0             -0.27460316     0.0032160829 
   6552000   0.048981587   -0.31322187     0             -0.27423559     0.0032078638 
   6553000   0.051552764   -0.31271687     0             -0.27168409     0.0028691082 
   6554000   0.051075772   -0.31224377     0             -0.27159065     0.00090884993
   6555000   0.048140838   -0.31165903     0             -0.27334193     0.0027218649 
   6556000   0.049808869   -0.31401965     0             -0.2743749     -0.0030392358 
   6557000   0.053041587   -0.31272102     0             -0.27050323     0.0037831409 
   6558000   0.051141802   -0.31333315     0             -0.27262747    -0.0028922586 
   6559000   0.050450822   -0.30469563     0             -0.26453993     0.0014350403 
   6560000   0.050232637   -0.31327805     0             -0.27329601    -0.0088988436 
   6561000   0.05162132    -0.3069381      0             -0.26585075     0.0028647079 
   6562000   0.049306798   -0.31304482     0             -0.27379969     0.0036127531 
   6563000   0.050147865   -0.31204767     0             -0.2721331      0.0016709493 
   6564000   0.050247138   -0.31207032     0             -0.27207674     0.0003323086 
   6565000   0.050839688   -0.31221773     0             -0.27175252     0.0018267897 
   6566000   0.052598843   -0.3067064      0             -0.26484101    -0.0065702393 
   6567000   0.050995392   -0.31156526     0             -0.27097612     0.00031251936
   6568000   0.051715758   -0.31134811     0             -0.2701856      0.0048143932 
   6569000   0.049475897   -0.31294069     0             -0.27356097    -0.0072787805 
   6570000   0.048688197   -0.31322983     0             -0.27447707     0.00055521118
   6571000   0.048772233   -0.308785       0             -0.26996535    -0.0013594517 
   6572000   0.052246321   -0.31137912     0             -0.26979432    -0.0077947884 
   6573000   0.050650045   -0.31064354     0             -0.27032927     0.0035160182 
   6574000   0.050336125   -0.30999767     0             -0.26993326    -0.0051450586 
   6575000   0.049765693   -0.31077953     0             -0.27116915     0.0048929502 
   6576000   0.048796632   -0.31168544     0             -0.27284637     0.00038152198
   6577000   0.048926449   -0.31131517     0             -0.27237278    -0.0026271788 
   6578000   0.051149806   -0.31170822     0             -0.27099617    -0.0073581758 
   6579000   0.050542204   -0.31226769     0             -0.27203925     0.0044516154 
   6580000   0.048930096   -0.31106546     0             -0.27212016     0.0026007526 
   6581000   0.049573643   -0.31033282     0             -0.2708753      0.0023648343 
   6582000   0.050557788   -0.30401794     0             -0.2637771     -0.0041027773 
   6583000   0.053210074   -0.31053592     0             -0.26818403    -0.0036390924 
   6584000   0.049212135   -0.30965644     0             -0.27048666     0.0067980518 
   6585000   0.048551464   -0.31014607     0             -0.27150214     0.0032603913 
   6586000   0.049301548   -0.31167949     0             -0.27243853     0.0010945089 
   6587000   0.050440321   -0.30974583     0             -0.26959848     0.0042515848 
   6588000   0.051721853   -0.31083818     0             -0.26967081     0.00048163061
   6589000   0.047091941   -0.31064159     0             -0.27315935     0.0044421644 
   6590000   0.051309271   -0.3008162      0             -0.25997722    -0.0025511579 
   6591000   0.0523079     -0.30364651     0             -0.26201269    -0.0069981538 
   6592000   0.050725492   -0.31036323     0             -0.2699889      0.0042182553 
   6593000   0.049210663   -0.31070895     0             -0.27154034     0.00018662273
   6594000   0.050679148   -0.31113853     0             -0.2708011     -0.0021224952 
   6595000   0.049050311   -0.31126394     0             -0.27222296     0.0014528631 
   6596000   0.051295781   -0.31107503     0             -0.2702468     -0.00022918136
   6597000   0.047575559   -0.30481734     0             -0.26695017    -0.0032459435 
   6598000   0.049413698   -0.31097137     0             -0.27164116     0.0017965218 
   6599000   0.049688802   -0.30527658     0             -0.2657274     -0.0081843711 
   6600000   0.052941857   -0.31102223     0             -0.26888382     0.004428043  
   6601000   0.048736846   -0.31051782     0             -0.27172633    -0.0054757177 
   6602000   0.050830904   -0.31034912     0             -0.26989089     0.0037289954 
   6603000   0.051180589   -0.30952974     0             -0.26879319    -0.003224485  
   6604000   0.047140294   -0.31003858     0             -0.27251785     0.0071563062 
   6605000   0.049144289   -0.31029192     0             -0.27117614    -0.0034374933 
   6606000   0.052328811   -0.31090331     0             -0.26925284     0.00077721785
   6607000   0.050349528   -0.31086349     0             -0.27078841    -1.9815852e-05
   6608000   0.050280698   -0.31078566     0             -0.27076536    -0.003964749  
   6609000   0.050890927   -0.31061579     0             -0.2701098     -0.0048264797 
   6610000   0.0507392     -0.30397334     0             -0.26358811    -0.0028713107 
   6611000   0.051880366   -0.31205584     0             -0.27076231    -0.0044987521 
   6612000   0.052402274   -0.31023775     0             -0.26852882     0.0017488705 
   6613000   0.049419488   -0.31068703     0             -0.2713522      0.0042219941 
   6614000   0.049145191   -0.31030481     0             -0.27118831    -0.0022976315 
   6615000   0.050331138   -0.31104493     0             -0.27098449    -0.0014789958 
   6616000   0.049476822   -0.31136926     0             -0.2719888     -0.0038735623 
   6617000   0.048976812   -0.31194385     0             -0.27296137     0.0051650296 
   6618000   0.052441635   -0.31086544     0             -0.26912518     0.0050828661 
   6619000   0.050072895   -0.3108456      0             -0.2709907      0.0069815577 
   6620000   0.050776142   -0.31120061     0             -0.27078598    -0.0011901434 
   6621000   0.048515753   -0.3107053      0             -0.27208979     0.0040737738 
   6622000   0.052685677   -0.31095988     0             -0.26902538     0.0011056589 
   6623000   0.050154389   -0.31072489     0             -0.27080513     0.0022725011 
   6624000   0.050087314   -0.30695083     0             -0.26708446     0.0032496223 
   6625000   0.049778948   -0.30884067     0             -0.26921974    -0.0015451273 
   6626000   0.051928486   -0.31169571     0             -0.27036388     0.00050269941
   6627000   0.050206074   -0.31032614     0             -0.27036524     0.0011219275 
   6628000   0.050867762   -0.31292797     0             -0.27244041     0.002427741  
   6629000   0.04996836    -0.30326934     0             -0.26349765    -0.00016486229
   6630000   0.048107203   -0.31147852     0             -0.27318819    -0.0061197164 
   6631000   0.049786158   -0.31142153     0             -0.27179486     0.001644834  
   6632000   0.049765762   -0.30934838     0             -0.26973794    -0.00086165333
   6633000   0.050936651   -0.31022138     0             -0.26967898    -0.0030592827 
   6634000   0.050080633   -0.30990011     0             -0.27003906     0.004416522  
   6635000   0.048342396   -0.31032634     0             -0.27184881     0.0071966899 
   6636000   0.049136065   -0.31193773     0             -0.27282849     0.0055772175 
   6637000   0.050801276   -0.31137224     0             -0.2709376      0.0036711337 
   6638000   0.050766839   -0.31142143     0             -0.2710142     -0.0016492603 
   6639000   0.051236223   -0.31166094     0             -0.27088011     0.0065013187 
   6640000   0.049900174   -0.31227262     0             -0.2725552      0.0041900422 
   6641000   0.050349237   -0.31056217     0             -0.27048733    -0.0012455887 
   6642000   0.049489611   -0.31275239     0             -0.27336175     0.00012297032
   6643000   0.048209069   -0.31171645     0             -0.27334504     0.0019588844 
   6644000   0.051705468   -0.31259166     0             -0.27143734     0.00012641241
   6645000   0.050856248   -0.31301557     0             -0.27253717     0.0052749184 
   6646000   0.051388379   -0.31251849     0             -0.27161656     0.00012321955
   6647000   0.050643013   -0.3109976      0             -0.27068892     0.0069892365 
   6648000   0.04953668    -0.3109654      0             -0.2715373      0.0026094128 
   6649000   0.054056118   -0.31108159     0             -0.2680563     -0.002176935  
   6650000   0.049814611   -0.31112661     0             -0.27147729    -0.00014323565
   6651000   0.051727249   -0.3116499      0             -0.27047824     0.0058348652 
   6652000   0.050077307   -0.31053567     0             -0.27067727     0.0047189352 
   6653000   0.050969114   -0.31124102     0             -0.27067279     0.001240806  
   6654000   0.048558176   -0.31070358     0             -0.27205431     0.0015264122 
   6655000   0.048020858   -0.31101033     0             -0.27278873     0.0024362451 
   6656000   0.050243806   -0.30972908     0             -0.26973815     0.0020643045 
   6657000   0.052595283   -0.31068859     0             -0.26882604     0.0044013996 
   6658000   0.054104229   -0.3053652      0             -0.26230161     0.0084753885 
   6659000   0.052123483   -0.30410146     0             -0.26261443    -0.0051519538 
   6660000   0.049663629   -0.31106924     0             -0.2715401      0.0030527657 
   6661000   0.048983228   -0.31035307     0             -0.27136548     0.00063592166
   6662000   0.048270398   -0.31127515     0             -0.27285493     0.0042354193 
   6663000   0.048140662   -0.3113267      0             -0.27300974    -0.0014285514 
   6664000   0.049960744   -0.31138739     0             -0.27162176    -0.00013252421
   6665000   0.049931554   -0.31221469     0             -0.27247229     0.0024573534 
   6666000   0.05069744    -0.31147666     0             -0.27112467    -0.0012615317 
   6667000   0.052052059   -0.31046656     0             -0.26903637     0.0057328458 
   6668000   0.052211992   -0.31173859     0             -0.27018111     0.0033511668 
   6669000   0.052975604   -0.30465234     0             -0.26248707     0.0010053764 
   6670000   0.052879306   -0.29844831     0             -0.25635969    -6.2599303e-05
   6671000   0.049455481   -0.30993648     0             -0.27057301     0.0024973792 
   6672000   0.048078623   -0.31100176     0             -0.27273419     0.0047885482 
   6673000   0.049424244   -0.29728508     0             -0.25794647     0.0020148881 
   6674000   0.04837027    -0.31037996     0             -0.27188024    -0.0028247419 
   6675000   0.050586748   -0.31085405     0             -0.27059016     0.00049139403
   6676000   0.050817396   -0.31065172     0             -0.27020425     0.0047504122 
   6677000   0.050551107   -0.31041891     0             -0.27018338    -0.0055712677 
   6678000   0.051252049   -0.31236008     0             -0.27156665     0.0088648634 
   6679000   0.048485169   -0.3094926      0             -0.27090143     0.0062580402 
   6680000   0.051417221   -0.31032064     0             -0.26939574    -0.0019674146 
   6681000   0.048310483   -0.310213       0             -0.27176087    -0.0014630895 
   6682000   0.048212039   -0.30986547     0             -0.2714917      0.0087464291 
   6683000   0.047814173   -0.30685209     0             -0.268795       0.0029016112 
   6684000   0.049191868   -0.3109355      0             -0.27178185    -0.004212692  
   6685000   0.049335457   -0.30886335     0             -0.26959541    -0.00042667676
   6686000   0.049147396   -0.30836547     0             -0.26924721     0.0025663361 
   6687000   0.050659742   -0.30899716     0             -0.26867517     0.0033421187 
   6688000   0.049148833   -0.30933323     0             -0.27021383     0.0017506528 
   6689000   0.047921198   -0.30938138     0             -0.27123911    -0.0040078769 
   6690000   0.048320977   -0.30987485     0             -0.27141437     0.0063034829 
   6691000   0.051614023   -0.31006264     0             -0.2689811      0.004556698  
   6692000   0.050157889   -0.30813278     0             -0.26821024     0.00078299158
   6693000   0.051364092   -0.30912027     0             -0.26823766    -0.00047131007
   6694000   0.047078961   -0.3099663      0             -0.27249439    -0.004987086  
   6695000   0.04797421    -0.3096015      0             -0.27141703    -0.0017438744 
   6696000   0.052760269   -0.30921639     0             -0.26722252    -0.0031829168 
   6697000   0.049550916   -0.30958875     0             -0.27014932     0.0049324295 
   6698000   0.051671616   -0.30841736     0             -0.26728998     0.0080463675 
   6699000   0.049244465   -0.30881058     0             -0.26961506    -0.00031668711
   6700000   0.051166267   -0.30799477     0             -0.26726962     0.0017253777 
   6701000   0.04916929    -0.30821163     0             -0.26907595     0.0084886267 
   6702000   0.050520296   -0.3088325      0             -0.26862151    -0.0040907955 
   6703000   0.051160879   -0.30898288     0             -0.26826202    -0.0041747325 
   6704000   0.05033674    -0.30798831     0             -0.26792341    -0.0014766961 
   6705000   0.052620364   -0.30122759     0             -0.25934507    -0.0011360024 
   6706000   0.051750108   -0.30990646     0             -0.26871661     0.004524495  
   6707000   0.04950984    -0.30720787     0             -0.26780113    -0.0037411926 
   6708000   0.049965717   -0.3081887      0             -0.26841912     0.0041808913 
   6709000   0.051160028   -0.3079801      0             -0.26725992     0.0027502636 
   6710000   0.051597833   -0.30896356     0             -0.26789491    -0.0014113281 
   6711000   0.051868144   -0.30821667     0             -0.26693286    -0.0011090488 
   6712000   0.052710285   -0.30846661     0             -0.26651252     0.0027681031 
   6713000   0.051870475   -0.31025613     0             -0.26897047    -0.0008098449 
   6714000   0.049911748   -0.3099821      0             -0.27025547     0.0027602047 
   6715000   0.051311065   -0.30950132     0             -0.26866092    -0.0012430414 
   6716000   0.050913699   -0.31022076     0             -0.26969664     0.00085725048
   6717000   0.051925275   -0.30916506     0             -0.26783579    -0.0032248676 
   6718000   0.051370076   -0.30968246     0             -0.26879509     0.0016764741 
   6719000   0.049547618   -0.30984084     0             -0.27040403     0.0062443504 
   6720000   0.051956072   -0.30973099     0             -0.26837721    -0.00048064563
   6721000   0.050344139   -0.30914201     0             -0.26907122     0.0026017619 
   6722000   0.052436005   -0.30721661     0             -0.26548082     0.0064599109 
   6723000   0.053447653   -0.30874821     0             -0.26620721     0.002996996  
   6724000   0.050186318   -0.29738713     0             -0.25744196     0.0017535836 
   6725000   0.049772802   -0.30742549     0             -0.26780945     0.0031794722 
   6726000   0.048692998   -0.30930157     0             -0.27054499    -0.0066931554 
   6727000   0.050100591   -0.30984423     0             -0.26996729     0.0026721702 
   6728000   0.05027712    -0.30875247     0             -0.26873502     0.0020672845 
   6729000   0.048340072   -0.30965859     0             -0.27118291     0.0070773204 
   6730000   0.050067997   -0.31065659     0             -0.27080559    -0.002061124  
   6731000   0.051877794   -0.31020777     0             -0.26891629     0.0011170574 
   6732000   0.048738124   -0.30946418     0             -0.27067168    -0.00076449511
   6733000   0.05107534    -0.29817047     0             -0.25751769     0.0037705529 
   6734000   0.050902627   -0.30923945     0             -0.26872414     0.0029881655 
   6735000   0.047841724   -0.310738       0             -0.27265898     0.001361125  
   6736000   0.048960678   -0.30912713     0             -0.27015749     0.0043497356 
   6737000   0.048686294   -0.30969111     0             -0.27093986    -0.00045712612
   6738000   0.049661881   -0.31026363     0             -0.27073587    -0.0038956335 
   6739000   0.051694518   -0.30256762     0             -0.26142201    -0.0011831774 
   6740000   0.05072197    -0.3100387      0             -0.26966718     0.0072733808 
   6741000   0.050546026   -0.30968637     0             -0.26945489     0.0018066762 
   6742000   0.051248075   -0.30667154     0             -0.26588128     0.00040515263
   6743000   0.050918021   -0.31041019     0             -0.26988263    -0.0072075285 
   6744000   0.050705607   -0.30581089     0             -0.2654524      0.0036153458 
   6745000   0.051475523   -0.31029838     0             -0.26932708    -0.0063472828 
   6746000   0.051657866   -0.30967985     0             -0.26856342    -0.0075849416 
   6747000   0.050266096   -0.30938572     0             -0.26937705     0.0048906668 
   6748000   0.053722226   -0.30345989     0             -0.26070035     0.0038634323 
   6749000   0.05205713    -0.30869582     0             -0.26726159    -0.001307046  
   6750000   0.050267835   -0.30904724     0             -0.26903719     0.0047632542 
   6751000   0.052000245   -0.30939131     0             -0.26800236     0.0010136972 
   6752000   0.052799484   -0.30782575     0             -0.26580066     0.007694604  
   6753000   0.049183181   -0.30816242     0             -0.26901568    -0.0032181002 
   6754000   0.051535313   -0.30917722     0             -0.26815833     0.0054614337 
   6755000   0.05248065    -0.30494979     0             -0.26317848     0.0016316132 
   6756000   0.047017798   -0.30761703     0             -0.2701938      0.0035709215 
   6757000   0.049903543   -0.3091397      0             -0.26941959     0.0024371706 
   6758000   0.048149393   -0.30812868     0             -0.26980477    -0.00072825651
   6759000   0.051712763   -0.30822066     0             -0.26706054     0.0018075833 
   6760000   0.050020437   -0.30767478     0             -0.26786164     0.0059435209 
   6761000   0.051085381   -0.30762414     0             -0.26696337     0.0022690494 
   6762000   0.049911337   -0.30846643     0             -0.26874012     0.0040105466 
   6763000   0.048730101   -0.3011631      0             -0.26237699    -0.0045707537 
   6764000   0.049911104   -0.30362856     0             -0.26390244     0.0046375815 
   6765000   0.052103708   -0.30874317     0             -0.26727187     0.0040649587 
   6766000   0.051968033   -0.29412798     0             -0.25276467     0.0038362337 
   6767000   0.049627186   -0.30819557     0             -0.26869543    -0.0013329168 
   6768000   0.049616933   -0.30853976     0             -0.26904778     0.010436349  
   6769000   0.050266867   -0.30429299     0             -0.26428371     0.0058064688 
   6770000   0.049371094   -0.30324297     0             -0.26394667    -0.0030238234 
   6771000   0.052685762   -0.30787842     0             -0.26594385     0.0046406248 
   6772000   0.048902718   -0.3073119      0             -0.2683884     -0.004467892  
   6773000   0.050135744   -0.30697196     0             -0.26706704    -0.0016024506 
   6774000   0.048718227   -0.3069351      0             -0.26815844    -0.0051210237 
   6775000   0.052653407   -0.30355348     0             -0.26164466     0.0059671984 
   6776000   0.050005456   -0.30748868     0             -0.26768747     0.0060351083 
   6777000   0.049626147   -0.30648493     0             -0.26698562     0.0078518946 
   6778000   0.051417323   -0.3073571      0             -0.26643212     0.00059534844
   6779000   0.050375661   -0.29957202     0             -0.25947615     0.0063176311 
   6780000   0.050740784   -0.30075555     0             -0.26036906    -0.0041859355 
   6781000   0.048831574   -0.3065794      0             -0.26771252     0.0043115843 
   6782000   0.05117618    -0.30804628     0             -0.26731324    -0.010071625  
   6783000   0.051591304   -0.30891409     0             -0.26785063     0.0045085767 
   6784000   0.047329156   -0.30800285     0             -0.2703318      0.001278492  
   6785000   0.050801843   -0.3081699      0             -0.26773481    -0.0045906108 
   6786000   0.05234566    -0.30550576     0             -0.26384189     0.0049145298 
   6787000   0.050754671   -0.30802966     0             -0.26763212     0.0041153373 
   6788000   0.048632843   -0.30810504     0             -0.26939634    -0.001552161  
   6789000   0.049731909   -0.30720766     0             -0.26762417     0.0003375463 
   6790000   0.049733787   -0.30751485     0             -0.26792987     0.001868609  
   6791000   0.0508174     -0.30794798     0             -0.26750051    -0.0012379777 
   6792000   0.048367639   -0.30800752     0             -0.2695099     -0.00030757934
   6793000   0.049909659   -0.30807108     0             -0.26834611     0.0076544505 
   6794000   0.050748587   -0.30794487     0             -0.26755217    -0.0006603246 
   6795000   0.051087293   -0.30835528     0             -0.26769299     0.0027398813 
   6796000   0.04957899    -0.30863617     0             -0.26917439     0.001196447  
   6797000   0.051080582   -0.30785816     0             -0.26720121     0.0038586952 
   6798000   0.050460011   -0.30863571     0             -0.26847269     0.0017134544 
   6799000   0.051797223   -0.30706315     0             -0.2658358     -0.004748037  
   6800000   0.049525276   -0.30801064     0             -0.26859162     0.0080710394 
   6801000   0.049835332   -0.30756088     0             -0.26789507     0.0055932039 
   6802000   0.049535929   -0.3073363      0             -0.2679088      0.0044039263 
   6803000   0.048799302   -0.30219513     0             -0.26335393    -0.002005005  
   6804000   0.050094911   -0.30831264     0             -0.26844022     0.0084560209 
   6805000   0.050961844   -0.30800209     0             -0.26743964     0.0045567336 
   6806000   0.051104622   -0.30672435     0             -0.26604827     0.0062119244 
   6807000   0.050922018   -0.30796638     0             -0.26743564    -0.0024739232 
   6808000   0.048202373   -0.30773478     0             -0.26936871     0.0026259888 
   6809000   0.051032294   -0.3084527      0             -0.26783419    -0.0019810625 
   6810000   0.049477645   -0.30770099     0             -0.26831987    -0.0076268553 
   6811000   0.048542267   -0.3082711      0             -0.26963449    -0.0037137854 
   6812000   0.050719632   -0.30720445     0             -0.2668348      0.0014817433 
   6813000   0.049725488   -0.30780151     0             -0.26822313    -0.0051348096 
   6814000   0.050522507   -0.30728964     0             -0.26707688     0.0010937554 
   6815000   0.050281175   -0.30920948     0             -0.2691888     -0.0041719518 
   6816000   0.050325961   -0.30720548     0             -0.26714916    -0.0033393392 
   6817000   0.049019856   -0.30863987     0             -0.26962312    -0.0067490672 
   6818000   0.04844784    -0.30324452     0             -0.26468306     0.00064018167
   6819000   0.049127342   -0.30741019     0             -0.2683079      0.00014946901
   6820000   0.050824246   -0.30830928     0             -0.26785636     0.0056200493 
   6821000   0.048804736   -0.30607683     0             -0.26723131    -0.0027076409 
   6822000   0.051302829   -0.30487988     0             -0.26404604    -0.0033241352 
   6823000   0.051592522   -0.30908845     0             -0.26802403     0.0030936127 
   6824000   0.051498655   -0.30805329     0             -0.26706358    -0.0050791378 
   6825000   0.05219639    -0.3081087      0             -0.26656364    -0.008864515  
   6826000   0.048567123   -0.30758726     0             -0.26893087    -0.003797068  
   6827000   0.048610072   -0.30893188     0             -0.2702413      0.0030253186 
   6828000   0.050559336   -0.3079048      0             -0.26766273     0.0010276743 
   6829000   0.049937034   -0.30864855     0             -0.2689018     -0.0037517849 
   6830000   0.047102949   -0.30684289     0             -0.26935188     0.00038723974
   6831000   0.049038889   -0.30681948     0             -0.26778758     0.0042834725 
   6832000   0.050019856   -0.30748583     0             -0.26767315     0.00085381042
   6833000   0.049924407   -0.30697831     0             -0.26724161    -0.011435757  
   6834000   0.049914085   -0.30704077     0             -0.26731228     0.0013119219 
   6835000   0.049198995   -0.30368805     0             -0.26452872    -0.0001166601 
   6836000   0.047565405   -0.30686705     0             -0.26900796    -0.00079581366
   6837000   0.051765843   -0.30140363     0             -0.26020126    -0.0035321472 
   6838000   0.05174254    -0.30865103     0             -0.2674672     -0.0052003508 
   6839000   0.049213      -0.29841306     0             -0.25924258     0.0023198069 
   6840000   0.04963222    -0.3072435      0             -0.26773935    -6.1504963e-05
   6841000   0.048121861   -0.30762758     0             -0.26932559    -0.00056850783
   6842000   0.050923788   -0.30171478     0             -0.26118263     0.0059286485 
   6843000   0.051068982   -0.30819729     0             -0.26754957    -0.0042035327 
   6844000   0.049204051   -0.30683508     0             -0.26767173    -0.0057076277 
   6845000   0.048587399   -0.3070244      0             -0.26835187    -0.0022675918 
   6846000   0.047905915   -0.30016944     0             -0.26203932     0.0041725317 
   6847000   0.051807091   -0.30660384     0             -0.26536864    -0.00072415888
   6848000   0.04791602    -0.30598453     0             -0.26784637     0.0065878496 
   6849000   0.051428557   -0.30764904     0             -0.26671512     0.0027161809 
   6850000   0.053059476   -0.3069437      0             -0.26471167    -0.0041315356 
   6851000   0.05169393    -0.3064135      0             -0.26526836     0.0029307578 
   6852000   0.049391992   -0.30751736     0             -0.26820442    -0.0037132261 
   6853000   0.049532458   -0.3055491      0             -0.26612436    -0.0021590193 
   6854000   0.048580819   -0.30117279     0             -0.26250549     0.00087859929
   6855000   0.0512639     -0.30683698     0             -0.26603412     0.0015807284 
   6856000   0.050019845   -0.3078746      0             -0.26806193     0.003196646  
   6857000   0.047071347   -0.3087046      0             -0.27123875     0.0070116012 
   6858000   0.050313918   -0.30522234     0             -0.26517561     0.0026620333 
   6859000   0.051801165   -0.30803658     0             -0.26680609    -0.0026150067 
   6860000   0.047420897   -0.3057311      0             -0.26798703    -0.00072803499
   6861000   0.050585973   -0.30730788     0             -0.2670446     -0.001372351  
   6862000   0.049700094   -0.29301675     0             -0.25345858     0.0087460441 
   6863000   0.052975009   -0.30748411     0             -0.26531932    -0.00040001886
   6864000   0.050133306   -0.30500831     0             -0.26510533    -0.0073909254 
   6865000   0.05204292    -0.2998672      0             -0.25844429     0.0052501979 
   6866000   0.047444647   -0.30675694     0             -0.26899397    -0.0027358615 
   6867000   0.049243477   -0.30747484     0             -0.26828011    -0.00077902857
   6868000   0.048904353   -0.30632126     0             -0.26739645     0.0019258049 
   6869000   0.05160608    -0.30638174     0             -0.26530653    -0.00095104791
   6870000   0.046904876   -0.30744875     0             -0.2701154      0.00011524008
   6871000   0.050245327   -0.30670595     0             -0.26671382    -0.0017038508 
   6872000   0.050092548   -0.30637503     0             -0.2665045     -0.0060276275 
   6873000   0.049185718   -0.30743645     0             -0.2682877     -0.0004780928 
   6874000   0.051562715   -0.30605244     0             -0.26501174    -0.0050269529 
   6875000   0.048567963   -0.30277307     0             -0.26411601    -0.0065248165 
   6876000   0.049279825   -0.30752428     0             -0.26830062     0.00012632998
   6877000   0.048352677   -0.30851627     0             -0.27003056    -0.0012595172 
   6878000   0.049368369   -0.3079102      0             -0.26861606     0.0046001274 
   6879000   0.050274226   -0.30714722     0             -0.26713208    -0.011124769  
   6880000   0.05059917    -0.29971085     0             -0.25943708     0.0031485678 
   6881000   0.049429837   -0.30712486     0             -0.2677818      0.0036478496 
   6882000   0.050049142   -0.30577861     0             -0.26594262     0.0013077001 
   6883000   0.051858065   -0.30567281     0             -0.26439703    -0.0062111424 
   6884000   0.048508718   -0.30671112     0             -0.26810121     0.0013397351 
   6885000   0.051321502   -0.30631768     0             -0.26546898    -0.0033242702 
   6886000   0.049211784   -0.30748418     0             -0.26831468     0.0006275582 
   6887000   0.050594597   -0.30618897     0             -0.26591883     0.00087741205
   6888000   0.050739643   -0.30629874     0             -0.26591316     0.011726268  
   6889000   0.048165732   -0.30713014     0             -0.26879323     0.0084761651 
   6890000   0.048175084   -0.30580595     0             -0.2674616     -0.0055726201 
   6891000   0.048480363   -0.30425782     0             -0.26567048     0.0019439487 
   6892000   0.048185329   -0.3052792      0             -0.26692669     0.0057869489 
   6893000   0.05110741    -0.30561555     0             -0.26493725     0.0098490418 
   6894000   0.051587243   -0.30643377     0             -0.26537355    -0.0018007098 
   6895000   0.050334811   -0.30709748     0             -0.26703412    -0.0021355115 
   6896000   0.049898742   -0.30740922     0             -0.26769294     0.0011654269 
   6897000   0.051863283   -0.30794569     0             -0.26666576    -0.0037199745 
   6898000   0.050240952   -0.30782029     0             -0.26783163    -0.0041005945 
   6899000   0.049104309   -0.30683902     0             -0.26775506    -0.0049831317 
   6900000   0.047941099   -0.30668866     0             -0.26853054     0.0056306861 
   6901000   0.051433299   -0.30722052     0             -0.26628283    -0.0059390269 
   6902000   0.050264912   -0.30026821     0             -0.26026048    -0.0008650773 
   6903000   0.051192173   -0.29960067     0             -0.2588549      0.0027336857 
   6904000   0.049439992   -0.30773437     0             -0.26838323    -0.00034527944
   6905000   0.049144509   -0.30715736     0             -0.2680414      0.00140695   
   6906000   0.049783382   -0.30668837     0             -0.2670639      0.0051153972 
   6907000   0.04943905    -0.30724435     0             -0.26789395     0.0060598685 
   6908000   0.050986069   -0.30677027     0             -0.26618854    -0.0068371686 
   6909000   0.049958462   -0.30668204     0             -0.26691823    -0.0070521578 
   6910000   0.050065305   -0.30772202     0             -0.26787317     0.0028290746 
   6911000   0.051479267   -0.30673316     0             -0.26575888    -0.0028875901 
   6912000   0.05128557    -0.30719504     0             -0.26637493    -0.0033875436 
   6913000   0.047889425   -0.30759564     0             -0.26947865     0.002980769  
   6914000   0.054524981   -0.30764064     0             -0.26424217     0.002141283  
   6915000   0.048727555   -0.30807559     0             -0.2692915     -0.0043221708 
   6916000   0.04828522    -0.30849092     0             -0.2700589      0.0042618165 
   6917000   0.053469357   -0.30777817     0             -0.2652199     -0.00011405418
   6918000   0.052496462   -0.30893103     0             -0.26714712     0.0027631356 
   6919000   0.048839876   -0.30738345     0             -0.26850996    -0.0022550888 
   6920000   0.049703276   -0.30772775     0             -0.26816705     0.00038085979
   6921000   0.050736431   -0.30947734     0             -0.26909431    -0.0072969977 
   6922000   0.051972305   -0.30854547     0             -0.26717876     0.0086165797 
   6923000   0.052684275   -0.30879542     0             -0.26686203    -0.0055028656 
   6924000   0.049520572   -0.30792846     0             -0.26851318     0.0056300807 
   6925000   0.049098203   -0.30314272     0             -0.26406362    -0.00069106179
   6926000   0.051575679   -0.29857917     0             -0.25752815     0.0010051035 
   6927000   0.049832537   -0.30321777     0             -0.26355418    -0.00030908947
   6928000   0.051881309   -0.30840048     0             -0.2671062      0.00079764765
   6929000   0.04765766    -0.30837635     0             -0.27044384    -0.0015199544 
   6930000   0.050963751   -0.30200102     0             -0.26143706    -0.005608386  
   6931000   0.050527168   -0.30848125     0             -0.26826478    -0.0049330008 
   6932000   0.049842929   -0.31017757     0             -0.27050571     0.00099470797
   6933000   0.050638069   -0.3100654      0             -0.26976067    -0.0028281563 
   6934000   0.047398929   -0.30960539     0             -0.2718788      0.0016086272 
   6935000   0.048744184   -0.30304455     0             -0.26424722    -0.0047633052 
   6936000   0.052026223   -0.30838571     0             -0.26697609    -0.0058779076 
   6937000   0.048852931   -0.3104681      0             -0.27158422     0.0029361542 
   6938000   0.051778818   -0.30619371     0             -0.264981      -0.0013858566 
   6939000   0.049381822   -0.30820121     0             -0.26889637    -0.0046435537 
   6940000   0.048100741   -0.31041584     0             -0.27213066     0.004559947  
   6941000   0.051249281   -0.3099332      0             -0.26914198    -0.0040867419 
   6942000   0.053298264   -0.30951275     0             -0.26709066     0.0065136156 
   6943000   0.050462779   -0.31053423     0             -0.27036901    -0.0051259988 
   6944000   0.049783835   -0.30987743     0             -0.27025261     0.0053676663 
   6945000   0.046919817   -0.31023677     0             -0.27289153     0.0038708544 
   6946000   0.052390661   -0.30579918     0             -0.26409949     0.00093145712
   6947000   0.051663597   -0.3103256      0             -0.26920461     0.0016063006 
   6948000   0.050349571   -0.30991883     0             -0.26984371    -0.0024553601 
   6949000   0.052202016   -0.30387068     0             -0.26232113    -0.00079423839
   6950000   0.049639867   -0.30992681     0             -0.27041658    -0.0032616223 
   6951000   0.051538395   -0.30968421     0             -0.26866287    -0.009366834  
   6952000   0.048316364   -0.30944727     0             -0.27099047     0.0044973785 
   6953000   0.04909203    -0.31032018     0             -0.27124599     0.0034930716 
   6954000   0.050343299   -0.30953758     0             -0.26946746    -0.0034381127 
   6955000   0.0511177     -0.31026087     0             -0.26957437     0.0011953007 
   6956000   0.050871234   -0.30971827     0             -0.26922795    -0.0034550189 
   6957000   0.047501234   -0.31056266     0             -0.27275464     0.00033635045
   6958000   0.050108728   -0.31096038     0             -0.27107696    -0.00063586024
   6959000   0.050427326   -0.31077029     0             -0.27063329     0.0031037964 
   6960000   0.050439124   -0.31055166     0             -0.27040527    -0.0090977101 
   6961000   0.05173509    -0.30915084     0             -0.26797294    -0.0031362836 
   6962000   0.049982284   -0.30975086     0             -0.26996809     0.0023909383 
   6963000   0.052029065   -0.31059286     0             -0.26918098    -0.0054959607 
   6964000   0.050639135   -0.30438061     0             -0.26407502     0.0025144924 
   6965000   0.051811825   -0.30977704     0             -0.26853807     0.0084528568 
   6966000   0.049472629   -0.30109492     0             -0.2617178     -0.001310245  
   6967000   0.050349599   -0.30992353     0             -0.26984839    -0.0011092655 
   6968000   0.051843031   -0.30989489     0             -0.26863108    -0.0079365607 
   6969000   0.051085905   -0.30864295     0             -0.26798176    -0.0030829985 
   6970000   0.052572208   -0.30894779     0             -0.2671036      0.0047989012 
   6971000   0.049938573   -0.30971614     0             -0.26996816     0.0031762934 
   6972000   0.048389125   -0.30923546     0             -0.27072075    -0.0027159716 
   6973000   0.05179027    -0.30911469     0             -0.26789287    -0.0030835109 
   6974000   0.050394251   -0.30987814     0             -0.26976747     0.00066118116
   6975000   0.049474824   -0.31084475     0             -0.27146588     0.0019844766 
   6976000   0.049803457   -0.30949882     0             -0.26985838     0.0046750769 
   6977000   0.05151569    -0.30969673     0             -0.26869346     0.00041405413
   6978000   0.0529907     -0.31021305     0             -0.26803576     0.0052569233 
   6979000   0.051890702   -0.3098017      0             -0.26849995    -0.0015132663 
   6980000   0.050544416   -0.30980634     0             -0.26957614     0.00034456792
   6981000   0.050702203   -0.30837835     0             -0.26802257    -0.00034971571
   6982000   0.050514394   -0.30879649     0             -0.26859019     0.0066520745 
   6983000   0.048373319   -0.30774034     0             -0.2692382     -0.0011163053 
   6984000   0.052014817   -0.30868792     0             -0.26728737     0.0016838837 
   6985000   0.049480755   -0.30317191     0             -0.26378832    -0.0055937347 
   6986000   0.051197028   -0.30978494     0             -0.2690353      0.0046864091 
   6987000   0.049406031   -0.30987858     0             -0.27055446     0.0041048968 
   6988000   0.049284825   -0.30994052     0             -0.27071288     0.0033881173 
   6989000   0.051104084   -0.30859848     0             -0.26792282    -0.00050670843
   6990000   0.050795638   -0.30965159     0             -0.26922144     0.0026905296 
   6991000   0.05198855    -0.30513534     0             -0.2637557      0.0097343448 
   6992000   0.051199806   -0.31146681     0             -0.27071497    -0.0021809768 
   6993000   0.048792227   -0.30629346     0             -0.2674579     -0.0017924676 
   6994000   0.049691399   -0.31095209     0             -0.27140085    -0.0090651396 
   6995000   0.047199335   -0.31131063     0             -0.27374291    -0.011486061  
   6996000   0.051083669   -0.31083201     0             -0.2701726     -0.0056675424 
   6997000   0.051145859   -0.31047916     0             -0.26977025    -0.00065304769
   6998000   0.050131106   -0.31264644     0             -0.27274522     0.0027023375 
   6999000   0.049425462   -0.31059097     0             -0.27125139     0.0013617446 
   7000000   0.051747632   -0.31015815     0             -0.26897027     0.0056720543 
   7001000   0.04864392    -0.30988918     0             -0.27117166     0.0045278459 
   7002000   0.051715768   -0.31088166     0             -0.26971915    -0.0013142624 
   7003000   0.049171988   -0.30408292     0             -0.26494509     0.00034932138
   7004000   0.05151488    -0.30844695     0             -0.26744433    -0.00063659082
   7005000   0.050798542   -0.31056413     0             -0.27013167    -0.0085014771 
   7006000   0.048062964   -0.3092353      0             -0.27098018    -0.0016190395 
   7007000   0.048431544   -0.30427738     0             -0.2657289      0.0028129873 
   7008000   0.051051108   -0.30993583     0             -0.26930233     0.0016019668 
   7009000   0.050867296   -0.3100502      0             -0.26956301     0.0072659757 
   7010000   0.050629627   -0.30949577     0             -0.26919775     0.0026548443 
   7011000   0.049961857   -0.31030498     0             -0.27053846     0.001601282  
   7012000   0.049207415   -0.31063919     0             -0.27147316     0.001502953  
   7013000   0.052067637   -0.31072809     0             -0.2692855      0.0038953499 
   7014000   0.050457865   -0.3103792      0             -0.2702179      0.0019251429 
   7015000   0.048984718   -0.3069359      0             -0.26794712    -0.0010452231 
   7016000   0.049986489   -0.3092475      0             -0.26946138    -0.0072250583 
   7017000   0.049231401   -0.30089362     0             -0.2617085      0.00063989096
   7018000   0.047378947   -0.30823154     0             -0.27052086     0.0064143119 
   7019000   0.047962803   -0.30297454     0             -0.26479914     0.0052128734 
   7020000   0.050135732   -0.31012426     0             -0.27021935     0.0031061565 
   7021000   0.050752352   -0.30989975     0             -0.26950405    -0.0040408332 
   7022000   0.048910896   -0.30892952     0             -0.2699995     -0.0021999597 
   7023000   0.049431844   -0.31044277     0             -0.27109811    -0.0076464261 
   7024000   0.051891156   -0.31048946     0             -0.26918735    -0.0023091565 
   7025000   0.049544536   -0.30806061     0             -0.26862625    -0.0067006332 
   7026000   0.049967299   -0.31016422     0             -0.27039337    -0.0018364854 
   7027000   0.049722966   -0.30888013     0             -0.26930376    -0.00071799681
   7028000   0.050508138   -0.3080645      0             -0.26786318    -0.0034708397 
   7029000   0.048308503   -0.30926978     0             -0.27081923     0.0010767357 
   7030000   0.053076615   -0.30903643     0             -0.26679077    -0.00091988004
   7031000   0.04819574    -0.30865162     0             -0.27029083    -0.0067527012 
   7032000   0.051064378   -0.3081343      0             -0.26749024     0.0010317196 
   7033000   0.049592968   -0.30956762     0             -0.27009472    -7.6309391e-05
   7034000   0.049098412   -0.30976554     0             -0.27068628    -0.0021944834 
   7035000   0.050327183   -0.3093981      0             -0.26934081     0.00061775339
   7036000   0.051643463   -0.30866647     0             -0.2675615      0.003909072  
   7037000   0.048297206   -0.31041586     0             -0.2719743     -0.0021506911 
   7038000   0.049218496   -0.31026653     0             -0.27109168    -0.0012276637 
   7039000   0.050693087   -0.31110034     0             -0.27075181     0.0040359813 
   7040000   0.051623515   -0.30541399     0             -0.2643249     -0.0019837674 
   7041000   0.051546615   -0.3107305      0             -0.26970262     0.0058082362 
   7042000   0.048158357   -0.31066615     0             -0.27233511    -0.007198481  
   7043000   0.049574754   -0.30909583     0             -0.26963743     0.012327919  
   7044000   0.051045923   -0.31054993     0             -0.26992057    -0.0016013955 
   7045000   0.048241781   -0.30469304     0             -0.2662956      0.0013210668 
   7046000   0.050196556   -0.30855286     0             -0.26859954     0.0012317556 
   7047000   0.050361277   -0.31092517     0             -0.27084074    -0.0049704277 
   7048000   0.049632996   -0.3095227      0             -0.27001793     0.0041684187 
   7049000   0.050512593   -0.31036417     0             -0.2701593      0.0080608868 
   7050000   0.050715865   -0.31024992     0             -0.26988326    -0.00077266007
   7051000   0.049783176   -0.30909124     0             -0.26946694    -0.0013374349 
   7052000   0.049949544   -0.3099588      0             -0.27020209    -0.00085700727
   7053000   0.050771453   -0.30960384     0             -0.26919293     0.00024212255
   7054000   0.049383929   -0.31102796     0             -0.27172144    -0.0030177778 
   7055000   0.046592526   -0.30969546     0             -0.27261072     0.001871565  
   7056000   0.050749253   -0.31055998     0             -0.27016674     0.0014230623 
   7057000   0.048781219   -0.30099643     0             -0.26216963     0.0013449448 
   7058000   0.048544501   -0.3113918      0             -0.27275341     0.0011340879 
   7059000   0.05083065    -0.30794561     0             -0.26748759    -0.0011946327 
   7060000   0.05268463    -0.31049325     0             -0.26855958    -0.003562345  
   7061000   0.049699635   -0.31069409     0             -0.27113629     0.004458899  
   7062000   0.049665846   -0.31028479     0             -0.27075388    -0.0033713853 
   7063000   0.050198186   -0.31147233     0             -0.27151771     0.0091840738 
   7064000   0.049636847   -0.30959494     0             -0.27008711    -0.0025541914 
   7065000   0.049140772   -0.31129875     0             -0.27218577    -0.0024568331 
   7066000   0.048068051   -0.31133528     0             -0.27307611     0.0022760193 
   7067000   0.048742722   -0.31080487     0             -0.27200871    -0.0086141372 
   7068000   0.051169915   -0.31068243     0             -0.26995438    -0.0091266432 
   7069000   0.051013171   -0.3046911      0             -0.2640878     -0.00089910876
   7070000   0.04877448    -0.31105395     0             -0.27223252     0.0070031798 
   7071000   0.050652029   -0.31036916     0             -0.27005332     0.0021705217 
   7072000   0.051090683   -0.30767089     0             -0.2670059      0.001826065  
   7073000   0.047762955   -0.31098323     0             -0.2729669     -0.0042180988 
   7074000   0.04870674    -0.31219756     0             -0.27343003    -0.0012154489 
   7075000   0.05111822    -0.30983767     0             -0.26915076    -0.0025015908 
   7076000   0.051416578   -0.31221362     0             -0.27128924    -0.0036147615 
   7077000   0.05082379    -0.3100896      0             -0.26963704     0.0010032771 
   7078000   0.048241791   -0.31113854     0             -0.27274108    -0.0076619492 
   7079000   0.048683341   -0.31139116     0             -0.27264226    -0.011210565  
   7080000   0.051396262   -0.31080092     0             -0.26989271     0.00071140513
   7081000   0.049714337   -0.31299481     0             -0.27342531    -0.0034251741 
   7082000   0.050305598   -0.31153975     0             -0.27149964     0.0027773275 
   7083000   0.051465394   -0.30555266     0             -0.26458942    -0.0013897923 
   7084000   0.051456769   -0.30916523     0             -0.26820886     0.0011737711 
   7085000   0.049315658   -0.31273335     0             -0.27348117     0.0029395416 
   7086000   0.05316288    -0.31123962     0             -0.26892529     0.0029866336 
   7087000   0.047996056   -0.3114113      0             -0.27320944     0.0023852374 
   7088000   0.048843346   -0.31263847     0             -0.27376222     0.00103344   
   7089000   0.04949592    -0.31128063     0             -0.27188497     0.005498262  
   7090000   0.049510245   -0.31118911     0             -0.27178205     0.0044644623 
   7091000   0.049787684   -0.3124939      0             -0.27286601    -0.0022438042 
   7092000   0.053326541   -0.31164596     0             -0.26920136    -0.00053243289
   7093000   0.050868252   -0.31078768     0             -0.27029973    -0.010589864  
   7094000   0.049318171   -0.31191798     0             -0.2726638     -0.00030003882
   7095000   0.049224186   -0.31231028     0             -0.2731309      0.0023208428 
   7096000   0.052062018   -0.31220346     0             -0.27076534     0.0013323455 
   7097000   0.049234912   -0.30300215     0             -0.26381424     0.0057602253 
   7098000   0.051103383   -0.31124834     0             -0.27057324     0.0046013419 
   7099000   0.050236224   -0.3091128      0             -0.2691279     -0.0015435916 
   7100000   0.051168852   -0.31135024     0             -0.27062303     0.0040588238 
   7101000   0.050911936   -0.31105187     0             -0.27052915    -0.0015332354 
   7102000   0.050635602   -0.29454118     0             -0.2542384     -0.0054391409 
   7103000   0.047433152   -0.31086352     0             -0.2731097      0.0047539487 
   7104000   0.047522322   -0.30948604     0             -0.27166124     0.00088922805
   7105000   0.050733186   -0.31062887     0             -0.27024842     0.0036008982 
   7106000   0.049219491   -0.30422941     0             -0.26505377     0.001561916  
   7107000   0.050465972   -0.31116698     0             -0.27099922     0.00123033   
   7108000   0.049380607   -0.31179396     0             -0.27249009    -0.0029842955 
   7109000   0.051054698   -0.3112885      0             -0.27065215     0.0036848307 
   7110000   0.050356009   -0.30580936     0             -0.26572912    -0.0018940402 
   7111000   0.050663183   -0.30475366     0             -0.26442893     0.0027603644 
   7112000   0.047917397   -0.31059171     0             -0.27245245    -0.0056369856 
   7113000   0.046550101   -0.31008595     0             -0.27303498    -0.001944862  
   7114000   0.050488933   -0.30734622     0             -0.26716019     0.0087396848 
   7115000   0.047706895   -0.30963394     0             -0.27166223     0.0012346164 
   7116000   0.05014201    -0.31097597     0             -0.27106607     0.0043514785 
   7117000   0.049268392   -0.31138953     0             -0.27217497    -0.0021881261 
   7118000   0.05088337    -0.31243588     0             -0.2719359     -0.001448752  
   7119000   0.051488302   -0.30451486     0             -0.26353339     0.0036205627 
   7120000   0.048220884   -0.31166307     0             -0.27328226    -0.00047459215
   7121000   0.049743714   -0.31089461     0             -0.27130172     0.0019913732 
   7122000   0.048828366   -0.30855897     0             -0.26969464    -0.0026450902 
   7123000   0.050262949   -0.31162734     0             -0.27162117    -0.0072200294 
   7124000   0.051137956   -0.31161501     0             -0.27091239     0.0017418033 
   7125000   0.048370197   -0.31148469     0             -0.27298504    -0.0021981862 
   7126000   0.051270025   -0.30602054     0             -0.2652128     -0.0029280609 
   7127000   0.051037327   -0.3112745      0             -0.27065198     0.004472465  
   7128000   0.050668267   -0.31209436     0             -0.27176559    -0.001945204  
   7129000   0.048849892   -0.30500397     0             -0.26612251     0.0014254926 
   7130000   0.051172347   -0.31179068     0             -0.27106069    -0.010508459  
   7131000   0.050333609   -0.31134964     0             -0.27128724     0.0057704474 
   7132000   0.049054719   -0.31030844     0             -0.27126395     0.0063355634 
   7133000   0.050199502   -0.31217649     0             -0.27222083     0.0017756386 
   7134000   0.051961276   -0.31139372     0             -0.2700358     -0.0041438351 
   7135000   0.054073272   -0.31077089     0             -0.26773194    -0.0102216    
   7136000   0.051557112   -0.31174338     0             -0.27070714    -0.0046839396 
   7137000   0.049265306   -0.30740334     0             -0.26819123     0.0040830922 
   7138000   0.049271174   -0.31213988     0             -0.27292311     0.00084180292
   7139000   0.052808684   -0.31039812     0             -0.26836571    -0.0031604542 
   7140000   0.052002646   -0.31140842     0             -0.27001757     0.0034251457 
   7141000   0.050427817   -0.31247135     0             -0.27233396     0.0026876244 
   7142000   0.047795222   -0.31136225     0             -0.27332024     0.0026637848 
   7143000   0.052299907   -0.31220259     0             -0.27057513    -0.0010992009 
   7144000   0.049292033   -0.30427471     0             -0.26504133     0.003085425  
   7145000   0.051488045   -0.3099106      0             -0.26892933    -0.0058635019 
   7146000   0.049163285   -0.29743646     0             -0.25830555     0.0043550543 
   7147000   0.048936785   -0.30977687     0             -0.27082625     0.011410789  
   7148000   0.049359922   -0.30925294     0             -0.26996553    -0.0017396129 
   7149000   0.049077014   -0.3094098      0             -0.27034757    -0.0025299813 
   7150000   0.04825844    -0.30856312     0             -0.27015242    -0.0028642591 
   7151000   0.049811439   -0.31059186     0             -0.27094507     0.0044997984 
   7152000   0.050283322   -0.30910956     0             -0.26908718     0.00054453967
   7153000   0.050548098   -0.30694395     0             -0.26671082     0.0065309106 
   7154000   0.052516432   -0.3094246      0             -0.2676248      0.0018705447 
   7155000   0.05275678    -0.30059767     0             -0.25860657    -0.00086341787
   7156000   0.050005931   -0.30854393     0             -0.26874234     0.0014287546 
   7157000   0.051173662   -0.30834285     0             -0.26761181    -0.0051679703 
   7158000   0.052384726   -0.31000212     0             -0.26830715    -0.00061166097
   7159000   0.05085044    -0.30893442     0             -0.26846065     0.0058737194 
   7160000   0.050442899   -0.30841459     0             -0.2682652      0.00014626337
   7161000   0.049614216   -0.30724565     0             -0.26775584    -0.0033955169 
   7162000   0.04872744    -0.30386684     0             -0.26508284    -0.00083936913
   7163000   0.050855809   -0.30851869     0             -0.26804065    -0.0010629659 
   7164000   0.052425477   -0.30929309     0             -0.26756568    -0.0014217862 
   7165000   0.049790828   -0.30858277     0             -0.26895238     0.00092354719
   7166000   0.049178977   -0.30914773     0             -0.27000434    -0.00037679669
   7167000   0.047015743   -0.30954754     0             -0.27212594    -0.00042655675
   7168000   0.050531212   -0.30286746     0             -0.26264777     0.00053568393
   7169000   0.053461202   -0.30626035     0             -0.26370858    -0.0012412656 
   7170000   0.05095176    -0.29451613     0             -0.25396172     0.0053375736 
   7171000   0.047547452   -0.30797645     0             -0.27013165     0.003643101  
   7172000   0.049730152   -0.30724336     0             -0.26766126     0.0055280843 
   7173000   0.049724176   -0.30262323     0             -0.26304589    -0.0031374116 
   7174000   0.049902408   -0.30109568     0             -0.26137648    -0.00093211248
   7175000   0.050225088   -0.30319462     0             -0.26321859    -0.0028596514 
   7176000   0.049719892   -0.30812565     0             -0.26855173     0.0060664065 
   7177000   0.050521892   -0.29602046     0             -0.25580819     0.00048092654
   7178000   0.053654348   -0.30655027     0             -0.26384476    -0.007301035  
   7179000   0.051723954   -0.30773019     0             -0.26656116    -0.0017187973 
   7180000   0.050508988   -0.30650256     0             -0.26630056     0.0068096212 
   7181000   0.050576779   -0.30745913     0             -0.26720317    -0.0027664655 
   7182000   0.051890615   -0.3080698      0             -0.26676811     0.005718084  
   7183000   0.047922698   -0.30617417     0             -0.2680307      0.0015118556 
   7184000   0.051728289   -0.30728857     0             -0.26611608     0.00068766701
   7185000   0.05166446    -0.3075968      0             -0.26647512     0.0015941306 
   7186000   0.050113484   -0.3080077      0             -0.2681205     -0.00092294862
   7187000   0.049393546   -0.30715096     0             -0.26783678     0.0023986235 
   7188000   0.049507721   -0.30687951     0             -0.26747446     0.0050837995 
   7189000   0.052120767   -0.30499264     0             -0.26350776    -0.00046884631
   7190000   0.051873864   -0.30910689     0             -0.26781854    -0.0035836883 
   7191000   0.048716665   -0.30829785     0             -0.26952243     0.0011241292 
   7192000   0.049378712   -0.30899188     0             -0.26968951    -0.0029564408 
   7193000   0.05027282    -0.30881038     0             -0.26879636     0.0040006181 
   7194000   0.049328056   -0.30858459     0             -0.26932254    -0.0023777076 
   7195000   0.052920234   -0.30920974     0             -0.26708854     0.0032471497 
   7196000   0.049971024   -0.3090953      0             -0.26932148    -0.0037187182 
   7197000   0.048583675   -0.30962626     0             -0.27095669    -0.0026911171 
   7198000   0.05090728    -0.30352606     0             -0.26300705     0.0010691222 
   7199000   0.050823855   -0.30918362     0             -0.26873101    -0.0025278116 
   7200000   0.052776464   -0.30966632     0             -0.26765955    -0.0041217399 
   7201000   0.050351913   -0.30356923     0             -0.26349225    -0.00015452635
   7202000   0.051896313   -0.30943945     0             -0.26813323     0.0014403197 
   7203000   0.050426257   -0.30287072     0             -0.26273457     0.0044464575 
   7204000   0.049461286   -0.30868805     0             -0.26931995     0.0012969601 
   7205000   0.050378477   -0.30993268     0             -0.26983456    -0.004092524  
   7206000   0.050979005   -0.30904323     0             -0.26846713     0.0079690663 
   7207000   0.049923363   -0.31020766     0             -0.27047178     0.0029576436 
   7208000   0.046614964   -0.30917634     0             -0.27207374     0.0018038026 
   7209000   0.049144596   -0.30918599     0             -0.27006996    -0.0028372656 
   7210000   0.050011205   -0.3099086      0             -0.27010281    -0.0029133875 
   7211000   0.051000065   -0.3094347      0             -0.26884183     0.00044375819
   7212000   0.050299616   -0.31009771     0             -0.27006236     0.0033610388 
   7213000   0.050623434   -0.30926099     0             -0.2689679      0.0025779568 
   7214000   0.05141133    -0.31040589     0             -0.26948568    -0.0024750642 
   7215000   0.049399259   -0.31061532     0             -0.2712966     -0.00082640258
   7216000   0.050133444   -0.30946095     0             -0.26955787    -0.0046382079 
   7217000   0.047860146   -0.30968423     0             -0.27159054     0.0087946421 
   7218000   0.050401464   -0.30626468     0             -0.26614827    -0.0010266639 
   7219000   0.052555059   -0.30985963     0             -0.26802909    -0.0033057933 
   7220000   0.048678035   -0.31089413     0             -0.27214946    -0.0034661385 
   7221000   0.050982899   -0.30947346     0             -0.26889426     0.00032392451
   7222000   0.049332923   -0.31033352     0             -0.27106759    -0.0012965017 
   7223000   0.049644323   -0.3106685      0             -0.27115473    -0.0031477803 
   7224000   0.05048746    -0.30989855     0             -0.26971369    -0.0056520234 
   7225000   0.046895614   -0.30987356     0             -0.27254759    -0.0026940867 
   7226000   0.047771142   -0.31066459     0             -0.27264174    -0.00091752681
   7227000   0.049912825   -0.3105083      0             -0.27078081     0.0017503591 
   7228000   0.050810681   -0.30955045     0             -0.26910833     0.0043291966 
   7229000   0.050801956   -0.31011087     0             -0.26967569    -0.0030508447 
   7230000   0.051539728   -0.31027744     0             -0.26925503     0.00026890851
   7231000   0.0481483     -0.30990244     0             -0.27157941    -0.0074100922 
   7232000   0.049713288   -0.31001804     0             -0.27044937     0.0095274413 
   7233000   0.051125873   -0.31084829     0             -0.27015529     0.0020356725 
   7234000   0.048259626   -0.31013179     0             -0.27172015     0.0022204739 
   7235000   0.050068469   -0.31005174     0             -0.27020037     0.0031399148 
   7236000   0.050053207   -0.30864418     0             -0.26880495     0.0019423511 
   7237000   0.047099525   -0.31011806     0             -0.27262978    -0.0021397908 
   7238000   0.050807122   -0.30933713     0             -0.26889783    -0.0048695499 
   7239000   0.053217336   -0.31064609     0             -0.26828842    -0.0011691792 
   7240000   0.049430553   -0.30932693     0             -0.2699833     -0.0069762013 
   7241000   0.051455336   -0.30964004     0             -0.2686848     -0.0051763886 
   7242000   0.053783899   -0.30755518     0             -0.26474656     0.0040576936 
   7243000   0.047806897   -0.31038877     0             -0.27233747    -0.00033606147
   7244000   0.054392283   -0.30401023     0             -0.26071738    -0.0063021243 
   7245000   0.048688244   -0.30926769     0             -0.27051489    -0.0011866663 
   7246000   0.050753702   -0.30976273     0             -0.26936596    -0.0059215644 
   7247000   0.049656008   -0.30934769     0             -0.26982461    -0.004379872  
   7248000   0.048529866   -0.3034677      0             -0.26484096     0.0036591748 
   7249000   0.049960597   -0.30833844     0             -0.26857293     0.0010450419 
   7250000   0.050275397   -0.30953322     0             -0.26951715     0.012619455  
   7251000   0.049877093   -0.30941043     0             -0.26971138     0.0053198825 
   7252000   0.050314947   -0.30850396     0             -0.26845641     0.0055986376 
   7253000   0.050635406   -0.3081746      0             -0.26787199     0.0045918862 
   7254000   0.051519781   -0.3088659      0             -0.26785938     0.0016379936 
   7255000   0.049971748   -0.30868501     0             -0.26891062    -0.0055748845 
   7256000   0.048613397   -0.30873558     0             -0.27004235    -0.0015430812 
   7257000   0.049376662   -0.30899678     0             -0.26969604     0.00098381125
   7258000   0.048204736   -0.30831268     0             -0.26994472    -0.007831627  
   7259000   0.049062744   -0.30728875     0             -0.26823787    -0.0036371764 
   7260000   0.050241255   -0.30852822     0             -0.26853932    -0.006474567  
   7261000   0.048953439   -0.30845176     0             -0.26948789     0.00020953491
   7262000   0.049475753   -0.307908       0             -0.26852839    -0.00083308059
   7263000   0.04977723    -0.30659979     0             -0.26698023    -0.0091687682 
   7264000   0.050604272   -0.30899428     0             -0.26871644     0.0033450274 
   7265000   0.048912187   -0.30942104     0             -0.27048999     0.00040101112
   7266000   0.052141308   -0.30918174     0             -0.26768052     0.00018046749
   7267000   0.050271179   -0.30856223     0             -0.26854951     0.0045572207 
   7268000   0.049161722   -0.30644489     0             -0.26731523    -0.0061750679 
   7269000   0.049854428   -0.30799088     0             -0.26830987    -0.0029569466 
   7270000   0.051579528   -0.30867773     0             -0.26762365     0.0012560077 
   7271000   0.049991186   -0.30705713     0             -0.26726727     0.012225957  
   7272000   0.052367877   -0.30890452     0             -0.26722296     0.00069852331
   7273000   0.048731346   -0.30721966     0             -0.26843255    -0.0075752083 
   7274000   0.050860665   -0.30825478     0             -0.26777287    -0.0012725156 
   7275000   0.0491479     -0.30955112     0             -0.27043247     0.0017524304 
   7276000   0.050774575   -0.30855364     0             -0.26814025    -0.0041348448 
   7277000   0.04962782    -0.30789903     0             -0.26839839    -0.00021055069
   7278000   0.049889288   -0.29770665     0             -0.2579979     -0.0055782671 
   7279000   0.049357879   -0.30821842     0             -0.26893263     0.0048753589 
   7280000   0.052950555   -0.29608319     0             -0.25393786     0.0040718648 
   7281000   0.049905031   -0.30757316     0             -0.26785188     0.0058415159 
   7282000   0.052136991   -0.30676723     0             -0.26526945     0.00017947752
   7283000   0.04985017    -0.30818843     0             -0.26851081     0.0046775433 
   7284000   0.051097257   -0.3079193      0             -0.26724908     0.0013635057 
   7285000   0.049405027   -0.30824796     0             -0.26892465    -0.0035711766 
   7286000   0.049510728   -0.30725703     0             -0.26784958     0.0040041777 
   7287000   0.047209554   -0.30795312     0             -0.27037726    -0.0019246179 
   7288000   0.050718536   -0.30761775     0             -0.26724897    -0.0034658213 
   7289000   0.051164268   -0.30499669     0             -0.26427313     0.0037969215 
   7290000   0.050893292   -0.30784476     0             -0.26733688    -0.0018964578 
   7291000   0.051029603   -0.30638399     0             -0.26576761     0.0070164077 
   7292000   0.051539395   -0.30717094     0             -0.2661488     -0.0025776863 
   7293000   0.05033571    -0.30808205     0             -0.26801797     0.00022370538
   7294000   0.049748885   -0.30709016     0             -0.26749316    -0.0029357777 
   7295000   0.049679535   -0.30834633     0             -0.26880453    -0.0029060008 
   7296000   0.050898595   -0.30837647     0             -0.26786437     0.0050679473 
   7297000   0.050955178   -0.3083896      0             -0.26783246     0.0081541327 
   7298000   0.051011285   -0.30872972     0             -0.26812792     0.0066693207 
   7299000   0.050787143   -0.30796564     0             -0.26754225     0.0002458117 
   7300000   0.049821222   -0.30865007     0             -0.26899549     0.0067385012 
   7301000   0.048079018   -0.30764792     0             -0.26938003    -0.00035398191
   7302000   0.049173088   -0.30815445     0             -0.26901575     0.0085934576 
   7303000   0.048632375   -0.30746951     0             -0.26876118     0.0071822594 
   7304000   0.04982213    -0.30733947     0             -0.26768417    -0.0040539737 
   7305000   0.048740235   -0.30849235     0             -0.26969817    -0.0010029527 
   7306000   0.051047446   -0.30804473     0             -0.26741415     0.0010186899 
   7307000   0.051143304   -0.30783099     0             -0.26712412    -0.00048307409
   7308000   0.049309814   -0.30696112     0             -0.26771359     0.0049183487 
   7309000   0.052724515   -0.30761896     0             -0.26565354     0.0056586325 
   7310000   0.050704382   -0.30709065     0             -0.26673313     0.0064054504 
   7311000   0.048728058   -0.308154       0             -0.26936951    -0.0068597523 
   7312000   0.050659738   -0.30242481     0             -0.26210283     0.0045871037 
   7313000   0.048856927   -0.30698911     0             -0.26810205     0.0011224346 
   7314000   0.051884244   -0.30685192     0             -0.26555531    -0.0098718501 
   7315000   0.047937627   -0.30776228     0             -0.26960692    -0.0020474111 
   7316000   0.050890589   -0.30795016     0             -0.26744443    -0.0013156    
   7317000   0.051710791   -0.30798837     0             -0.26682981    -0.00069985542
   7318000   0.050718402   -0.30740654     0             -0.26703786    -0.0018388977 
   7319000   0.05260386    -0.30683439     0             -0.26496501     0.0019403807 
   7320000   0.050121024   -0.30833204     0             -0.26843884    -0.0064918315 
   7321000   0.050193564   -0.30791934     0             -0.2679684      0.0042214517 
   7322000   0.051493318   -0.3078895      0             -0.26690404     0.0030535746 
   7323000   0.050578184   -0.30710723     0             -0.26685016     0.0056637729 
   7324000   0.048695279   -0.30925232     0             -0.27049392     0.0012139452 
   7325000   0.049482607   -0.30671094     0             -0.26732588     0.0073964615 
   7326000   0.050144593   -0.30786488     0             -0.26795292    -0.0040952317 
   7327000   0.048222299   -0.30908665     0             -0.27070471     0.0030565369 
   7328000   0.048533505   -0.30886029     0             -0.27023066     0.00018435079
   7329000   0.053070249   -0.30890515     0             -0.26666455     0.0032031483 
   7330000   0.051941542   -0.30078094     0             -0.25943872     0.0036642918 
   7331000   0.049173887   -0.31089176     0             -0.27175242     0.0016035828 
   7332000   0.049946812   -0.30869332     0             -0.26893878    -0.0029493136 
   7333000   0.050556374   -0.30854271     0             -0.268303      -0.00030200567
   7334000   0.05300984    -0.30903147     0             -0.26683896    -0.0028112969 
   7335000   0.04918527    -0.30910084     0             -0.26995243    -0.0023040325 
   7336000   0.050540641   -0.30969836     0             -0.26947117     0.0067281336 
   7337000   0.051281871   -0.30321614     0             -0.26239897     0.0084056203 
   7338000   0.049842431   -0.30873706     0             -0.2690656      0.00037529654
   7339000   0.050829339   -0.30880728     0             -0.2683503      0.0015163898 
   7340000   0.051916872   -0.30614169     0             -0.2648191      0.0033359648 
   7341000   0.050298706   -0.30975952     0             -0.26972489     0.001507158  
   7342000   0.050720624   -0.30668244     0             -0.26631199    -0.0022276929 
   7343000   0.052297047   -0.30823328     0             -0.2666081     -6.0683656e-05
   7344000   0.04973723    -0.30834922     0             -0.2687615      0.0024410726 
   7345000   0.049038886   -0.30988449     0             -0.2708526      0.0016561165 
   7346000   0.051931374   -0.30359784     0             -0.26226372     0.0029548927 
   7347000   0.052405133   -0.30903293     0             -0.26732172    -0.0030117502 
   7348000   0.050476742   -0.3092727      0             -0.26909637    -0.0037612881 
   7349000   0.050954693   -0.30969024     0             -0.26913349    -0.00082481093
   7350000   0.050367614   -0.30741505     0             -0.26732558    -0.0086795646 
   7351000   0.048689661   -0.30924817     0             -0.27049425     0.002292519  
   7352000   0.051237342   -0.31009007     0             -0.26930835     0.00025425239
   7353000   0.050512378   -0.30888646     0             -0.26868176     0.0094846552 
   7354000   0.048221712   -0.30908401     0             -0.27070254     0.005015625  
   7355000   0.048055662   -0.31011204     0             -0.27186273    -0.00079496037
   7356000   0.050621727   -0.30939613     0             -0.2691044     -0.004475106  
   7357000   0.048759273   -0.31012199     0             -0.27131265    -0.0032603954 
   7358000   0.050279992   -0.31042416     0             -0.27040443    -0.0014710733 
   7359000   0.046926048   -0.30928129     0             -0.27193109     0.0019830945 
   7360000   0.048724326   -0.31090898     0             -0.27212746     0.0044564489 
   7361000   0.051444488   -0.31019683     0             -0.26925024    -0.0017853596 
   7362000   0.048918224   -0.31005843     0             -0.27112258     0.00063844183
   7363000   0.047834699   -0.30745234     0             -0.26937891    -0.0061451288 
   7364000   0.049719299   -0.30981784     0             -0.27024438    -0.00068842283
   7365000   0.050548769   -0.31062138     0             -0.27038772    -0.0038656767 
   7366000   0.048898536   -0.30941413     0             -0.27049395     0.00069062217
   7367000   0.052814213   -0.30767828     0             -0.26564147     0.00058636137
   7368000   0.053573357   -0.30936667     0             -0.26672562     0.0030728146 
   7369000   0.050360899   -0.31032165     0             -0.27023753    -0.001816545  
   7370000   0.04950588    -0.30318093     0             -0.26377734     0.0048612903 
   7371000   0.050206111   -0.30865125     0             -0.26869032     0.0055440655 
   7372000   0.048236557   -0.3090054      0             -0.27061211     0.0034190618 
   7373000   0.048915738   -0.30078712     0             -0.26185325     0.0040873279 
   7374000   0.05096672    -0.30990289     0             -0.26933657     0.0024495662 
   7375000   0.050275887   -0.30716955     0             -0.26715309     0.0011839468 
   7376000   0.052163225   -0.30649865     0             -0.26497999     0.0026939334 
   7377000   0.049024635   -0.30862176     0             -0.26960121    -0.0010275234 
   7378000   0.050151861   -0.3072702      0             -0.26735245     0.0042331991 
   7379000   0.05182511    -0.30735411     0             -0.26610456    -0.012122573  
   7380000   0.050574121   -0.30815324     0             -0.2678994      0.0039217035 
   7381000   0.049608989   -0.30814873     0             -0.26866308    -0.00060862331
   7382000   0.049489402   -0.30810919     0             -0.26871872    -0.00301832   
   7383000   0.049097722   -0.3088493      0             -0.26977059     0.0017628114 
   7384000   0.0464767     -0.30735299     0             -0.27036044    -0.00058757173
   7385000   0.049377789   -0.30333682     0             -0.26403518     0.0015889459 
   7386000   0.052508269   -0.29271472     0             -0.25092142     0.0030484597 
   7387000   0.049615821   -0.30798714     0             -0.26849605    -0.0016882728 
   7388000   0.050427939   -0.30894428     0             -0.26880679    -2.4170906e-05
   7389000   0.049651001   -0.30752127     0             -0.26800217    -0.0090162234 
   7390000   0.050582892   -0.3075139      0             -0.26725308    -0.0012048843 
   7391000   0.051288773   -0.30739034     0             -0.26656768     0.0042066905 
   7392000   0.053073514   -0.30822127     0             -0.26597807     0.0051503283 
   7393000   0.050497128   -0.30887339     0             -0.26868083     0.0051044795 
   7394000   0.048711968   -0.30882685     0             -0.27005517    -0.0031817039 
   7395000   0.048768016   -0.29782068     0             -0.25900439    -0.0047502314 
   7396000   0.051415611   -0.30813935     0             -0.26721574    -0.0060290784 
   7397000   0.047973792   -0.30530035     0             -0.26711621    -0.0055474753 
   7398000   0.051019652   -0.30896841     0             -0.26835996     0.0013625598 
   7399000   0.050259097   -0.30801529     0             -0.26801219    -0.0046736526 
   7400000   0.051914683   -0.30865021     0             -0.26732937     0.0031856403 
   7401000   0.050103966   -0.30918214     0             -0.26930251    -0.0014748829 
   7402000   0.050217724   -0.3112462      0             -0.27127603    -0.0036690997 
   7403000   0.050627142   -0.31159917     0             -0.27130313     0.0016549951 
   7404000   0.050760093   -0.29839374     0             -0.25799188     0.00050843181
   7405000   0.05105204    -0.31107629     0             -0.27044205    -0.00088426346
   7406000   0.048833914   -0.30727963     0             -0.26841089     0.00041902434
   7407000   0.052082756   -0.31007058     0             -0.26861597    -0.0026755878 
   7408000   0.050852665   -0.31111994     0             -0.27064439     0.00018357587
   7409000   0.050908467   -0.30672457     0             -0.26620461    -0.0018203695 
   7410000   0.050944466   -0.31105805     0             -0.27050944    -0.0029174451 
   7411000   0.049486092   -0.30991174     0             -0.27052391     0.003067867  
   7412000   0.05009072    -0.31129146     0             -0.27142238     0.0017262985 
   7413000   0.04945923    -0.31072196     0             -0.2713555      0.00080686626
   7414000   0.049537989   -0.31061598     0             -0.27118683    -0.00023389906
   7415000   0.053561095   -0.30987832     0             -0.26724704     0.00060281845
   7416000   0.050303234   -0.30996622     0             -0.26992799    -0.00255174   
   7417000   0.049049426   -0.30765377     0             -0.2686135      0.0013587552 
   7418000   0.050824889   -0.30944784     0             -0.2689944     -0.0019451418 
   7419000   0.052105082   -0.3105711      0             -0.26909871     0.0047201783 
   7420000   0.049130307   -0.31087145     0             -0.2717668      0.0083699757 
   7421000   0.048733565   -0.31080987     0             -0.272021      -0.003291108  
   7422000   0.048780736   -0.31077796     0             -0.27195154    -0.0047861953 
   7423000   0.048488681   -0.31041955     0             -0.27182559     0.001836733  
   7424000   0.049814949   -0.30986614     0             -0.27021655     0.0070364044 
   7425000   0.048733839   -0.31200933     0             -0.27322024     0.0024656587 
   7426000   0.049998195   -0.31034636     0             -0.27055092    -0.0024817003 
   7427000   0.050092943   -0.31102319     0             -0.27115234     0.010801082  
   7428000   0.051264813   -0.3059444      0             -0.26514082    -0.0021429226 
   7429000   0.051189774   -0.31175541     0             -0.27101155    -0.0022617209 
   7430000   0.049389991   -0.31204001     0             -0.27272866     0.0065938108 
   7431000   0.050666245   -0.3114563      0             -0.27112914    -0.0020220467 
   7432000   0.048715821   -0.31200562     0             -0.27323087     0.00012718629
   7433000   0.048944178   -0.31047348     0             -0.27151698    -0.009745907  
   7434000   0.049592939   -0.31212842     0             -0.27265554    -0.0029199612 
   7435000   0.049134568   -0.31051559     0             -0.27140754    -0.001534576  
   7436000   0.049956024   -0.3112902      0             -0.27152833     0.0011642061 
   7437000   0.051285729   -0.31052858     0             -0.26970835    -0.0050483777 
   7438000   0.050680834   -0.31064846     0             -0.27030968     0.0014438431 
   7439000   0.049042307   -0.30075165     0             -0.26171704    -0.001293888  
   7440000   0.047621877   -0.30966437     0             -0.27176034    -0.0016603477 
   7441000   0.049921895   -0.30882289     0             -0.26908819     0.0016913143 
   7442000   0.048634996   -0.30982814     0             -0.27111773     0.0046818674 
   7443000   0.048547938   -0.30389946     0             -0.26525833     0.00064795068
   7444000   0.047665082   -0.30907326     0             -0.27113484    -0.0030096113 
   7445000   0.051402477   -0.31031621     0             -0.26940306     0.007590507  
   7446000   0.050004847   -0.3091815      0             -0.26938076    -0.0031427901 
   7447000   0.05043698    -0.30925526     0             -0.26911058    -0.0043246258 
   7448000   0.048454748   -0.30883282     0             -0.27026587     0.0047542096 
   7449000   0.049632676   -0.30980379     0             -0.27029929     0.0063212974 
   7450000   0.049370494   -0.30618566     0             -0.26688983     0.0037883401 
   7451000   0.052335676   -0.2994823      0             -0.25782638     0.00088948447
   7452000   0.051025477   -0.30873005     0             -0.26811695    -0.01104267   
   7453000   0.049282675   -0.30916477     0             -0.26993884     0.004488521  
   7454000   0.050918687   -0.31107455     0             -0.27054645    -0.00075407593
   7455000   0.050217555   -0.30992059     0             -0.26995056    -0.00079537311
   7456000   0.04993125    -0.30501153     0             -0.26526937     0.0014462501 
   7457000   0.049494782   -0.31042791     0             -0.27103316    -0.00048408569
   7458000   0.048043436   -0.30988223     0             -0.27164266     0.00038948955
   7459000   0.051192141   -0.30986597     0             -0.26912023     0.0075607388 
   7460000   0.050271991   -0.30933049     0             -0.26931712     0.0010421243 
   7461000   0.048830799   -0.30944931     0             -0.27058305    -0.00013531791
   7462000   0.050515087   -0.31112317     0             -0.27091631     0.0021311427 
   7463000   0.051235349   -0.30975008     0             -0.26896994     0.0031629665 
   7464000   0.049660294   -0.3106401      0             -0.27111361    -0.00085250144
   7465000   0.048631972   -0.31013935     0             -0.27143134    -0.00055394041
   7466000   0.048363698   -0.31012509     0             -0.27163061    -0.0021444294 
   7467000   0.051437812   -0.30549883     0             -0.26455755    -0.0048250316 
   7468000   0.05047045    -0.30901177     0             -0.26884045     0.0015608222 
   7469000   0.052174933   -0.30682907     0             -0.26530109    -0.0043982793 
   7470000   0.051784515   -0.30728585     0             -0.26606861     0.0035866984 
   7471000   0.047458832   -0.31040236     0             -0.2726281     -0.003202162  
   7472000   0.050715637   -0.31076285     0             -0.27039638     0.0016746357 
   7473000   0.052051671   -0.30964811     0             -0.26821824    -0.010857963  
   7474000   0.048420303   -0.30947794     0             -0.27093841    -0.0045309266 
   7475000   0.049269339   -0.30844441     0             -0.26922909    -0.00038831868
   7476000   0.048132897   -0.31046343     0             -0.27215265    -0.0013503641 
   7477000   0.048669359   -0.30982119     0             -0.27108342     0.00062505738
   7478000   0.051646842   -0.31039961     0             -0.26929195    -0.00028835745
   7479000   0.04926396    -0.3102934      0             -0.27108237     0.00510752   
   7480000   0.047762291   -0.31061306     0             -0.27259726    -0.0026547602 
   7481000   0.048751871   -0.31125678     0             -0.27245333     0.0021449304 
   7482000   0.049290042   -0.31023086     0             -0.27099907    -0.011022113  
   7483000   0.05237789    -0.30431634     0             -0.26262681     0.0052838668 
   7484000   0.050992275   -0.31144686     0             -0.2708602      0.0052553551 
   7485000   0.051011394   -0.31021494     0             -0.26961306     0.0053022173 
   7486000   0.05002934    -0.31094058     0             -0.27112035     0.0095704334 
   7487000   0.050605872   -0.31062369     0             -0.27034458    -0.0016558776 
   7488000   0.049252315   -0.31068301     0             -0.27148125    -0.0047637794 
   7489000   0.050250934   -0.31188305     0             -0.27188645    -0.0045498391 
   7490000   0.048563419   -0.31105783     0             -0.27240439    -0.0066225357 
   7491000   0.048449403   -0.31070993     0             -0.27214723    -0.004349848  
   7492000   0.04668071    -0.30677036     0             -0.26961543    -0.0026796257 
   7493000   0.047192197   -0.31029326     0             -0.27273122     0.0015934893 
   7494000   0.05132537    -0.31144883     0             -0.27059704    -0.0038977711 
   7495000   0.048929727   -0.31065163     0             -0.27170662     0.0026889297 
   7496000   0.050013239   -0.31090835     0             -0.27110094    -0.0036858026 
   7497000   0.052820624   -0.29747753     0             -0.25543562    -0.0017793761 
   7498000   0.049378771   -0.30990792     0             -0.2706055     -0.0027817413 
   7499000   0.050728233   -0.31105701     0             -0.27068051    -0.0022630156 
   7500000   0.049539902   -0.30982693     0             -0.27039626    -0.0039076792 
   7501000   0.049663596   -0.30826958     0             -0.26874046     0.00068341322
   7502000   0.051197568   -0.30204886     0             -0.2612988     -0.0080629974 
   7503000   0.048358911   -0.31068249     0             -0.27219182    -0.005269926  
   7504000   0.053525583   -0.30720747     0             -0.26460445    -0.0021574538 
   7505000   0.049604318   -0.30458233     0             -0.2651004      0.0064426653 
   7506000   0.051738583   -0.31079933     0             -0.26961865    -0.0002178226 
   7507000   0.051869812   -0.31078815     0             -0.26950302     0.0048559356 
   7508000   0.050088766   -0.3115479      0             -0.27168037    -0.014015164  
   7509000   0.051447848   -0.31124041     0             -0.27029113     0.0013964453 
   7510000   0.049259108   -0.31017458     0             -0.2709674      0.0099921987 
   7511000   0.05232899    -0.31213656     0             -0.27048596     5.8272185e-05
   7512000   0.050249443   -0.31106544     0             -0.27107003    -0.00018893416
   7513000   0.051184254   -0.31186565     0             -0.27112618     0.00054690364
   7514000   0.048826838   -0.31126535     0             -0.27240224    -0.0064877155 
   7515000   0.051110368   -0.31114693     0             -0.27046627     0.0021741406 
   7516000   0.050437125   -0.31244797     0             -0.27230317     0.00020352129
   7517000   0.050951676   -0.31302039     0             -0.27246604     0.0028027719 
   7518000   0.049703507   -0.31216418     0             -0.2726033      0.0040006215 
   7519000   0.05030724    -0.31179164     0             -0.27175022    -1.3196073e-05
   7520000   0.049027415   -0.31213389     0             -0.27311113    -0.0030634227 
   7521000   0.049802719   -0.31197863     0             -0.27233878    -0.009990545  
   7522000   0.050337421   -0.31193681     0             -0.27187137     0.00082518066
   7523000   0.049760693   -0.31004012     0             -0.27043372    -0.00064791998
   7524000   0.049584596   -0.31214882     0             -0.27268258    -0.0091187264 
   7525000   0.051667952   -0.31160943     0             -0.27048497    -0.0037871559 
   7526000   0.049749232   -0.31174524     0             -0.27214796    -0.0030584293 
   7527000   0.050200658   -0.31122675     0             -0.27127017     0.0012058789 
   7528000   0.04946517    -0.31074509     0             -0.27137391    -0.003042312  
   7529000   0.049462082   -0.30607164     0             -0.26670291     0.0018433969 
   7530000   0.049170119   -0.31104169     0             -0.27190535    -0.0017025856 
   7531000   0.050893843   -0.31192865     0             -0.27142033    -0.0015496687 
   7532000   0.051419288   -0.31138796     0             -0.27046143     0.0030900814 
   7533000   0.050064077   -0.31314959     0             -0.27330172    -0.0047584967 
   7534000   0.050524835   -0.31151783     0             -0.27130321     0.0010783476 
   7535000   0.052851221   -0.31021641     0             -0.26815014    -0.0025687542 
   7536000   0.052985277   -0.31161089     0             -0.26943792    -0.0048024174 
   7537000   0.048182414   -0.30479793     0             -0.26644774     0.0047878619 
   7538000   0.051620317   -0.31046403     0             -0.26937749    -0.0022288768 
   7539000   0.050674437   -0.31037379     0             -0.2700401     -0.0002576365 
   7540000   0.049701777   -0.31108192     0             -0.27152241     0.0012173588 
   7541000   0.050850533   -0.31141288     0             -0.27093903    -0.0030187567 
   7542000   0.048564988   -0.31105269     0             -0.272398       6.6603971e-05
   7543000   0.052496353   -0.31288823     0             -0.27110442    -0.00074971861
   7544000   0.049275638   -0.30470391     0             -0.26548358     0.0059978554 
   7545000   0.049493486   -0.31205726     0             -0.27266354    -0.0080615083 
   7546000   0.047733504   -0.3107383      0             -0.27274541    -0.0011683406 
   7547000   0.048454009   -0.31095832     0             -0.27239195    -0.0046664792 
   7548000   0.051959049   -0.31070009     0             -0.26934394    -0.0047691355 
   7549000   0.045809038   -0.31134214     0             -0.27488101    -0.0029762082 
   7550000   0.05142582    -0.31049813     0             -0.26956639    -0.010550028  
   7551000   0.051116985   -0.31164848     0             -0.27096256     0.0048293924 
   7552000   0.04935961    -0.30973971     0             -0.27045255    -0.0019164029 
   7553000   0.049396096   -0.30867723     0             -0.26936103     0.0010835128 
   7554000   0.050018298   -0.31077552     0             -0.27096408    -0.0029408808 
   7555000   0.050543533   -0.31017975     0             -0.26995025     0.0017264947 
   7556000   0.052665776   -0.31135982     0             -0.26944115     0.0036404846 
   7557000   0.049503176   -0.31119055     0             -0.27178912     0.0077597568 
   7558000   0.051342072   -0.31091149     0             -0.27004641    -0.0010997472 
   7559000   0.051679683   -0.31218594     0             -0.27105215    -0.0024635155 
   7560000   0.048623333   -0.3115576      0             -0.27285647     0.0017174461 
   7561000   0.05029623    -0.31212396     0             -0.27209131    -0.00050638913
   7562000   0.051032881   -0.30566879     0             -0.26504981    -0.00093384175
   7563000   0.049985503   -0.31099545     0             -0.27121012     0.006017592  
   7564000   0.051960993   -0.3115963      0             -0.2702386      0.0018672355 
   7565000   0.049027687   -0.31194843     0             -0.27292545    -0.00089514481
   7566000   0.049904019   -0.3104465      0             -0.27072602    -0.0057681052 
   7567000   0.050304443   -0.31107784     0             -0.27103865    -0.0035569927 
   7568000   0.050685724   -0.3107338      0             -0.27039113    -0.0018747578 
   7569000   0.04834432    -0.3113436      0             -0.27286454    -0.0056969681 
   7570000   0.052577433   -0.31102019     0             -0.26917184     0.0025330937 
   7571000   0.050634315   -0.31226218     0             -0.27196043     0.0044896747 
   7572000   0.050754245   -0.31067361     0             -0.27027641     0.0061188582 
   7573000   0.051272528   -0.31173915     0             -0.27092942    -0.0026724878 
   7574000   0.052141307   -0.30195608     0             -0.26045486    -0.0061700321 
   7575000   0.049112847   -0.31187979     0             -0.27278903     0.0018434739 
   7576000   0.051410517   -0.31215348     0             -0.27123392    -0.00028863007
   7577000   0.050841428   -0.31025051     0             -0.26978392    -0.0015159828 
   7578000   0.050939513   -0.31048356     0             -0.26993889     0.00050964801
   7579000   0.049860269   -0.31154933     0             -0.27186367     0.0073928552 
   7580000   0.05017585    -0.31099114     0             -0.2710543     -0.0075971316 
   7581000   0.051156992   -0.30559893     0             -0.26488116     0.0034030034 
   7582000   0.04978918    -0.31119735     0             -0.27156828    -0.0024819661 
   7583000   0.050850395   -0.31070962     0             -0.27023588     0.0014545727 
   7584000   0.05003066    -0.31157639     0             -0.27175511     0.0086234006 
   7585000   0.049853834   -0.31184368     0             -0.27216315    -0.0026961437 
   7586000   0.048597358   -0.31180902     0             -0.27312856    -0.0030410043 
   7587000   0.051840205   -0.31076512     0             -0.26950355     0.0010678426 
   7588000   0.049436745   -0.30296794     0             -0.26361938     0.00016693614
   7589000   0.048712415   -0.3068373      0             -0.26806527    -0.002959588  
   7590000   0.049469192   -0.30853705     0             -0.26916266    -0.0019181424 
   7591000   0.048928284   -0.31086193     0             -0.27191808     0.00054366868
   7592000   0.051862208   -0.30450383     0             -0.26322476     0.00021653407
   7593000   0.048338514   -0.31225243     0             -0.273778      -0.00090792921
   7594000   0.050873401   -0.31008131     0             -0.26958926    -0.0013212427 
   7595000   0.049993149   -0.3129197      0             -0.27312828     0.00013192663
   7596000   0.049279092   -0.30761555     0             -0.26839247     0.003627692  
   7597000   0.048744078   -0.31057939     0             -0.27178215    -0.0005610581 
   7598000   0.049294371   -0.31210166     0             -0.27286642    -0.007455715  
   7599000   0.048013272   -0.31195744     0             -0.27374188     0.0032614063 
   7600000   0.050984255   -0.31111118     0             -0.2705309      0.0021817661 
   7601000   0.050833014   -0.31144295     0             -0.27098305     0.0026196812 
   7602000   0.050096628   -0.31134035     0             -0.27146657     0.0010566578 
   7603000   0.053973964   -0.31107155     0             -0.26811165     0.0050617652 
   7604000   0.049762619   -0.31109516     0             -0.27148723    -0.0023825137 
   7605000   0.052749873   -0.31245592     0             -0.27047031    -0.0051408116 
   7606000   0.047989949   -0.30607458     0             -0.26787758    -0.0018206441 
   7607000   0.048786009   -0.29349254     0             -0.25466192    -0.0043278776 
   7608000   0.050988462   -0.31186998     0             -0.27128635     0.0015253943 
   7609000   0.049996577   -0.31228132     0             -0.27248717     0.0022366772 
   7610000   0.048573956   -0.31154186     0             -0.27288002    -0.0060375817 
   7611000   0.051906803   -0.30995485     0             -0.26864028     0.0018209608 
   7612000   0.05194809    -0.31139417     0             -0.27004673     0.0037230413 
   7613000   0.049307633   -0.31178973     0             -0.27254394    -0.0036777543 
   7614000   0.053101222   -0.3074948      0             -0.26522954     0.0066828254 
   7615000   0.0523413     -0.31119269     0             -0.26953228    -0.004139255  
   7616000   0.049964904   -0.31198849     0             -0.27221955     0.00064188875
   7617000   0.049731112   -0.31183419     0             -0.27225133     0.0029109342 
   7618000   0.050636405   -0.31247637     0             -0.27217295    -0.0055352835 
   7619000   0.050053044   -0.3124821      0             -0.27264301     0.0017249424 
   7620000   0.049344836   -0.30660398     0             -0.26732857     0.0012951887 
   7621000   0.050847253   -0.30201451     0             -0.26154328    -0.0043516793 
   7622000   0.048723365   -0.31334387     0             -0.27456312     0.0030712181 
   7623000   0.051702609   -0.31121493     0             -0.27006289    -0.005432077  
   7624000   0.049545289   -0.31054161     0             -0.27110666    -0.0024608831 
   7625000   0.05090091    -0.31116506     0             -0.27065112     0.0014652387 
   7626000   0.049980096   -0.31106887     0             -0.27128784     0.0054308649 
   7627000   0.048222465   -0.31179968     0             -0.27341761    -0.0094427308 
   7628000   0.052213935   -0.31168091     0             -0.27012188     0.0017143693 
   7629000   0.048965368   -0.31226577     0             -0.2732924     -0.007803097  
   7630000   0.050838342   -0.31196165     0             -0.27149751    -0.0090534013 
   7631000   0.051354441   -0.31278414     0             -0.27190922    -0.0055490294 
   7632000   0.050945098   -0.31322955     0             -0.27268043    -0.0027309755 
   7633000   0.05037712    -0.31183371     0             -0.27173667    -0.0028935651 
   7634000   0.047539131   -0.31228945     0             -0.27445128     0.00054379737
   7635000   0.048815649   -0.31324717     0             -0.27439296     0.0036266371 
   7636000   0.051423079   -0.31172438     0             -0.27079482     0.0055176399 
   7637000   0.053292943   -0.31220833     0             -0.26979048    -0.0055419414 
   7638000   0.051062528   -0.31244546     0             -0.27180288    -0.0058740942 
   7639000   0.051967144   -0.31023967     0             -0.26887708     0.0001178967 
   7640000   0.049404817   -0.31252436     0             -0.27320121     0.0012364677 
   7641000   0.049659419   -0.30657421     0             -0.26704841     0.0033923761 
   7642000   0.049712908   -0.30615312     0             -0.26658475    -0.0088802391 
   7643000   0.050021352   -0.31275066     0             -0.27293679    -0.0019197444 
   7644000   0.049659631   -0.31234682     0             -0.27282086     0.0061646091 
   7645000   0.050779797   -0.31241994     0             -0.27200239     0.0073896012 
   7646000   0.050992698   -0.31221322     0             -0.27162622     0.0044943727 
   7647000   0.049535446   -0.31383462     0             -0.27440751     0.00036811264
   7648000   0.049062345   -0.3128267      0             -0.27377614    -0.006383588  
   7649000   0.049163329   -0.31244452     0             -0.27331359    -0.00045126923
   7650000   0.047102034   -0.31035171     0             -0.27286143    -0.0024034441 
   7651000   0.050023967   -0.3134608      0             -0.27364485     0.0066729424 
   7652000   0.05160007    -0.3125632      0             -0.27149277    -0.0044188518 
   7653000   0.04998372    -0.31295086     0             -0.27316694    -0.011269114  
   7654000   0.050809762   -0.31395307     0             -0.27351167     0.0040337279 
   7655000   0.046879999   -0.31407447     0             -0.27676092     0.0013925759 
   7656000   0.050299504   -0.31350512     0             -0.27346985    -0.00031660536
   7657000   0.051376334   -0.31381305     0             -0.27292069    -0.0059623556 
   7658000   0.049360613   -0.31411995     0             -0.27483199     0.005182297  
   7659000   0.053593887   -0.31226416     0             -0.26960677     0.0034675715 
   7660000   0.050354915   -0.31282544     0             -0.27274607     0.0015279667 
   7661000   0.051960423   -0.31240738     0             -0.27105013     0.0027941855 
   7662000   0.051036716   -0.31294507     0             -0.27232303    -0.0067797108 
   7663000   0.050213244   -0.31351268     0             -0.27354608     0.00060313736
   7664000   0.050221571   -0.31373087     0             -0.27375764    -0.0018974287 
   7665000   0.049218939   -0.3125835      0             -0.2734083     -0.0044496998 
   7666000   0.053463254   -0.31127266     0             -0.26871925    -0.0031990669 
   7667000   0.050260876   -0.31319806     0             -0.27319354     0.0060977069 
   7668000   0.049381968   -0.31353965     0             -0.27423469    -0.0036227577 
   7669000   0.050025792   -0.3131614      0             -0.27334399     0.00033600178
   7670000   0.047133005   -0.31244817     0             -0.27493325    -0.0050146538 
   7671000   0.050365391   -0.31328656     0             -0.27319885     0.00078080772
   7672000   0.048630226   -0.31396581     0             -0.27525919    -0.0040698361 
   7673000   0.050683445   -0.31320574     0             -0.27286489    -0.0054345932 
   7674000   0.049695998   -0.31339793     0             -0.27384302     0.00046480619
   7675000   0.048628979   -0.31321955     0             -0.27451392    -0.0036028621 
   7676000   0.049540566   -0.31404284     0             -0.27461165     0.003152993  
   7677000   0.04949991    -0.31193204     0             -0.27253321     0.0018852607 
   7678000   0.051835036   -0.30681006     0             -0.26555261    -0.0034983913 
   7679000   0.049133144   -0.31287091     0             -0.273764      -0.0015027101 
   7680000   0.0507714     -0.31296762     0             -0.27255676     0.00084325382
   7681000   0.052371647   -0.31369592     0             -0.27201136    -0.0013674319 
   7682000   0.04778311    -0.31348299     0             -0.27545062     0.0010313241 
   7683000   0.051757408   -0.30473914     0             -0.26354347     0.010457168  
   7684000   0.049342024   -0.30841438     0             -0.26914121     0.0085411334 
   7685000   0.049614789   -0.31225107     0             -0.2727608      0.00053785096
   7686000   0.049326489   -0.31215219     0             -0.27289139     0.00055321695
   7687000   0.050184369   -0.31067706     0             -0.27073344    -0.0024881129 
   7688000   0.051100978   -0.31155437     0             -0.27088118     0.00097224456
   7689000   0.052261128   -0.31451661     0             -0.27292002    -0.011082876  
   7690000   0.054350083   -0.30355356     0             -0.26029429     9.0668775e-05
   7691000   0.051588175   -0.31316472     0             -0.27210376     0.0018707415 
   7692000   0.050486551   -0.31234699     0             -0.27216285     0.00057215131
   7693000   0.051136041   -0.31280878     0             -0.27210769    -0.0026145197 
   7694000   0.05113786    -0.3131609      0             -0.27245836    -0.00079601046
   7695000   0.049414801   -0.31304997     0             -0.27371888     0.00063502627
   7696000   0.051030925   -0.30574613     0             -0.26512871     0.0040106263 
   7697000   0.053041818   -0.31291736     0             -0.27069939    -0.00087453438
   7698000   0.049465244   -0.31316475     0             -0.27379351    -0.0010416375 
   7699000   0.049657792   -0.31085074     0             -0.27132624     0.0015141486 
   7700000   0.048705054   -0.31253992     0             -0.27377374    -0.0038206298 
   7701000   0.049670221   -0.31209474     0             -0.27256035    -0.0078202723 
   7702000   0.048714168   -0.31337249     0             -0.27459905    -0.0044418987 
   7703000   0.050138284   -0.31254443     0             -0.27263749    -0.0020384646 
   7704000   0.049342889   -0.31325788     0             -0.27398402    -0.002869709  
   7705000   0.050366933   -0.31294107     0             -0.27285214    -0.0037334158 
   7706000   0.04864409    -0.30706497     0             -0.26834732     0.0022206783 
   7707000   0.048382908   -0.31270713     0             -0.27419736    -0.0031240812 
   7708000   0.052393567   -0.31264935     0             -0.27094735    -0.0033458682 
   7709000   0.050199881   -0.31255281     0             -0.27259684     0.00053596685
   7710000   0.049006733   -0.31356799     0             -0.27456169     0.0056705917 
   7711000   0.051702082   -0.31348177     0             -0.27233015     0.00092445476
   7712000   0.049594677   -0.31312923     0             -0.27365496    -0.0010519975 
   7713000   0.050581787   -0.31330525     0             -0.27304531     0.0067489678 
   7714000   0.050647336   -0.31258009     0             -0.27226797    -0.001758256  
   7715000   0.050774812   -0.31164126     0             -0.27122769    -0.001593435  
   7716000   0.050585045   -0.31223462     0             -0.27197209     0.0086332919 
   7717000   0.051978337   -0.31318905     0             -0.27181754     0.0039634639 
   7718000   0.050738146   -0.31328325     0             -0.27289886     0.00091979292
   7719000   0.049545081   -0.3127367      0             -0.27330191    -0.0098615619 
   7720000   0.049985401   -0.31208        0             -0.27229475    -0.0010919466 
   7721000   0.05323582    -0.31353442     0             -0.27116203    -0.0057880531 
   7722000   0.052255487   -0.29898036     0             -0.25738826    -0.0014029302 
   7723000   0.049925787   -0.3140183      0             -0.2742805      0.0025147408 
   7724000   0.051445335   -0.3136075      0             -0.27266023    -0.0050087503 
   7725000   0.050995727   -0.30449342     0             -0.26390401    -0.0014790195 
   7726000   0.051654574   -0.30770364     0             -0.26658983    -0.0053121426 
   7727000   0.052887337   -0.30834332     0             -0.26624831     0.0013807717 
   7728000   0.05214638    -0.31170184     0             -0.27019658     0.0023985896 
   7729000   0.050734785   -0.31154859     0             -0.27116687    -0.00065510441
   7730000   0.050663813   -0.30966826     0             -0.26934303     0.0022536842 
   7731000   0.051526148   -0.31304758     0             -0.27203598    -0.00083262297
   7732000   0.049410665   -0.31248783     0             -0.27316003    -0.0024794834 
   7733000   0.049915065   -0.31187064     0             -0.27214137    -0.0091944447 
   7734000   0.049575812   -0.31202005     0             -0.2725608      0.0069638737 
   7735000   0.050140602   -0.31332829     0             -0.2734195     -0.0059595418 
   7736000   0.051727555   -0.31328695     0             -0.27211505    -0.00090113381
   7737000   0.051245847   -0.311275       0             -0.27048651     0.0071772979 
   7738000   0.050102179   -0.31342499     0             -0.27354679     0.0010323966 
   7739000   0.048651365   -0.31276583     0             -0.27404239     0.0029571102 
   7740000   0.051408186   -0.31339028     0             -0.27247258    -0.0033679459 
   7741000   0.050678166   -0.31376471     0             -0.27342805     0.00058043564
   7742000   0.04982482    -0.31306683     0             -0.27340939     0.0064411171 
   7743000   0.047625548   -0.31068939     0             -0.27278243     0.0016574544 
   7744000   0.052262715   -0.30675317     0             -0.26515532     0.0048994063 
   7745000   0.050279453   -0.31128535     0             -0.27126605    -0.0016442965 
   7746000   0.052652333   -0.31214607     0             -0.27023811     0.0015633332 
   7747000   0.051399821   -0.31082694     0             -0.2699159      0.0054341757 
   7748000   0.049591071   -0.31189116     0             -0.27241977    -0.0091921905 
   7749000   0.049072975   -0.31245734     0             -0.27339832    -0.0060324568 
   7750000   0.050330007   -0.31078742     0             -0.27072788     0.010175662  
   7751000   0.049726057   -0.30734013     0             -0.2677613      0.0004736411 
   7752000   0.049151131   -0.31168284     0             -0.27256161     0.0038085319 
   7753000   0.048136013   -0.31025885     0             -0.27194559     0.0043250956 
   7754000   0.048453802   -0.31101351     0             -0.27244731     0.0047639758 
   7755000   0.05053116    -0.3092545      0             -0.26903485    -2.855245e-05 
   7756000   0.052048745   -0.30782442     0             -0.26639687     0.0031323323 
   7757000   0.049797387   -0.31075011     0             -0.2711145     -0.0041588281 
   7758000   0.051583087   -0.30024062     0             -0.25918371    -0.0018849511 
   7759000   0.050845081   -0.31024711     0             -0.2697776      0.0062625065 
   7760000   0.050151634   -0.31107497     0             -0.2711574     -0.0015038167 
   7761000   0.048467162   -0.31042587     0             -0.27184904     0.0016511745 
   7762000   0.050553347   -0.31021094     0             -0.26997364    -0.00027559349
   7763000   0.053386803   -0.3112556      0             -0.26876304     0.0034406938 
   7764000   0.051631296   -0.31083201     0             -0.26973672    -0.0019151554 
   7765000   0.048882734   -0.31033195     0             -0.27142435    -0.00010286624
   7766000   0.049217699   -0.31014849     0             -0.27097428     0.0060235848 
   7767000   0.05111912    -0.30983801     0             -0.26915038     0.0043803845 
   7768000   0.049925448   -0.3100602      0             -0.27032267     0.0030075293 
   7769000   0.053433314   -0.31014175     0             -0.26761217     0.00079304738
   7770000   0.050579009   -0.30987247     0             -0.26961474     0.0016202412 
   7771000   0.049801314   -0.30964889     0             -0.27001016    -0.0011562364 
   7772000   0.049145437   -0.30817518     0             -0.26905848    -0.00076673051
   7773000   0.049738521   -0.30437106     0             -0.2647823      0.0012582641 
   7774000   0.051505339   -0.30979713     0             -0.2688021      0.0045279078 
   7775000   0.048801268   -0.31048672     0             -0.27164396    -0.0093186281 
   7776000   0.048968505   -0.31053343     0             -0.27155756    -0.0008275231 
   7777000   0.048781961   -0.31084607     0             -0.27201868    -0.0085635801 
   7778000   0.053058502   -0.31069231     0             -0.26846106     0.0024039593 
   7779000   0.048301466   -0.31052104     0             -0.27207609    -0.0034745    
   7780000   0.050883067   -0.30979713     0             -0.26929739    -0.0054928762 
   7781000   0.0508521     -0.30995635     0             -0.26948126    -0.0026735413 
   7782000   0.048930554   -0.3101939      0             -0.27124824     0.0048148423 
   7783000   0.048683923   -0.30957686     0             -0.2708275      0.001714349  
   7784000   0.050019988   -0.29719326     0             -0.25738048    -0.0063686045 
   7785000   0.051428317   -0.30973874     0             -0.26880501    -0.0060608431 
   7786000   0.049146427   -0.31046747     0             -0.27134998     0.0052218053 
   7787000   0.049811754   -0.31022932     0             -0.27058228     0.0065050323 
   7788000   0.049628429   -0.31100783     0             -0.2715067     -0.00056376249
   7789000   0.05112501    -0.3106937      0             -0.27000138     0.00058323972
   7790000   0.048550268   -0.30956419     0             -0.27092121     0.0061093819 
   7791000   0.048939912   -0.31023411     0             -0.271281       0.0018747001 
   7792000   0.050823691   -0.31014781     0             -0.26969533    -0.0037153434 
   7793000   0.050497074   -0.30987019     0             -0.26967767     0.0034472243 
   7794000   0.049326396   -0.31084697     0             -0.27158624    -0.0023042008 
   7795000   0.049409082   -0.31021327     0             -0.27088673    -0.0095473635 
   7796000   0.05178157    -0.30980859     0             -0.2685937      0.0081752655 
   7797000   0.049743159   -0.31136693     0             -0.27177448    -0.0015797551 
   7798000   0.050790491   -0.31108043     0             -0.27065437    -0.0046892107 
   7799000   0.047894252   -0.30908332     0             -0.27096248     0.0017452101 
   7800000   0.050725411   -0.30780472     0             -0.26743046    -0.0036307694 
   7801000   0.049501638   -0.3071093      0             -0.26770909     0.00083734853
   7802000   0.04966507    -0.31094064     0             -0.27141034     0.0042359502 
   7803000   0.051749012   -0.30852559     0             -0.26733661    -0.0021756446 
   7804000   0.051805361   -0.3085653      0             -0.26733147    -0.00031139427
   7805000   0.051250977   -0.31005761     0             -0.26926503    -0.0036087372 
   7806000   0.049531436   -0.3101063      0             -0.27068237    -0.0010160773 
   7807000   0.050853702   -0.30954526     0             -0.2690689      0.0020558197 
   7808000   0.050604743   -0.30976279     0             -0.26948457     0.002411746  
   7809000   0.048618596   -0.30903098     0             -0.27033362     0.0030702885 
   7810000   0.051590861   -0.30851205     0             -0.26744895    -0.0011175143 
   7811000   0.048717366   -0.30947895     0             -0.27070297    -0.0036081434 
   7812000   0.048888677   -0.30188063     0             -0.2629683      0.0024786749 
   7813000   0.048683563   -0.31043401     0             -0.27168494     6.0585487e-05
   7814000   0.050075527   -0.30890448     0             -0.26904749     0.0032028739 
   7815000   0.049586324   -0.30913708     0             -0.26966947     0.0026178447 
   7816000   0.04889645    -0.30918523     0             -0.27026671    -0.00076315175
   7817000   0.047937433   -0.30998749     0             -0.27183229    -0.0024917304 
   7818000   0.053120402   -0.31049535     0             -0.26821483    -0.0085083978 
   7819000   0.048931217   -0.30846532     0             -0.26951913    -0.00094292506
   7820000   0.050616356   -0.30880207     0             -0.26851462    -0.0021457453 
   7821000   0.050091849   -0.3092016      0             -0.26933162    -0.00016167117
   7822000   0.05113412    -0.30865089     0             -0.26795133    -0.00098202294
   7823000   0.050279432   -0.31036247     0             -0.27034318    -0.0012215108 
   7824000   0.050096805   -0.30313771     0             -0.26326378    -0.0014490732 
   7825000   0.051537931   -0.30837618     0             -0.26735521    -0.0070675675 
   7826000   0.049764828   -0.30903642     0             -0.26942672     0.0046757486 
   7827000   0.050170433   -0.30319197     0             -0.26325944     0.0048622278 
   7828000   0.05095944    -0.30820288     0             -0.26764235     0.00055295624
   7829000   0.047397969   -0.30930365     0             -0.27157783     0.0034433174 
   7830000   0.051084712   -0.30839081     0             -0.26773058     0.0064363412 
   7831000   0.048694898   -0.3084573      0             -0.2696992     -0.0064462418 
   7832000   0.048329862   -0.309701       0             -0.27123345    -0.0012961445 
   7833000   0.050368487   -0.30961583     0             -0.26952567     0.0035970371 
   7834000   0.049363265   -0.30915152     0             -0.26986145    -0.0012028908 
   7835000   0.051606774   -0.31082826     0             -0.26975249     0.0029783255 
   7836000   0.049928207   -0.30695008     0             -0.26721034    -0.0043180896 
   7837000   0.0498269     -0.31083834     0             -0.27117925     0.00036977618
   7838000   0.049493491   -0.30958239     0             -0.27018866     0.0018600189 
   7839000   0.049642418   -0.3110204      0             -0.27150814    -0.00055153921
   7840000   0.048027915   -0.30970031     0             -0.27147309     0.00063927649
   7841000   0.048673613   -0.31014804     0             -0.27140689     4.35703e-07  
   7842000   0.047153692   -0.30868902     0             -0.27115762     0.0012985078 
   7843000   0.051625717   -0.30860024     0             -0.26750939    -0.00025570331
   7844000   0.048995476   -0.31034289     0             -0.27134555     0.00046782762
   7845000   0.052355511   -0.30989987     0             -0.26822816     0.0060530727 
   7846000   0.050522456   -0.30647999     0             -0.26626727     0.0045290082 
   7847000   0.049824437   -0.30415479     0             -0.26449765    -0.0012685902 
   7848000   0.049445275   -0.30913396     0             -0.26977861    -0.0078234413 
   7849000   0.047330232   -0.30363178     0             -0.26595987    -0.0025260509 
   7850000   0.049304195   -0.31039935     0             -0.27115629    -0.0023717515 
   7851000   0.050256008   -0.31111745     0             -0.2711168      0.0034001235 
   7852000   0.050506612   -0.30993746     0             -0.26973736    -0.002414021  
   7853000   0.050367886   -0.31054117     0             -0.27045148    -0.0098315153 
   7854000   0.051722942   -0.31101017     0             -0.26984194     0.0075622703 
   7855000   0.048289563   -0.30903005     0             -0.27059457     0.0080824793 
   7856000   0.053920134   -0.30879222     0             -0.26587517    -0.00070954926
   7857000   0.049815275   -0.31055123     0             -0.27090139     0.00077981028
   7858000   0.050883043   -0.29881795     0             -0.25831822     8.3235457e-05
   7859000   0.048981248   -0.30291123     0             -0.26392522    -0.00073692537
   7860000   0.049363336   -0.31151659     0             -0.27222646     0.0048851777 
   7861000   0.049865147   -0.30998984     0             -0.2703003      0.0051097478 
   7862000   0.0520869     -0.31209394     0             -0.27063603    -0.0083955821 
   7863000   0.050722159   -0.30501376     0             -0.26464209     0.0018949974 
   7864000   0.050607835   -0.30909047     0             -0.26880979    -0.0022070383 
   7865000   0.04888713    -0.31029863     0             -0.27138753    -0.0060585711 
   7866000   0.051038673   -0.31162509     0             -0.27100149    -0.0004805679 
   7867000   0.049706429   -0.31184276     0             -0.27227955     0.0083638675 
   7868000   0.047821793   -0.31059338     0             -0.27253022     0.00054109542
   7869000   0.05127319    -0.31153365     0             -0.2707234      0.0010995885 
   7870000   0.050930128   -0.31010267     0             -0.26956547     0.0010540505 
   7871000   0.051023472   -0.31096029     0             -0.2703488      0.0050901661 
   7872000   0.04992936    -0.3115658      0             -0.27182515     0.0097689171 
   7873000   0.049856282   -0.30275678     0             -0.2630743      0.0017466485 
   7874000   0.051343353   -0.31237532     0             -0.27150922     0.0057289202 
   7875000   0.050796913   -0.3118309      0             -0.27139973    -0.0069336084 
   7876000   0.049860261   -0.31246081     0             -0.27277516     0.0050622201 
   7877000   0.05088517    -0.31233128     0             -0.27182987    -0.0046377843 
   7878000   0.049560284   -0.30278833     0             -0.26334144    -0.0026186089 
   7879000   0.048803797   -0.31287307     0             -0.2740283      0.0020512855 
   7880000   0.0482307     -0.30596423     0             -0.26757561     0.0013605659 
   7881000   0.052082386   -0.31109086     0             -0.26963654    -0.0025248264 
   7882000   0.049428168   -0.30901464     0             -0.26967291    -0.00097323678
   7883000   0.05288998    -0.31213719     0             -0.27004007    -0.0059917702 
   7884000   0.052016523   -0.30382935     0             -0.26242745     0.008781263  
   7885000   0.050777271   -0.3127957      0             -0.27238017    -0.00031594316
   7886000   0.050122335   -0.31232952     0             -0.27243527     0.0025123641 
   7887000   0.048965591   -0.31147326     0             -0.27249971    -0.0070366924 
   7888000   0.048543956   -0.31101875     0             -0.2723808      0.0063230281 
   7889000   0.050284339   -0.31116849     0             -0.2711453     -0.0015078089 
   7890000   0.049056456   -0.31241978     0             -0.2733739      0.0037571419 
   7891000   0.048992202   -0.31180116     0             -0.27280643     0.0064255465 
   7892000   0.051344832   -0.31174923     0             -0.27088196     0.0055673874 
   7893000   0.052712096   -0.3113668      0             -0.26941127     0.006620112  
   7894000   0.050384113   -0.3061387      0             -0.2660361      0.0010014615 
   7895000   0.049127223   -0.31203562     0             -0.27293342    -0.0075087091 
   7896000   0.050814092   -0.31088011     0             -0.27043527    -0.00041015591
   7897000   0.046326132   -0.31174168     0             -0.27486897    -0.0074903926 
   7898000   0.050909959   -0.31269627     0             -0.27217513    -0.0017949293 
   7899000   0.046362401   -0.31250214     0             -0.27560057     0.001849398  
   7900000   0.052365092   -0.31185335     0             -0.27017401     0.0075921386 
   7901000   0.048346035   -0.3118079      0             -0.27332747    -0.0059646495 
   7902000   0.048887495   -0.31108506     0             -0.27217367     0.0029361965 
   7903000   0.048196272   -0.31104645     0             -0.27268523     0.0025856117 
   7904000   0.051629794   -0.31083907     0             -0.26974498    -0.0070806653 
   7905000   0.051799696   -0.31163042     0             -0.2704011     -0.0029793232 
   7906000   0.051616921   -0.31113136     0             -0.27004752     0.0030120204 
   7907000   0.051189245   -0.31107934     0             -0.2703359     -0.0086155195 
   7908000   0.052557082   -0.30922159     0             -0.26738944     9.2672892e-05
   7909000   0.050539611   -0.30487036     0             -0.26464399     0.010037728  
   7910000   0.04942541    -0.31164645     0             -0.27230691     0.0010534869 
   7911000   0.049421022   -0.3112413      0             -0.27190526     0.0092122405 
   7912000   0.04873147    -0.3116983      0             -0.2729111     -0.001721132  
   7913000   0.049217288   -0.31158905     0             -0.27241517    -0.0058470896 
   7914000   0.048697749   -0.30423543     0             -0.26547507     0.00022132347
   7915000   0.050913541   -0.31098065     0             -0.27045665     0.00052628636
   7916000   0.05140697    -0.31200689     0             -0.27109015    -0.00021405023
   7917000   0.050032619   -0.31220466     0             -0.27238182     0.0034303168 
   7918000   0.04951876    -0.31048082     0             -0.27106699    -0.0021849771 
   7919000   0.050130086   -0.31202315     0             -0.27212274     0.0043835038 
   7920000   0.050407061   -0.31230087     0             -0.27218        0.00020610994
   7921000   0.049494324   -0.31151748     0             -0.2721231     -0.0011177631 
   7922000   0.049718682   -0.31195827     0             -0.2723853      0.0034336401 
   7923000   0.048788101   -0.3053259      0             -0.26649362    -0.0028603061 
   7924000   0.051668727   -0.30570009     0             -0.26457501    -0.0071436128 
   7925000   0.051632388   -0.30697281     0             -0.26587665     0.0017951246 
   7926000   0.051930237   -0.31241174     0             -0.27107852     0.0070949158 
   7927000   0.048087185   -0.31184523     0             -0.27357084     0.0082322077 
   7928000   0.048851082   -0.31141257     0             -0.27253017     0.0062475689 
   7929000   0.049267497   -0.31215789     0             -0.27294404    -0.005122721  
   7930000   0.049461186   -0.31240465     0             -0.27303664     0.0029493941 
   7931000   0.051091714   -0.31218249     0             -0.27151668    -0.0023708159 
   7932000   0.05047293    -0.31194016     0             -0.27176686    -0.00026418652
   7933000   0.052441451   -0.31299324     0             -0.27125313     0.001738003  
   7934000   0.049208917   -0.31221196     0             -0.27304474    -0.0067963396 
   7935000   0.051681154   -0.31202838     0             -0.27089341    -0.0012275609 
   7936000   0.054537597   -0.31253079     0             -0.26912227     0.00051221129
   7937000   0.050771374   -0.31137118     0             -0.27096034     0.00084448472
   7938000   0.049667069   -0.31254706     0             -0.27301517    -0.010502003  
   7939000   0.049979502   -0.31069513     0             -0.27091457    -0.0053855333 
   7940000   0.050146418   -0.31107084     0             -0.27115743    -0.0042770585 
   7941000   0.05224086    -0.31185138     0             -0.27027092    -0.0011721547 
   7942000   0.048885099   -0.3113777      0             -0.27246822    -0.0034852929 
   7943000   0.050085869   -0.31099193     0             -0.2711267      0.0076860495 
   7944000   0.049935647   -0.31181292     0             -0.27206726    -0.0025143442 
   7945000   0.05077587    -0.30914845     0             -0.26873403    -0.0053214831 
   7946000   0.051514429   -0.31155908     0             -0.27055681     0.0024191104 
   7947000   0.049659508   -0.31147792     0             -0.27195206    -0.0069413509 
   7948000   0.048679401   -0.31224591     0             -0.27350015     0.00031865075
   7949000   0.051346361   -0.31062512     0             -0.26975662    -0.00039660484
   7950000   0.052280269   -0.31104219     0             -0.26943037    -0.0032588846 
   7951000   0.048305939   -0.30948531     0             -0.2710368      0.0070309755 
   7952000   0.048063902   -0.31045522     0             -0.27219935     0.00049935645
   7953000   0.050305032   -0.31154902     0             -0.27150936    -0.00095315021
   7954000   0.052313067   -0.31069737     0             -0.26905944     0.008611696  
   7955000   0.049527003   -0.30995754     0             -0.27053714    -0.0036106379 
   7956000   0.049896375   -0.31053087     0             -0.27081647    -0.00093921746
   7957000   0.050539481   -0.31161354     0             -0.27138727     0.0039091322 
   7958000   0.050652049   -0.31081108     0             -0.27049521     0.0063878364 
   7959000   0.05248733    -0.31185964     0             -0.27008301    -0.0016470872 
   7960000   0.051110026   -0.31056422     0             -0.26988384     0.004911453  
   7961000   0.050914982   -0.30877584     0             -0.2682507      0.0035350435 
   7962000   0.051244753   -0.31157473     0             -0.27078711    -0.0052542553 
   7963000   0.049942945   -0.3111564      0             -0.27140494     0.00060398952
   7964000   0.047985298   -0.31057693     0             -0.27238363    -0.0059799995 
   7965000   0.049913528   -0.31152229     0             -0.27179424     0.0028078201 
   7966000   0.049761499   -0.31065095     0             -0.2710439     -0.0085891125 
   7967000   0.051355051   -0.31138017     0             -0.27050476     0.0019549757 
   7968000   0.049751174   -0.30996329     0             -0.27036446     0.0025850591 
   7969000   0.048458084   -0.31044349     0             -0.27187388    -0.0025507506 
   7970000   0.050761939   -0.31054277     0             -0.27013944    -0.0013307936 
   7971000   0.049832582   -0.30993543     0             -0.2702718      0.00031214232
   7972000   0.049675884   -0.30966707     0             -0.27012817     0.0028616115 
   7973000   0.048776382   -0.31033078     0             -0.27150783     0.002739461  
   7974000   0.048017817   -0.31060106     0             -0.27238188    -0.0043480333 
   7975000   0.051355243   -0.31155604     0             -0.27068048    -0.0039548196 
   7976000   0.051536929   -0.31160122     0             -0.27058104     0.0059493366 
   7977000   0.049941972   -0.31109152     0             -0.27134083     0.004239553  
   7978000   0.049594222   -0.30969908     0             -0.27022518     0.0029815021 
   7979000   0.049607942   -0.3109978      0             -0.27151298    -0.00394263   
   7980000   0.048762503   -0.30901904     0             -0.27020714    -0.00024527464
   7981000   0.052207147   -0.31142593     0             -0.26987231    -0.0048749635 
   7982000   0.04996041    -0.31034857     0             -0.27058321     0.0014203917 
   7983000   0.05120477    -0.31074199     0             -0.26998619    -0.0093797319 
   7984000   0.048524007   -0.31141777     0             -0.2727957      0.009847238  
   7985000   0.051559025   -0.309189       0             -0.26815124     0.005038219  
   7986000   0.05197965    -0.30968899     0             -0.26831644    -0.0013399647 
   7987000   0.050640109   -0.3098382      0             -0.26953184     0.0084474403 
   7988000   0.049017229   -0.31031293     0             -0.27129828    -0.0035625149 
   7989000   0.051657921   -0.30993505     0             -0.26881857     0.000838573  
   7990000   0.050375336   -0.30999496     0             -0.26989934     0.0015977627 
   7991000   0.049834658   -0.31000647     0             -0.2703412     -0.0012359478 
   7992000   0.05097428    -0.3101044      0             -0.26953206     0.0080425374 
   7993000   0.049934841   -0.30975111     0             -0.2700061     -0.0041767529 
   7994000   0.048797305   -0.30978115     0             -0.27094154    -0.00047129817
   7995000   0.050143869   -0.31096251     0             -0.27105112     0.0050925404 
   7996000   0.049895545   -0.31022751     0             -0.27051377    -0.0092080588 
   7997000   0.049883616   -0.30885999     0             -0.26915575     0.0012552356 
   7998000   0.05099812    -0.31029486     0             -0.26970354    -0.0027891875 
   7999000   0.048841762   -0.30609052     0             -0.26721553    -0.0026007075 
   8000000   0.049542666   -0.30980491     0             -0.27037205    -0.0063925663 
   8001000   0.048999849   -0.31054511     0             -0.27154429     0.00015052948
   8002000   0.04972727    -0.30477484     0             -0.26519504    -0.001677438  
   8003000   0.050118926   -0.310266       0             -0.27037446     0.0067180199 
   8004000   0.049586259   -0.3097043      0             -0.27023674    -0.0013350645 
   8005000   0.049483507   -0.30978706     0             -0.27040128    -0.0024356232 
   8006000   0.047821058   -0.31081066     0             -0.27274808     0.00056208036
   8007000   0.049614785   -0.30582638     0             -0.26633611    -0.0042077998 
   8008000   0.051086987   -0.31152731     0             -0.27086526     0.0040972291 
   8009000   0.049568768   -0.31001262     0             -0.27055897    -0.0044497193 
   8010000   0.051200512   -0.31138171     0             -0.2706293      0.00092509888
   8011000   0.048662956   -0.30740002     0             -0.26866735     0.0032812175 
   8012000   0.050920545   -0.31119357     0             -0.270664       0.0013993621 
   8013000   0.04810272    -0.31033647     0             -0.27204971    -0.002614201  
   8014000   0.050483122   -0.31045542     0             -0.27027401    -0.00082869701
   8015000   0.052199925   -0.30952926     0             -0.26798138     0.0056931729 
   8016000   0.051927125   -0.31156345     0             -0.2702327      0.0016147172 
   8017000   0.050284881   -0.31062946     0             -0.27060584    -0.0071743955 
   8018000   0.05170571    -0.30997048     0             -0.26881596     0.00010846697
   8019000   0.051232855   -0.31122393     0             -0.27044578     0.004031293  
   8020000   0.049700491   -0.31017316     0             -0.27061467     0.0058830996 
   8021000   0.04995177    -0.31047765     0             -0.27071916     0.0039997116 
   8022000   0.049803673   -0.31158293     0             -0.27194232    -0.00069283113
   8023000   0.049350845   -0.31129795     0             -0.27201776    -0.0011805212 
   8024000   0.050940738   -0.31148987     0             -0.27094422     0.0050409895 
   8025000   0.051238591   -0.31060694     0             -0.26982422     0.0023335236 
   8026000   0.050235821   -0.31124445     0             -0.27125988    -0.0036502556 
   8027000   0.050416689   -0.31182922     0             -0.27170069     0.00018058604
   8028000   0.047185898   -0.3111049      0             -0.27354788     0.005214095  
   8029000   0.051504945   -0.31080051     0             -0.2698058     -0.0025554748 
   8030000   0.051048813   -0.30261534     0             -0.26198367    -0.00042822772
   8031000   0.052294586   -0.31107167     0             -0.26944845     0.0050559939 
   8032000   0.04968306    -0.31126658     0             -0.27172197     0.0021772421 
   8033000   0.051783567   -0.31163284     0             -0.27041636     0.0015973795 
   8034000   0.05082979    -0.31100075     0             -0.27054341     3.2884279e-05
   8035000   0.050817219   -0.30546606     0             -0.26501873     0.0019502789 
   8036000   0.049259917   -0.31251664     0             -0.27330883    -0.00097952722
   8037000   0.051799384   -0.31017519     0             -0.26894612     0.00730505   
   8038000   0.048778549   -0.31136984     0             -0.27254517     0.0021303133 
   8039000   0.048399112   -0.31176286     0             -0.2732402     -0.0069473615 
   8040000   0.049857244   -0.31116232     0             -0.27147907     0.0033765148 
   8041000   0.049537936   -0.311874       0             -0.2724449      0.0027804172 
   8042000   0.048043729   -0.30886096     0             -0.27062115    -0.0045025065 
   8043000   0.053027602   -0.31012623     0             -0.26791958     0.0028964758 
   8044000   0.048840722   -0.31097221     0             -0.27209805    -0.0016957531 
   8045000   0.049905623   -0.31245872     0             -0.27273697    -0.00024150574
   8046000   0.050653124   -0.31133603     0             -0.27101931     0.00069330312
   8047000   0.049535753   -0.31176159     0             -0.27233422     0.0052752563 
   8048000   0.050657772   -0.31176962     0             -0.2714492      0.0034814304 
   8049000   0.050948333   -0.31094031     0             -0.27038862    -0.0014389423 
   8050000   0.047529541   -0.31147686     0             -0.27364632    -0.0057381422 
   8051000   0.049381384   -0.31219389     0             -0.2728894      0.0049542397 
   8052000   0.050011712   -0.31093434     0             -0.27112814    -0.0018185027 
   8053000   0.051570279   -0.31005822     0             -0.2690115      0.002090071  
   8054000   0.049636915   -0.31250657     0             -0.27299868    -0.0014094196 
   8055000   0.050722375   -0.31063455     0             -0.27026271     0.0023846142 
   8056000   0.049508563   -0.310706       0             -0.27130028    -0.0012123396 
   8057000   0.050539096   -0.30990308     0             -0.26967711     0.0025009469 
   8058000   0.049828766   -0.31168814     0             -0.27202755     0.0014928504 
   8059000   0.049708336   -0.31163157     0             -0.27206685     0.00022701666
   8060000   0.05154811    -0.30086903     0             -0.25983995     0.0013470549 
   8061000   0.052117914   -0.31177684     0             -0.27029424    -0.0025452885 
   8062000   0.051438543   -0.31051598     0             -0.26957411    -0.0080720868 
   8063000   0.048971249   -0.31076917     0             -0.27179112    -0.0017648576 
   8064000   0.049798364   -0.31184474     0             -0.27220835     0.0025762361 
   8065000   0.051025978   -0.31268233     0             -0.27206884    -0.0075640249 
   8066000   0.050229574   -0.31186022     0             -0.27188062     0.0011651606 
   8067000   0.050275184   -0.31330851     0             -0.2732926     -0.00065285906
   8068000   0.049109162   -0.31347458     0             -0.27438676     0.00025034595
   8069000   0.052173618   -0.3121141      0             -0.27058716    -0.00087938407
   8070000   0.050926025   -0.31126535     0             -0.27073142    -0.0021434085 
   8071000   0.050126518   -0.31214833     0             -0.27225076    -0.0033184556 
   8072000   0.049804569   -0.3113489      0             -0.27170758    -0.0041465929 
   8073000   0.050719488   -0.31252219     0             -0.27215265     0.0012319518 
   8074000   0.049922419   -0.31162743     0             -0.27189231    -0.0018503616 
   8075000   0.051445583   -0.31263829     0             -0.27169082    -0.00152244   
   8076000   0.049769071   -0.30807444     0             -0.26846137    -0.00052111014
   8077000   0.04969351    -0.31181808     0             -0.27226515    -0.0050616765 
   8078000   0.0503049     -0.31274973     0             -0.27271017     0.0013109543 
   8079000   0.049692277   -0.31184728     0             -0.27229533     0.0027280153 
   8080000   0.052594486   -0.31165681     0             -0.26979489    -0.004379634  
   8081000   0.050405548   -0.3115834      0             -0.27146374    -0.002895373  
   8082000   0.049173551   -0.31122508     0             -0.27208601     0.0034679028 
   8083000   0.051623633   -0.31204542     0             -0.27095624     0.0041536439 
   8084000   0.050231272   -0.31098542     0             -0.27100447    -0.0042647107 
   8085000   0.050108048   -0.31103139     0             -0.27114852    -0.0083826235 
   8086000   0.049497538   -0.31155003     0             -0.27215309    -0.00042952506
   8087000   0.048809537   -0.31012906     0             -0.27127972    -0.0052305218 
   8088000   0.050208403   -0.31206265     0             -0.2720999      0.00074866466
   8089000   0.050115414   -0.31135725     0             -0.27146851    -0.0044124569 
   8090000   0.049399331   -0.31178432     0             -0.27246554     0.00038702247
   8091000   0.050750398   -0.3125882      0             -0.27219406    -0.0090429267 
   8092000   0.050368111   -0.31193476     0             -0.27184489     0.0029482708 
   8093000   0.046768534   -0.3067146      0             -0.26948977     0.0019444638 
   8094000   0.052000333   -0.31062202     0             -0.26923301     0.0020556056 
   8095000   0.049713051   -0.31114232     0             -0.27157384    -0.0045955316 
   8096000   0.049698183   -0.30880595     0             -0.2692493      0.0061741995 
   8097000   0.0522115     -0.31146089     0             -0.26990379    -0.002390258  
   8098000   0.048399624   -0.31208736     0             -0.27356429    -0.004321266  
   8099000   0.048186285   -0.31233635     0             -0.27398308     0.0011373408 
   8100000   0.051966993   -0.31144288     0             -0.2700804     -0.0062149968 
   8101000   0.048171839   -0.31132992     0             -0.27298814    -0.0038227466 
   8102000   0.050499738   -0.31197462     0             -0.27177998     0.0011091701 
   8103000   0.049790056   -0.31104118     0             -0.27141141     0.0035214447 
   8104000   0.05221058    -0.31125878     0             -0.26970242    -0.0012906241 
   8105000   0.049370117   -0.31113268     0             -0.27183715     0.0047923336 
   8106000   0.047702545   -0.31258907     0             -0.27462082     0.0036524362 
   8107000   0.051404196   -0.31180006     0             -0.27088553     0.0011694427 
   8108000   0.051693542   -0.31067323     0             -0.2695284      0.0033243274 
   8109000   0.049512505   -0.31288222     0             -0.27347337     0.0048026883 
   8110000   0.050864322   -0.31196493     0             -0.27148011    -0.00077002373
   8111000   0.052083701   -0.31237866     0             -0.27092329     0.0076265246 
   8112000   0.04910319    -0.31228441     0             -0.27320134    -0.0043689228 
   8113000   0.052629333   -0.31147474     0             -0.26958508    -0.0046674606 
   8114000   0.051224232   -0.31020326     0             -0.26943197    -0.00093885987
   8115000   0.050501911   -0.31108422     0             -0.27088785     0.0042625593 
   8116000   0.051579176   -0.31163223     0             -0.27057843     0.007175953  
   8117000   0.049177476   -0.31057536     0             -0.27143316     0.0009537928 
   8118000   0.050570859   -0.31150074     0             -0.27124949     0.0050764701 
   8119000   0.049852108   -0.31115849     0             -0.27147933     0.00081732274
   8120000   0.048902712   -0.31090199     0             -0.27197849    -0.0061560186 
   8121000   0.048219811   -0.31222464     0             -0.27384468    -0.010297634  
   8122000   0.049404782   -0.30422054     0             -0.26489743     0.0022867674 
   8123000   0.051745175   -0.31139263     0             -0.2702067     -0.0036257683 
   8124000   0.049525613   -0.30978615     0             -0.27036685    -0.0068711911 
   8125000   0.048727992   -0.31051601     0             -0.27173158    -0.0012976909 
   8126000   0.048071265   -0.30990963     0             -0.27164791    -0.010658867  
   8127000   0.050768005   -0.31046198     0             -0.27005382     0.0092472239 
   8128000   0.049632985   -0.31008621     0             -0.27058145    -0.002250733  
   8129000   0.048601845   -0.30982087     0             -0.27113684    -0.0032129157 
   8130000   0.049033742   -0.30947952     0             -0.27045172    -0.014256961  
   8131000   0.049149905   -0.30872328     0             -0.26960303     0.0015808017 
   8132000   0.050807141   -0.31089        0             -0.27045069     0.0030837464 
   8133000   0.050502546   -0.30609771     0             -0.26590084     0.0022155388 
   8134000   0.051613943   -0.31066104     0             -0.26957957     0.0014936664 
   8135000   0.049603971   -0.31089527     0             -0.2714136     -0.010282064  
   8136000   0.049557746   -0.31132776     0             -0.27188289    -0.0011354744 
   8137000   0.049359854   -0.30690547     0             -0.26761811     0.0021206733 
   8138000   0.049139107   -0.31156426     0             -0.2724526      0.0047390349 
   8139000   0.050461882   -0.31142026     0             -0.27125576    -0.00040984738
   8140000   0.051706333   -0.30986714     0             -0.26871213     0.00066209403
   8141000   0.04967879    -0.3108421      0             -0.27130089    -0.0038437915 
   8142000   0.049988941   -0.31048926     0             -0.27070119    -0.0030100997 
   8143000   0.049502321   -0.31065157     0             -0.27125081    -0.0034598933 
   8144000   0.050695037   -0.3090577      0             -0.26870762     0.0016890997 
   8145000   0.050472851   -0.30843514     0             -0.26826191     0.0015184966 
   8146000   0.051399314   -0.31017865     0             -0.26926801     0.0012194686 
   8147000   0.048403977   -0.30991951     0             -0.27139297     0.0052838895 
   8148000   0.052222467   -0.30998195     0             -0.26841613    -0.0045388737 
   8149000   0.04909045    -0.30972441     0             -0.27065148     0.0013684538 
   8150000   0.050824057   -0.30984136     0             -0.26938859    -0.0040824209 
   8151000   0.051097483   -0.30428784     0             -0.26361744    -0.0024722608 
   8152000   0.04958491    -0.30646185     0             -0.26699536     0.0022060527 
   8153000   0.052351812   -0.30257276     0             -0.26090399    -0.0019552328 
   8154000   0.049625869   -0.30914919     0             -0.2696501      0.0014531112 
   8155000   0.051335546   -0.31009954     0             -0.26923965    -0.003184829  
   8156000   0.051151764   -0.30918772     0             -0.26847411    -0.0014899387 
   8157000   0.048824208   -0.30991156     0             -0.27105054     0.00027512785
   8158000   0.050926903   -0.30276297     0             -0.26222834     0.0025761136 
   8159000   0.04891268    -0.31077608     0             -0.27184465     0.0012912105 
   8160000   0.048839177   -0.30484328     0             -0.26597035     0.0072306681 
   8161000   0.049409923   -0.31043706     0             -0.27110985    -3.8401196e-05
   8162000   0.047932739   -0.31085007     0             -0.27269861    -0.0021363259 
   8163000   0.049775703   -0.31037915     0             -0.2707608      0.0019357456 
   8164000   0.05190049    -0.30835661     0             -0.26704706    -0.00092752496
   8165000   0.049514521   -0.30812252     0             -0.26871206     0.0057492433 
   8166000   0.049666447   -0.3070392      0             -0.26750782    -0.0057495908 
   8167000   0.047897225   -0.30945767     0             -0.27133447     0.002493439  
   8168000   0.051520429   -0.31088784     0             -0.2698808      0.0038532555 
   8169000   0.049348109   -0.30921746     0             -0.26993945    -0.0019533391 
   8170000   0.050601557   -0.30857031     0             -0.26829464    -0.0030428422 
   8171000   0.049226685   -0.31018988     0             -0.27100852     0.0020985219 
   8172000   0.049888822   -0.31005031     0             -0.27034193     0.0011675059 
   8173000   0.049135191   -0.31085563     0             -0.27174708    -0.0021355198 
   8174000   0.050097541   -0.31007199     0             -0.27019748    -0.0025072074 
   8175000   0.049658009   -0.31089856     0             -0.27137389     0.0023825433 
   8176000   0.049175022   -0.31042575     0             -0.2712855     -0.0033115252 
   8177000   0.049920496   -0.30968593     0             -0.26995233     0.0072188355 
   8178000   0.050598747   -0.30970934     0             -0.2694359      0.0034242108 
   8179000   0.050700394   -0.30955782     0             -0.26920347    -0.0054549907 
   8180000   0.048695388   -0.30953322     0             -0.27077474    -0.0028943998 
   8181000   0.050753349   -0.30888924     0             -0.26849274     0.0039264562 
   8182000   0.050205052   -0.31032228     0             -0.2703622      0.0045678198 
   8183000   0.049584562   -0.30992296     0             -0.27045675     0.00083101665
   8184000   0.051394897   -0.30945328     0             -0.26854615    -0.002285096  
   8185000   0.049899738   -0.31006952     0             -0.27035245    -0.005943585  
   8186000   0.047681964   -0.30313325     0             -0.26518139    -0.003508613  
   8187000   0.048154072   -0.31058425     0             -0.27225662    -0.011680373  
   8188000   0.049966783   -0.31022962     0             -0.27045918    -0.0043141536 
   8189000   0.052034637   -0.31001419     0             -0.26859787    -0.002121488  
   8190000   0.052856105   -0.30440083     0             -0.26233067    -0.0007327577 
   8191000   0.048659658   -0.31014017     0             -0.27141012     0.00042037248
   8192000   0.051720349   -0.30394674     0             -0.26278057    -0.0007776855 
   8193000   0.050412535   -0.31039915     0             -0.27027392     0.0028857959 
   8194000   0.048673432   -0.30891983     0             -0.27017882    -0.0052806175 
   8195000   0.050121732   -0.30793248     0             -0.26803871     0.001835149  
   8196000   0.049720186   -0.31035121     0             -0.27077705     0.0019492369 
   8197000   0.04770415    -0.30972859     0             -0.27175907    -0.0011226817 
   8198000   0.05263821    -0.30918135     0             -0.26728462    -0.0043146548 
   8199000   0.049713046   -0.31010796     0             -0.27053949     0.00023416791
   8200000   0.05042759    -0.30985686     0             -0.26971965     0.00036837658
   8201000   0.04912603    -0.30983987     0             -0.27073862     0.0039894197 
   8202000   0.048460172   -0.29923103     0             -0.26065976    -0.0025602817 
   8203000   0.049431286   -0.30683168     0             -0.26748746    -0.0044826981 
   8204000   0.051489845   -0.3094904      0             -0.26850771     0.0028606402 
   8205000   0.048522787   -0.30970692     0             -0.27108581     0.0024898736 
   8206000   0.048860496   -0.30956708     0             -0.27067718     0.0082208356 
   8207000   0.049061434   -0.30179638     0             -0.26274654     0.00054498337
   8208000   0.051036018   -0.30971612     0             -0.26909464     0.0014095678 
   8209000   0.050259305   -0.30932198     0             -0.26931872    -0.00093251118
   8210000   0.048640924   -0.31000358     0             -0.27128845    -0.0043418565 
   8211000   0.051066854   -0.30925364     0             -0.26860761    -0.0034686404 
   8212000   0.051886801   -0.30891094     0             -0.26761229    -0.002428305  
   8213000   0.048827837   -0.3095574      0             -0.27069349    -0.0010178608 
   8214000   0.050019456   -0.30888667     0             -0.26907431    -0.00047618874
   8215000   0.049938815   -0.30837361     0             -0.26862543     0.0093002297 
   8216000   0.05049582    -0.30914028     0             -0.26894876     0.0021109623 
   8217000   0.0506725     -0.29834926     0             -0.25801712     0.00030419546
   8218000   0.050521004   -0.3096955      0             -0.26948393     0.0049020588 
   8219000   0.049105672   -0.3087146      0             -0.26962956    -0.0025581972 
   8220000   0.050949606   -0.30974466     0             -0.26919195    -0.0087998455 
   8221000   0.05047823    -0.30942314     0             -0.26924563     0.0032190738 
   8222000   0.048706791   -0.30896461     0             -0.27019705    -0.0019007652 
   8223000   0.048297286   -0.30904971     0             -0.27060809     0.00013533433
   8224000   0.049908622   -0.30990639     0             -0.27018224     0.0039911264 
   8225000   0.049518111   -0.30982133     0             -0.27040801    -0.0087363081 
   8226000   0.050790511   -0.30932294     0             -0.26889687     0.0018929831 
   8227000   0.050910317   -0.3104058      0             -0.26988437    -0.0033102531 
   8228000   0.051539815   -0.31067554     0             -0.26965307    -0.0048119511 
   8229000   0.048724068   -0.30923416     0             -0.27045285    -0.00035521625
   8230000   0.049624012   -0.3101221      0             -0.27062448     4.2255127e-05
   8231000   0.052641014   -0.30963698     0             -0.26773802    -0.0046536936 
   8232000   0.050235758   -0.30978097     0             -0.26979645    -0.00020634743
   8233000   0.05040121    -0.3088504      0             -0.26873418    -0.0071163452 
   8234000   0.052172352   -0.30922901     0             -0.26770308    -6.5669951e-05
   8235000   0.048322674   -0.30976346     0             -0.27130163    -0.00058415055
   8236000   0.049285881   -0.31043715     0             -0.27120867     0.0024680019 
   8237000   0.049576636   -0.30996749     0             -0.27050758    -0.0025103391 
   8238000   0.050934976   -0.30062597     0             -0.26008491     0.0038742923 
   8239000   0.048625373   -0.3090672      0             -0.27036444     0.0065950649 
   8240000   0.050529433   -0.30430048     0             -0.2640822     -0.0026719128 
   8241000   0.048728818   -0.30847041     0             -0.26968531    -0.0017302369 
   8242000   0.050892785   -0.30528477     0             -0.26477729    -0.0018548608 
   8243000   0.052457184   -0.30776444     0             -0.2660118     -0.0038191717 
   8244000   0.049846026   -0.30893501     0             -0.26926069    -0.0023240415 
   8245000   0.049033454   -0.30933954     0             -0.27031197    -0.0029103246 
   8246000   0.050109795   -0.30755872     0             -0.26767445     0.012026864  
   8247000   0.04800332    -0.30918625     0             -0.27097861     0.00056221218
   8248000   0.050581784   -0.30320067     0             -0.26294073    -0.0097059692 
   8249000   0.050084736   -0.30952965     0             -0.26966533    -0.0052549744 
   8250000   0.049082322   -0.30773042     0             -0.26866396     0.0025587922 
   8251000   0.0508142     -0.30815596     0             -0.26771103    -0.0041585083 
   8252000   0.051553287   -0.30750849     0             -0.26647529     0.0023304412 
   8253000   0.051666686   -0.30923867     0             -0.26811522    -0.0018705332 
   8254000   0.04983129    -0.30838494     0             -0.26872235    -0.0015455799 
   8255000   0.05110557    -0.30139691     0             -0.26072007    -0.0022734699 
   8256000   0.049499141   -0.30727572     0             -0.2678775     -0.0010837788 
   8257000   0.05236039    -0.30878603     0             -0.26711043     0.0041014007 
   8258000   0.049468423   -0.29675159     0             -0.25737782     0.0020902083 
   8259000   0.051424812   -0.30809819     0             -0.26716725     0.0034038218 
   8260000   0.051313275   -0.30843405     0             -0.26759189     0.0017549252 
   8261000   0.049080345   -0.30858111     0             -0.26951622    -0.00080380272
   8262000   0.051032382   -0.30702185     0             -0.26640327     0.0032523039 
   8263000   0.049275263   -0.30905264     0             -0.26983261     0.00015618266
   8264000   0.052359817   -0.30265479     0             -0.26097965    -0.00048627457
   8265000   0.045835747   -0.30851985     0             -0.27203746     0.0022252085 
   8266000   0.046424098   -0.30968417     0             -0.27273349    -0.0042260005 
   8267000   0.05033246    -0.31016621     0             -0.27010471    -0.0034974492 
   8268000   0.049513796   -0.30910468     0             -0.2696948      0.0029567372 
   8269000   0.049382374   -0.30887668     0             -0.2695714      0.0069993506 
   8270000   0.048700474   -0.30943382     0             -0.27067129     0.0041496177 
   8271000   0.049465808   -0.31047822     0             -0.27110653     0.0063841699 
   8272000   0.047215294   -0.30902476     0             -0.27144434    -0.00043904776
   8273000   0.050970289   -0.30921379     0             -0.26864462    -0.0062822491 
   8274000   0.049313713   -0.30955351     0             -0.27030287    -0.0050748605 
   8275000   0.048981655   -0.30822505     0             -0.26923871    -0.0051611478 
   8276000   0.047775563   -0.30959106     0             -0.2715647      0.004158132  
   8277000   0.048198745   -0.31017005     0             -0.27180686     0.00019717963
   8278000   0.051960382   -0.30996609     0             -0.26860887     0.00071196568
   8279000   0.052122983   -0.30962933     0             -0.2681427     -0.0014187111 
   8280000   0.049218646   -0.31004556     0             -0.27087059     0.0080861575 
   8281000   0.047732569   -0.30276455     0             -0.26477241    -0.0023326935 
   8282000   0.049870711   -0.30759125     0             -0.26789728     0.00023511309
   8283000   0.051645334   -0.30895073     0             -0.26784427     0.0066595771 
   8284000   0.050201647   -0.30743417     0             -0.2674768      0.00096063358
   8285000   0.050281879   -0.30801372     0             -0.26799249     0.0045060288 
   8286000   0.048910639   -0.3093293      0             -0.27039949    -0.0065359698 
   8287000   0.049222617   -0.30883244     0             -0.26965432    -8.2523108e-05
   8288000   0.050271782   -0.30873538     0             -0.26872218    -0.0031922921 
   8289000   0.048136729   -0.30896104     0             -0.27064721     0.0017121428 
   8290000   0.053479599   -0.30891756     0             -0.26635114    -0.00033113952
   8291000   0.050624722   -0.3096896      0             -0.26939548    -0.0012375365 
   8292000   0.049737143   -0.30993274     0             -0.27034509     0.0086200095 
   8293000   0.047860205   -0.30580344     0             -0.26770971     0.0064845527 
   8294000   0.050551095   -0.30974852     0             -0.26951301     0.00055980273
   8295000   0.050650201   -0.30845169     0             -0.2681373     -0.0020327572 
   8296000   0.050585633   -0.31030715     0             -0.27004415     0.0067236885 
   8297000   0.049614126   -0.3100873      0             -0.27059756     0.0039941442 
   8298000   0.053075482   -0.30892342     0             -0.26667865     0.0028524441 
   8299000   0.051181329   -0.30857602     0             -0.26783888    -0.0071784592 
   8300000   0.048127204   -0.30830833     0             -0.27000208    -0.003790758  
   8301000   0.048482798   -0.30601856     0             -0.26742929    -0.0055927497 
   8302000   0.052848083   -0.30877782     0             -0.26671405    -0.00077136133
   8303000   0.05003258    -0.29715198     0             -0.25732917    -0.00053718302
   8304000   0.051079475   -0.30886804     0             -0.26821197    -0.0018274143 
   8305000   0.05246519    -0.30994793     0             -0.26818892     0.0053853926 
   8306000   0.048719306   -0.30807753     0             -0.2693        -0.0044818298 
   8307000   0.049880181   -0.3076337      0             -0.26793219     0.0050598117 
   8308000   0.049842582   -0.30801921     0             -0.26834763     0.006054596  
   8309000   0.049842211   -0.30701691     0             -0.26734563    -0.0014477294 
   8310000   0.052334363   -0.30751962     0             -0.26586474    -0.0033047561 
   8311000   0.048339792   -0.30869051     0             -0.27021505     0.00014745111
   8312000   0.050953549   -0.3082803      0             -0.26772446     0.0070570633 
   8313000   0.051669273   -0.30991615     0             -0.26879064    -0.00099605924
   8314000   0.052783449   -0.30937367     0             -0.26736134     0.0014628808 
   8315000   0.052046025   -0.30871754     0             -0.26729215     0.0025074735 
   8316000   0.048183001   -0.30995903     0             -0.27160837    -0.0020867809 
   8317000   0.050404953   -0.30861274     0             -0.26849355    -0.0033756666 
   8318000   0.047979654   -0.30853266     0             -0.27034385     0.0044586921 
   8319000   0.051958412   -0.31056426     0             -0.26920861    -0.0027326783 
   8320000   0.051359589   -0.30958166     0             -0.26870263    -0.003281178  
   8321000   0.051131749   -0.30893935     0             -0.26824167     0.0058428515 
   8322000   0.046665555   -0.30589632     0             -0.26875345     0.0038220026 
   8323000   0.05061319    -0.30967561     0             -0.26939067     0.0053911568 
   8324000   0.050035691   -0.30973101     0             -0.26990572    -0.0043485612 
   8325000   0.049266025   -0.30970907     0             -0.27049639     0.0052216613 
   8326000   0.048034798   -0.30840495     0             -0.27017225     0.0031617796 
   8327000   0.049881986   -0.30803507     0             -0.26833212    -0.0022215904 
   8328000   0.050235378   -0.30753806     0             -0.26755384     0.00048084409
   8329000   0.049019914   -0.30217165     0             -0.26315486    -0.0079156309 
   8330000   0.051347351   -0.30919892     0             -0.26832963     0.0018735192 
   8331000   0.050926043   -0.30371414     0             -0.26318019    -0.00035228135
   8332000   0.047718611   -0.30987758     0             -0.27189655     0.0048721672 
   8333000   0.0498149     -0.31013804     0             -0.27048849    -0.0019490184 
   8334000   0.049439095   -0.29691859     0             -0.25756816    -0.0021525379 
   8335000   0.047492989   -0.31023955     0             -0.2724381      0.0023199427 
   8336000   0.048167937   -0.30927879     0             -0.27094012    -0.00024142368
   8337000   0.049951714   -0.30833617     0             -0.26857773    -0.012361275  
   8338000   0.052375309   -0.30965268     0             -0.26796521     0.0082870685 
   8339000   0.051832914   -0.31012187     0             -0.26886611     0.00086814973
   8340000   0.051845965   -0.30953836     0             -0.26827221    -0.0046375275 
   8341000   0.051775074   -0.30963434     0             -0.26842462    -0.00569079   
   8342000   0.050340002   -0.30720955     0             -0.26714206    -0.0046166961 
   8343000   0.051302373   -0.30432443     0             -0.26349095    -0.0071581753 
   8344000   0.048821139   -0.30984037     0             -0.27098179     0.0033535123 
   8345000   0.051019831   -0.31049431     0             -0.26988572    -0.0053632218 
   8346000   0.051368555   -0.30848006     0             -0.26759391     0.0032776942 
   8347000   0.047877394   -0.30943412     0             -0.27132671     0.00031057259
   8348000   0.050511932   -0.3095404      0             -0.26933606     0.00022787102
   8349000   0.05269918    -0.31078789     0             -0.26884263     0.00071487691
   8350000   0.047252916   -0.30990673     0             -0.27229636    -0.0014086865 
   8351000   0.047337461   -0.30580886     0             -0.2681312     -0.0023537913 
   8352000   0.052171136   -0.30986322     0             -0.26833826     0.0072512058 
   8353000   0.050351563   -0.30913621     0             -0.26905952    -0.0027214852 
   8354000   0.05053545    -0.30955515     0             -0.26933209     0.0081581363 
   8355000   0.052475007   -0.30996674     0             -0.26819991     0.0024417476 
   8356000   0.050170168   -0.30933918     0             -0.26940687     0.00091691832
   8357000   0.048309358   -0.3092391      0             -0.27078787    -0.0042801606 
   8358000   0.050871197   -0.30995504     0             -0.26946475    -0.0026346262 
   8359000   0.050104233   -0.31056606     0             -0.27068622     0.008037042  
   8360000   0.050139953   -0.31109377     0             -0.2711855     -0.00035501412
   8361000   0.052031159   -0.30921692     0             -0.26780337    -0.00060241546
   8362000   0.046842494   -0.30887871     0             -0.27159501    -0.001033467  
   8363000   0.051875842   -0.30908318     0             -0.26779325     0.0061357415 
   8364000   0.05093228    -0.30933232     0             -0.26879341    -0.0019914798 
   8365000   0.049627923   -0.31053769     0             -0.27103697    -0.0069432966 
   8366000   0.050976481   -0.31004847     0             -0.26947437     0.0031236019 
   8367000   0.049927891   -0.31044112     0             -0.27070164    -0.00045039887
   8368000   0.051089397   -0.3094903      0             -0.26882634    -0.00070073404
   8369000   0.049480356   -0.31037352     0             -0.27099025     0.0039307657 
   8370000   0.050360615   -0.31043965     0             -0.27035574     0.00040793194
   8371000   0.051541319   -0.31078726     0             -0.26976359    -0.0056671143 
   8372000   0.049976374   -0.30418583     0             -0.26440776    -0.001400316  
   8373000   0.050474622   -0.31088814     0             -0.2707135      0.00015874982
   8374000   0.051842679   -0.30993877     0             -0.26867524     0.0047208669 
   8375000   0.052132736   -0.31044134     0             -0.26894694    -0.0016441175 
   8376000   0.048239749   -0.30847059     0             -0.27007476     0.0044418248 
   8377000   0.050969187   -0.30876181     0             -0.26819352    -0.0022824186 
   8378000   0.052877623   -0.30275523     0             -0.26066794    -0.0014469826 
   8379000   0.04975578    -0.30903292     0             -0.26943043     0.0050078777 
   8380000   0.049576861   -0.30960378     0             -0.27014369    -0.00053339381
   8381000   0.048668326   -0.31005381     0             -0.27131687     0.0028161255 
   8382000   0.051994253   -0.30982221     0             -0.26843804     0.001030748  
   8383000   0.049908815   -0.30397082     0             -0.26424653     0.0030366949 
   8384000   0.0519067     -0.30967339     0             -0.2683589      0.0059584003 
   8385000   0.04930904    -0.3099211      0             -0.27067419     0.003226544  
   8386000   0.051102767   -0.30829665     0             -0.26762204     0.0036819997 
   8387000   0.04820009    -0.31016942     0             -0.27180516     0.0046095648 
   8388000   0.04830645    -0.3101314      0             -0.27168248     0.00053275854
   8389000   0.049584729   -0.3093888      0             -0.26992246     0.0032781931 
   8390000   0.052786807   -0.31002861     0             -0.26801361     0.0031333014 
   8391000   0.052883029   -0.31029442     0             -0.26820283    -0.0066898058 
   8392000   0.051188491   -0.310684       0             -0.26994116    -0.0020122366 
   8393000   0.05057636    -0.30914638     0             -0.26889076     0.0032304393 
   8394000   0.049412862   -0.30955219     0             -0.27022264    -0.0031568996 
   8395000   0.049299459   -0.30305863     0             -0.26381934     0.0062892802 
   8396000   0.048521635   -0.31025185     0             -0.27163166    -0.010616845  
   8397000   0.050485497   -0.30990381     0             -0.26972051     0.0013532901 
   8398000   0.051518032   -0.31000864     0             -0.2690035     -0.00066846446
   8399000   0.050437239   -0.30212831     0             -0.26198342     0.0011659041 
   8400000   0.051817578   -0.3105203      0             -0.26927675    -0.0066931358 
   8401000   0.048661819   -0.3044202      0             -0.26568843    -0.0036012988 
   8402000   0.049404074   -0.30877405     0             -0.26945149    -0.0081076421 
   8403000   0.051269254   -0.30913221     0             -0.26832508    -0.0044334299 
   8404000   0.049565047   -0.30964235     0             -0.27019168    -0.0054432293 
   8405000   0.050336068   -0.30387425     0             -0.26380988     0.0076864045 
   8406000   0.0510581     -0.30874162     0             -0.26810257    -0.0028381607 
   8407000   0.051959437   -0.31007356     0             -0.2687171      0.002609605  
   8408000   0.048035133   -0.30938341     0             -0.27115045    -0.0026932996 
   8409000   0.049890714   -0.30880363     0             -0.26909374    -6.9655797e-05
   8410000   0.046918736   -0.30975125     0             -0.27240687    -0.0048221591 
   8411000   0.052822101   -0.30851182     0             -0.26646873     0.0031026917 
   8412000   0.051210345   -0.30825801     0             -0.26749778     4.0030499e-05
   8413000   0.047631803   -0.30945266     0             -0.27154072    -0.0045283439 
   8414000   0.049718461   -0.3095327      0             -0.26995992    -0.0036978287 
   8415000   0.04894305    -0.30961981     0             -0.27066421     0.00022975145
   8416000   0.051890061   -0.30925113     0             -0.26794988     0.0040912293 
   8417000   0.050473989   -0.3089405      0             -0.26876636    -0.0036033026 
   8418000   0.050914968   -0.30931967     0             -0.26879454     0.0014882192 
   8419000   0.051670961   -0.31062296     0             -0.26949611     0.00060632971
   8420000   0.051564686   -0.30973766     0             -0.26869539    -0.001218131  
   8421000   0.047215429   -0.31056857     0             -0.27298804    -0.0066131696 
   8422000   0.051983356   -0.30981696     0             -0.26844145    -0.0013092286 
   8423000   0.049782451   -0.3098374      0             -0.27021368     0.0013650011 
   8424000   0.049764265   -0.30882804     0             -0.2692188     -0.0076301484 
   8425000   0.050567128   -0.30840487     0             -0.2681566     -0.0015661765 
   8426000   0.051364802   -0.30883345     0             -0.26795028    -0.0010728366 
   8427000   0.049030922   -0.30963413     0             -0.27060858    -9.4572929e-05
   8428000   0.049440086   -0.30975685     0             -0.27040563    -0.0020159495 
   8429000   0.04764243    -0.31018542     0             -0.27226503    -0.0035648976 
   8430000   0.049092233   -0.30935237     0             -0.27027802    -0.006738829  
   8431000   0.049989622   -0.31024008     0             -0.27045146     0.0064618698 
   8432000   0.051480285   -0.31004363     0             -0.26906854    -0.0057335569 
   8433000   0.049562965   -0.31003353     0             -0.2705845     -0.0002845355 
   8434000   0.050804036   -0.31021266     0             -0.26977582     0.0059722642 
   8435000   0.051113575   -0.29787917     0             -0.25719596     0.0084210002 
   8436000   0.050800823   -0.3030723      0             -0.26263802     0.0016277428 
   8437000   0.051531566   -0.30335888     0             -0.26234297     0.004374286  
   8438000   0.049409785   -0.30719817     0             -0.26787107    -4.7932532e-05
   8439000   0.049810564   -0.31023975     0             -0.27059365     0.00045726098
   8440000   0.049802467   -0.31067533     0             -0.27103568     0.0039126565 
   8441000   0.049836895   -0.31021982     0             -0.27055276     0.0020228583 
   8442000   0.050603874   -0.31010332     0             -0.2698258      0.0046458377 
   8443000   0.050329363   -0.31032785     0             -0.27026882    -0.0040371663 
   8444000   0.050036697   -0.31066725     0             -0.27084116    -0.0040521159 
   8445000   0.0493349     -0.30917674     0             -0.26990924    -0.00040075626
   8446000   0.053142812   -0.31033343     0             -0.26803507     0.0043360655 
   8447000   0.048592422   -0.30868896     0             -0.27001243    -0.0049983893 
   8448000   0.050787337   -0.31060542     0             -0.27018187    -0.0062732359 
   8449000   0.051863165   -0.30544949     0             -0.26416965    -0.0092696722 
   8450000   0.048903817   -0.31053643     0             -0.27161205     0.006315244  
   8451000   0.051271466   -0.3087924      0             -0.26798352    -0.0023102584 
   8452000   0.051897271   -0.31018659     0             -0.26887961     0.009781738  
   8453000   0.051077862   -0.30412375     0             -0.26346897     0.004653419  
   8454000   0.051169772   -0.31023821     0             -0.26951027     0.0017416807 
   8455000   0.051582959   -0.31001755     0             -0.26896074     0.0011874939 
   8456000   0.049174876   -0.31019492     0             -0.27105479     0.0057864106 
   8457000   0.050297792   -0.30894158     0             -0.26890768    -0.0060997262 
   8458000   0.050287108   -0.30976434     0             -0.26973894    -0.0086053059 
   8459000   0.050454126   -0.31096456     0             -0.27080622     0.0053523845 
   8460000   0.047796438   -0.30958164     0             -0.27153866     0.0070639738 
   8461000   0.050477567   -0.30978863     0             -0.26961164    -0.0044888132 
   8462000   0.049306741   -0.31009118     0             -0.2708461     -0.0042504175 
   8463000   0.047488852   -0.3101548      0             -0.27235665     0.0011005357 
   8464000   0.046861915   -0.30955788     0             -0.27225873    -0.0042762326 
   8465000   0.051548168   -0.306364       0             -0.26533488    -0.0031022529 
   8466000   0.048024235   -0.30958762     0             -0.27136333    -0.0063434623 
   8467000   0.051312115   -0.31027491     0             -0.26943367     0.0088777776 
   8468000   0.050175429   -0.3107592      0             -0.2708227     -0.0047982331 
   8469000   0.051313556   -0.30976957     0             -0.26892718     0.001516255  
   8470000   0.049739131   -0.30214526     0             -0.26255602    -0.0027121345 
   8471000   0.053272525   -0.30736249     0             -0.26496089     0.0064608365 
   8472000   0.050584786   -0.30682668     0             -0.26656435     0.0023290239 
   8473000   0.049779323   -0.30726771     0             -0.26764648     0.00051395306
   8474000   0.052177459   -0.31076336     0             -0.26923337    -0.0099716443 
   8475000   0.050601369   -0.31119956     0             -0.27092404     0.0058103273 
   8476000   0.048434545   -0.31005844     0             -0.27150757     0.006848076  
   8477000   0.051913344   -0.30929722     0             -0.26797744     0.0017090749 
   8478000   0.051763003   -0.30926155     0             -0.26806143    -0.00035699317
   8479000   0.049369397   -0.31104864     0             -0.27175368     0.0061552198 
   8480000   0.046770566   -0.31050634     0             -0.2732799      0.00066247994
   8481000   0.04780425    -0.30957913     0             -0.27152994    -0.00046292711
   8482000   0.049770396   -0.31047058     0             -0.27085646    -0.0033589736 
   8483000   0.050007338   -0.30801746     0             -0.26821474     0.0046264038 
   8484000   0.05118597    -0.30941799     0             -0.26867716     0.0007127251 
   8485000   0.05044781    -0.3100364      0             -0.26988309    -0.0039854702 
   8486000   0.047437053   -0.30765069     0             -0.26989376     0.0075502379 
   8487000   0.050760388   -0.31006889     0             -0.2696668      0.0080199236 
   8488000   0.052111982   -0.31029777     0             -0.26881989     0.004616328  
   8489000   0.049714781   -0.30986537     0             -0.27029551     0.0010658687 
   8490000   0.050253952   -0.31064769     0             -0.27064868     0.0010758757 
   8491000   0.048999284   -0.30958472     0             -0.27058435    -0.00029436871
   8492000   0.051434819   -0.30962256     0             -0.26868366    -0.009444092  
   8493000   0.047657806   -0.30813816     0             -0.27020552     0.0019656179 
   8494000   0.050098055   -0.30620753     0             -0.26633261     0.0003885713 
   8495000   0.049184981   -0.30552085     0             -0.26637268     0.0012719465 
   8496000   0.051590175   -0.30759392     0             -0.26653137     8.0797551e-05
   8497000   0.049901238   -0.31059587     0             -0.2708776      0.0060625505 
   8498000   0.049425662   -0.30980704     0             -0.2704673     -0.0037518674 
   8499000   0.049403845   -0.30892279     0             -0.26960041     0.00027729148
   8500000   0.051376538   -0.30959781     0             -0.26870529     0.0006713225 
   8501000   0.049164152   -0.30884831     0             -0.26971672    -0.006739684  
   8502000   0.050143891   -0.30588075     0             -0.26596935    -0.0014808961 
   8503000   0.049522337   -0.30939076     0             -0.26997407    -0.0065407696 
   8504000   0.051373035   -0.30915174     0             -0.26826201    -0.00064022741
   8505000   0.048393737   -0.31016185     0             -0.27164346     0.0045663076 
   8506000   0.050939437   -0.30495715     0             -0.26441255     0.0035973962 
   8507000   0.050940724   -0.30904318     0             -0.26849754    -8.5695348e-05
   8508000   0.050375854   -0.30897686     0             -0.26888083    -0.0029122582 
   8509000   0.05231985    -0.30804121     0             -0.26639788     0.0011910902 
   8510000   0.049298086   -0.30874767     0             -0.26950947     0.0035427019 
   8511000   0.050267802   -0.30812522     0             -0.26811519     0.0049888236 
   8512000   0.050123516   -0.30847118     0             -0.268576       0.0043213908 
   8513000   0.048763581   -0.30723841     0             -0.26842564    -0.00043622023
   8514000   0.049047774   -0.3092875      0             -0.27024854     0.0027235118 
   8515000   0.050640317   -0.29519281     0             -0.25488628     0.0037626913 
   8516000   0.049208633   -0.30926718     0             -0.27010019     0.0042538024 
   8517000   0.049066377   -0.30954085     0             -0.27048708     0.0035265139 
   8518000   0.048891342   -0.30817392     0             -0.26925947    -0.0051864849 
   8519000   0.048799088   -0.30783294     0             -0.26899192     0.0015457228 
   8520000   0.05234004    -0.30675909     0             -0.26509969    -0.010518271  
   8521000   0.048133896   -0.30780557     0             -0.269494      -4.907356e-05 
   8522000   0.048805865   -0.30030488     0             -0.26145847    -0.00080372765
   8523000   0.050937434   -0.30698254     0             -0.26643953    -0.00056563299
   8524000   0.050270491   -0.30603086     0             -0.26601869     0.0010597828 
   8525000   0.053529282   -0.3073658      0             -0.26475984    -0.00050376816
   8526000   0.050443107   -0.30823891     0             -0.26808935     0.00028393367
   8527000   0.051825695   -0.30429022     0             -0.26304021     0.0016973252 
   8528000   0.049201217   -0.30673455     0             -0.26757346     0.0043968672 
   8529000   0.048798723   -0.30737278     0             -0.26853204    -0.00027241987
   8530000   0.049889991   -0.30812519     0             -0.26841588    -0.0055537996 
   8531000   0.050689942   -0.30734926     0             -0.26700324    -0.00066562483
   8532000   0.049825253   -0.30790515     0             -0.26824736    -0.0093523322 
   8533000   0.048632487   -0.30725209     0             -0.26854367     0.0018069863 
   8534000   0.051437371   -0.30678841     0             -0.26584748     0.0049436984 
   8535000   0.049471118   -0.30540958     0             -0.26603366    -0.0040328123 
   8536000   0.051334729   -0.30669415     0             -0.26583492     0.0047076526 
   8537000   0.052518836   -0.30671609     0             -0.26491438     0.0034824488 
   8538000   0.051613308   -0.30588915     0             -0.26480818     0.0020789247 
   8539000   0.049499989   -0.30024829     0             -0.26084939    -0.00030583978
   8540000   0.049206553   -0.29949684     0             -0.2603315     -0.0053879834 
   8541000   0.050685918   -0.30572686     0             -0.26538403    -0.0060448718 
   8542000   0.051980807   -0.3057906      0             -0.26441713     0.00070067028
   8543000   0.049724483   -0.30632068     0             -0.26674309    -0.0089049206 
   8544000   0.04963501    -0.30576873     0             -0.26626236     0.0038675901 
   8545000   0.048760944   -0.30719804     0             -0.26838738    -0.0053157208 
   8546000   0.049057469   -0.30169659     0             -0.26264991     0.0095542428 
   8547000   0.050562892   -0.30130003     0             -0.26105513     0.0098550991 
   8548000   0.051677963   -0.3018602      0             -0.26072777     0.0078573442 
   8549000   0.051670116   -0.30793158     0             -0.26680539     0.0035357064 
   8550000   0.050845488   -0.30700279     0             -0.26653296    -0.0044259032 
   8551000   0.050494592   -0.30793018     0             -0.26773964    -6.2917588e-05
   8552000   0.048543738   -0.30145439     0             -0.26281661     0.0035239369 
   8553000   0.049028019   -0.30724546     0             -0.26822222    -0.0015368638 
   8554000   0.048186748   -0.30719992     0             -0.26884628    -0.0086454549 
   8555000   0.050576099   -0.29835687     0             -0.25810145    -0.0045773943 
   8556000   0.048434175   -0.30692201     0             -0.26837143    -0.0033599273 
   8557000   0.050155357   -0.30540673     0             -0.2654862      0.0046303683 
   8558000   0.049331827   -0.30685285     0             -0.2675878      0.00406363   
   8559000   0.051030056   -0.30611982     0             -0.26550309    -0.0069196248 
   8560000   0.04950686    -0.30768661     0             -0.26828224    -0.0056394197 
   8561000   0.048879463   -0.29900979     0             -0.26010479     0.0042586232 
   8562000   0.053792732   -0.29467931     0             -0.25186366    -0.0085883576 
   8563000   0.052290365   -0.30791227     0             -0.26629241    -0.00068054776
   8564000   0.049498488   -0.30628141     0             -0.2668837      0.00069937119
   8565000   0.051341878   -0.30624291     0             -0.26537799     0.0040225551 
   8566000   0.051300381   -0.3065539      0             -0.265722       0.0012901537 
   8567000   0.050423419   -0.30538165     0             -0.26524776     0.00318      
   8568000   0.050874191   -0.30713198     0             -0.26663931    -0.0075471205 
   8569000   0.050781995   -0.30728566     0             -0.26686637    -0.0036208434 
   8570000   0.051865409   -0.30773679     0             -0.26645516    -0.007934848  
   8571000   0.052526334   -0.29877692     0             -0.25696924    -0.0040585868 
   8572000   0.050703275   -0.3082845      0             -0.26792786    -0.00018515203
   8573000   0.049949465   -0.3073711      0             -0.26761444     0.0059847482 
   8574000   0.052131692   -0.30770555     0             -0.26621199     0.003660384  
   8575000   0.052188206   -0.3072457      0             -0.26570715    -0.0055258952 
   8576000   0.050294014   -0.30711287     0             -0.26708197    -0.0026518217 
   8577000   0.052036646   -0.30782294     0             -0.26640503     0.0074432744 
   8578000   0.050226778   -0.30753016     0             -0.26755279    -0.0013073405 
   8579000   0.051813105   -0.30716122     0             -0.26592123     0.0086278158 
   8580000   0.047789498   -0.30628553     0             -0.26824808    -0.00078141295
   8581000   0.050513224   -0.30675445     0             -0.26654908     0.0095729374 
   8582000   0.04909362    -0.30031994     0             -0.26124449    -0.0032901648 
   8583000   0.052156852   -0.29643037     0             -0.25491678    -0.0058470536 
   8584000   0.050363245   -0.30687845     0             -0.26679246     0.00087589106
   8585000   0.049218383   -0.30630867     0             -0.26713391     0.0027986403 
   8586000   0.047480139   -0.30668908     0             -0.26889785     0.0061254892 
   8587000   0.050724234   -0.30791582     0             -0.2675425     -0.00053522101
   8588000   0.047724255   -0.30811367     0             -0.27012815     0.0029289873 
   8589000   0.049928658   -0.30876663     0             -0.26902654    -0.0055173834 
   8590000   0.050467702   -0.30711478     0             -0.26694565    -0.0049782329 
   8591000   0.051879474   -0.30825631     0             -0.26696349     0.0057257607 
   8592000   0.056581252   -0.30856397     0             -0.26352882    -0.00044551411
   8593000   0.049502136   -0.30359334     0             -0.26419273    -0.0070086595 
   8594000   0.047549721   -0.30732257     0             -0.26947597    -0.00027303808
   8595000   0.050360572   -0.3074874      0             -0.26740353     0.0048657828 
   8596000   0.049243776   -0.30811981     0             -0.26892484    -0.0011988313 
   8597000   0.047582028   -0.30387998     0             -0.26600766    -0.0072126144 
   8598000   0.052464748   -0.30782845     0             -0.26606979    -0.00078294175
   8599000   0.04936561    -0.30254835     0             -0.26325641     0.00025705504
   8600000   0.049634038   -0.30856811     0             -0.26906251     0.005430597  
   8601000   0.053189967   -0.30772952     0             -0.26539363     0.0084651987 
   8602000   0.049177111   -0.30805082     0             -0.26890891    -0.0024872186 
   8603000   0.049081371   -0.30943691     0             -0.27037121     0.0027038923 
   8604000   0.047124829   -0.3088912      0             -0.27138278    -0.0045502341 
   8605000   0.049746523   -0.30853048     0             -0.26893536     0.0065871402 
   8606000   0.050011179   -0.30752818     0             -0.26772241     0.0033822763 
   8607000   0.05076455    -0.3083491      0             -0.26794369     0.0022735752 
   8608000   0.047777421   -0.30740577     0             -0.26937793     0.0096719407 
   8609000   0.047737479   -0.30110696     0             -0.26311091     0.0039711565 
   8610000   0.049720668   -0.30847786     0             -0.26890332     0.00092766704
   8611000   0.048549093   -0.30950794     0             -0.2708659     -0.00051360338
   8612000   0.048850368   -0.30898593     0             -0.27010409     0.0021594236 
   8613000   0.049879612   -0.30857818     0             -0.26887713     0.0041888347 
   8614000   0.051566355   -0.30201707     0             -0.26097348     0.0010831746 
   8615000   0.050566572   -0.30633711     0             -0.26608928     0.00092671826
   8616000   0.050146234   -0.3077473      0             -0.26783403    -6.6939277e-05
   8617000   0.049480147   -0.30865705     0             -0.26927395     0.0028574647 
   8618000   0.048401744   -0.30704321     0             -0.26851845     0.0055033176 
   8619000   0.049306512   -0.30837986     0             -0.26913496    -0.0026674549 
   8620000   0.05005645    -0.30878303     0             -0.26894122    -0.0021280382 
   8621000   0.05020771    -0.30860378     0             -0.26864158     0.0024934621 
   8622000   0.051760923   -0.30792466     0             -0.2667262      0.0076428135 
   8623000   0.048894514   -0.30909469     0             -0.27017771     0.0020548739 
   8624000   0.051603426   -0.30808668     0             -0.26701358    -0.0045922488 
   8625000   0.050162206   -0.30791249     0             -0.26798651    -0.0016626381 
   8626000   0.050281118   -0.30765111     0             -0.26763048    -0.00086474653
   8627000   0.049821269   -0.30446223     0             -0.26480761    -0.0021943325 
   8628000   0.048325579   -0.30807497     0             -0.26961083     0.0033778724 
   8629000   0.051741697   -0.30819707     0             -0.26701392    -0.00040150249
   8630000   0.048818189   -0.30801716     0             -0.26916094    -7.1711149e-05
   8631000   0.048972441   -0.30900917     0             -0.27003017     0.0040199908 
   8632000   0.050861336   -0.30908566     0             -0.26860322    -0.0006372503 
   8633000   0.051490603   -0.3084761      0             -0.2674928      0.0084341805 
   8634000   0.050749909   -0.30958136     0             -0.2691876      0.0041617341 
   8635000   0.051662739   -0.30939662     0             -0.26827631    -0.0027043665 
   8636000   0.050757786   -0.30787837     0             -0.26747835     0.0013428437 
   8637000   0.049229434   -0.29533417     0             -0.25615061    -0.00063568562
   8638000   0.050047115   -0.30868459     0             -0.26885022    -0.0023452381 
   8639000   0.052136668   -0.30923566     0             -0.26773813    -0.0014705853 
   8640000   0.047997619   -0.30723141     0             -0.26902831     0.01060072   
   8641000   0.047670845   -0.30702954     0             -0.26908652    -0.002048541  
   8642000   0.052647496   -0.30761758     0             -0.26571347     0.0022589128 
   8643000   0.049382651   -0.3008331      0             -0.2615276      0.00019479423
   8644000   0.05118152    -0.30439843     0             -0.26366114    -0.007233754  
   8645000   0.050205803   -0.30447212     0             -0.26451144     0.0061695981 
   8646000   0.050931546   -0.30531411     0             -0.26477578    -0.006048835  
   8647000   0.052113438   -0.30820507     0             -0.26672603    -0.0029780723 
   8648000   0.050400297   -0.30068789     0             -0.2605724     -0.0012325342 
   8649000   0.048438611   -0.30750092     0             -0.26894682     0.0015566644 
   8650000   0.048563912   -0.30794464     0             -0.2692908      0.00055459061
   8651000   0.048839638   -0.30774001     0             -0.26886671    -0.0016128011 
   8652000   0.053082376   -0.30689204     0             -0.26464178    -0.003485939  
   8653000   0.050432305   -0.30758789     0             -0.26744693     0.0033141424 
   8654000   0.049277373   -0.30704502     0             -0.26782331     0.0011087679 
   8655000   0.048457985   -0.30718447     0             -0.26861495    -0.0024914209 
   8656000   0.049254772   -0.28745527     0             -0.24825155    -0.0015753469 
   8657000   0.049152179   -0.30704956     0             -0.2679275      0.0049184935 
   8658000   0.049844799   -0.3071461      0             -0.26747276    -0.00062186103
   8659000   0.051734012   -0.30660293     0             -0.26542589     0.0091519196 
   8660000   0.049593151   -0.30743471     0             -0.26796166    -0.002907852  
   8661000   0.049325182   -0.30661259     0             -0.26735283     0.0035893537 
   8662000   0.053298773   -0.30819869     0             -0.2657762      0.0015935091 
   8663000   0.049724535   -0.30681633     0             -0.26723871     0.0019072185 
   8664000   0.050762195   -0.30724764     0             -0.26684411    -0.0010460328 
   8665000   0.051945634   -0.30661393     0             -0.26526845    -0.0064966251 
   8666000   0.050666732   -0.30704523     0             -0.26671767    -0.0045167571 
   8667000   0.049280821   -0.30651943     0             -0.26729498    -0.0031534621 
   8668000   0.04924783    -0.30537375     0             -0.26617556     0.0038492964 
   8669000   0.049188904   -0.30710715     0             -0.26795586     0.0068253943 
   8670000   0.049503845   -0.30719547     0             -0.26779351     0.0019644761 
   8671000   0.051650803   -0.30770789     0             -0.26659708     0.002885147  
   8672000   0.05452003    -0.30859959     0             -0.26520505    -0.0043994855 
   8673000   0.050952168   -0.3025803      0             -0.26202556    -0.0011764373 
   8674000   0.047791217   -0.30568927     0             -0.26765045    -0.0015825989 
   8675000   0.050641899   -0.30574952     0             -0.26544174     0.0013771977 
   8676000   0.047806264   -0.30539429     0             -0.26734349     0.0034410564 
   8677000   0.049049823   -0.30626216     0             -0.26722157     0.0058806514 
   8678000   0.049631687   -0.305899       0             -0.26639527    -0.0086776296 
   8679000   0.049343943   -0.30597894     0             -0.26670424    -0.0050242089 
   8680000   0.051097509   -0.30619147     0             -0.26552105    -0.010131785  
   8681000   0.051811521   -0.30482279     0             -0.26358405    -0.002079104  
   8682000   0.050269187   -0.30617566     0             -0.26616453    -0.00053320705
   8683000   0.051522766   -0.30548382     0             -0.26447492    -0.0017939513 
   8684000   0.050228253   -0.30549226     0             -0.26551371    -0.0037095537 
   8685000   0.047633686   -0.3049408      0             -0.26702736     0.0029988315 
   8686000   0.0498175     -0.30601657     0             -0.26636495    -0.0022122401 
   8687000   0.048599523   -0.30615362     0             -0.26747144     0.0079919119 
   8688000   0.052301458   -0.29855929     0             -0.25693059     0.003795558  
   8689000   0.049188951   -0.30607346     0             -0.26692213     0.0087606579 
   8690000   0.052230688   -0.30706688     0             -0.26549452    -0.0061711354 
   8691000   0.049102462   -0.29951867     0             -0.26043618    -0.0034929371 
   8692000   0.05231403    -0.30584974     0             -0.26421104    -0.00014662383
   8693000   0.050174249   -0.30601478     0             -0.26607921    -0.0011511576 
   8694000   0.047700218   -0.30503127     0             -0.26706487     2.5869885e-05
   8695000   0.047439612   -0.30694767     0             -0.2691887      0.0047935411 
   8696000   0.050195263   -0.30725037     0             -0.26729808     0.00018423966
   8697000   0.045959326   -0.30636927     0             -0.26978852     0.00037311133
   8698000   0.052052706   -0.30587325     0             -0.26444255     0.0016086306 
   8699000   0.050447576   -0.3068002      0             -0.26664708    -0.0056394102 
   8700000   0.049420251   -0.29992047     0             -0.26058504     0.002777128  
   8701000   0.047842199   -0.30631737     0             -0.26823797     0.0064751105 
   8702000   0.049861367   -0.30728285     0             -0.26759632    -0.00084783445
   8703000   0.048977199   -0.30652941     0             -0.26754662     6.6574272e-05
   8704000   0.051600038   -0.30148991     0             -0.2604195      0.0047037781 
   8705000   0.051261098   -0.30506054     0             -0.26425991     0.0008266892 
   8706000   0.04898254    -0.30622262     0             -0.26723558     0.0016117743 
   8707000   0.049632855   -0.30584111     0             -0.26633646     0.0058565608 
   8708000   0.050246638   -0.30720051     0             -0.26720733     0.00082556177
   8709000   0.04992469    -0.30460932     0             -0.26487238    -0.0029652884 
   8710000   0.050698084   -0.30749167     0             -0.26713916    -0.0026767711 
   8711000   0.050838671   -0.30213747     0             -0.26167307     0.00042752672
   8712000   0.046534762   -0.30670519     0             -0.26966643    -0.0018988035 
   8713000   0.054583879   -0.30635016     0             -0.26290481     0.0011701272 
   8714000   0.050969637   -0.29631        0             -0.25574136    -0.0043047521 
   8715000   0.049553052   -0.30653406     0             -0.26709293     0.00061102697
   8716000   0.050964945   -0.30665115     0             -0.26608624    -0.0028597213 
   8717000   0.049648792   -0.30555072     0             -0.26603338     0.0014126652 
   8718000   0.052371556   -0.30516304     0             -0.26347856     0.0024337707 
   8719000   0.050009295   -0.30681574     0             -0.26701146     0.0064311872 
   8720000   0.047857575   -0.30743856     0             -0.26934692     0.0026470857 
   8721000   0.050792597   -0.30720689     0             -0.26677916    -0.0069401576 
   8722000   0.049583605   -0.30735322     0             -0.26788777     0.003454616  
   8723000   0.050608946   -0.30887838     0             -0.26859682     0.0050700569 
   8724000   0.049505522   -0.30642788     0             -0.26702458    -0.0041172836 
   8725000   0.051600962   -0.30555176     0             -0.26448062    -0.003600828  
   8726000   0.049837706   -0.30679536     0             -0.26712766     0.0031805977 
   8727000   0.049573681   -0.30678611     0             -0.26732856    -0.00040601376
   8728000   0.050201373   -0.30612733     0             -0.26617018     0.0047286911 
   8729000   0.052788311   -0.30691094     0             -0.26489475     6.7186264e-05
   8730000   0.04980214    -0.30731184     0             -0.26767245    -0.00035220958
   8731000   0.05164161    -0.30670483     0             -0.26560133    -0.0041756544 
   8732000   0.051010064   -0.30629444     0             -0.26569362     0.00092994515
   8733000   0.048011422   -0.30677043     0             -0.26855634    -0.0024837792 
   8734000   0.050555324   -0.30776463     0             -0.26752575    -0.0033749916 
   8735000   0.050406516   -0.30678619     0             -0.26666575     0.0022375187 
   8736000   0.049873914   -0.30622249     0             -0.26652597     0.011151239  
   8737000   0.049179727   -0.30612912     0             -0.26698513    -0.0039759328 
   8738000   0.052210531   -0.30680578     0             -0.26524946     0.0055044372 
   8739000   0.04956478    -0.30521461     0             -0.26576415    -0.00082217506
   8740000   0.050613626   -0.30669184     0             -0.26640656    -0.0019040645 
   8741000   0.049224509   -0.30462348     0             -0.26544384     0.0057523321 
   8742000   0.051498495   -0.3058729      0             -0.26488331     0.002135723  
   8743000   0.051976768   -0.30639871     0             -0.26502845    -0.0087464435 
   8744000   0.052028748   -0.30616533     0             -0.2647537      0.0010147029 
   8745000   0.055635163   -0.30562179     0             -0.26133967    -0.0031982272 
   8746000   0.048144842   -0.30582703     0             -0.26750675    -0.0037596154 
   8747000   0.050914291   -0.3055942      0             -0.26506961     0.0098092092 
   8748000   0.051584052   -0.30436119     0             -0.26330351     0.0018106477 
   8749000   0.051231606   -0.30547212     0             -0.26469496     0.00057595389
   8750000   0.049961909   -0.30514494     0             -0.26537838     0.0021703673 
   8751000   0.051877417   -0.30588852     0             -0.26459733     0.0065363484 
   8752000   0.050287174   -0.30598264     0             -0.2659572     -0.0021506542 
   8753000   0.051172062   -0.29913531     0             -0.25840554    -0.0034208685 
   8754000   0.052401732   -0.30598191     0             -0.2642734      0.001272348  
   8755000   0.04768771    -0.30559241     0             -0.26763597     0.00030685948
   8756000   0.048721211   -0.30517684     0             -0.2663978      0.00099837398
   8757000   0.049395451   -0.3010651      0             -0.26174941    -0.0018071495 
   8758000   0.054775785   -0.3054307      0             -0.2618326     -0.0071854837 
   8759000   0.050733738   -0.3065632      0             -0.26618232    -0.0007062495 
   8760000   0.048110224   -0.3053805      0             -0.26708777     0.0070714002 
   8761000   0.049944735   -0.3042742      0             -0.26452131    -0.0022428094 
   8762000   0.050756771   -0.30660307     0             -0.26620385     0.0036868903 
   8763000   0.05040745    -0.30639404     0             -0.26627286     0.0042870962 
   8764000   0.05370938    -0.30597474     0             -0.26322543    -0.0029810521 
   8765000   0.048893279   -0.30694652     0             -0.26803053     0.011107694  
   8766000   0.050984874   -0.29525902     0             -0.25467824     3.3580496e-06
   8767000   0.052666311   -0.30691033     0             -0.26499123     0.005518344  
   8768000   0.05176432    -0.30719438     0             -0.26599321     0.0026541397 
   8769000   0.050789439   -0.30842441     0             -0.26799919     0.0038254832 
   8770000   0.052228724   -0.30812566     0             -0.26655486     0.0017385815 
   8771000   0.052202523   -0.30802653     0             -0.26647658    -8.0486604e-05
   8772000   0.049895409   -0.30761716     0             -0.26790354     0.0016015525 
   8773000   0.049090224   -0.30795837     0             -0.26888562    -0.0068502652 
   8774000   0.050108033   -0.30657873     0             -0.26669587    -0.0084399932 
   8775000   0.050456403   -0.30295312     0             -0.26279298     0.0017070275 
   8776000   0.050319062   -0.30775229     0             -0.26770146     0.0050014944 
   8777000   0.048588503   -0.3069263      0             -0.26825289    -0.0029065129 
   8778000   0.050830836   -0.30803693     0             -0.26757876    -0.00089751485
   8779000   0.051000241   -0.30658568     0             -0.26599267    -0.0078021819 
   8780000   0.050400473   -0.30688732     0             -0.26677169    -0.00011846576
   8781000   0.052193657   -0.30635169     0             -0.2648088     -0.0018537996 
   8782000   0.04692808    -0.30742083     0             -0.27006901     0.0040534913 
   8783000   0.049561044   -0.30777502     0             -0.26832752     0.00080003497
   8784000   0.050992926   -0.30753313     0             -0.26694595     0.0019257576 
   8785000   0.048812133   -0.30726148     0             -0.26841008    -0.0033818472 
   8786000   0.05171169    -0.3078885      0             -0.26672923    -0.0030648554 
   8787000   0.051170729   -0.30781636     0             -0.26708765     0.0014331762 
   8788000   0.051024689   -0.30638361     0             -0.26577115     0.00090282097
   8789000   0.051206743   -0.3021081      0             -0.26135074     0.00011456204
   8790000   0.052353723   -0.30821346     0             -0.26654317     0.00081034288
   8791000   0.051475923   -0.30861326     0             -0.26764164    -0.0053694439 
   8792000   0.053794187   -0.30901517     0             -0.26619836     0.0052470273 
   8793000   0.048593952   -0.30107521     0             -0.26239746     0.0063907675 
   8794000   0.051801607   -0.30373168     0             -0.26250084    -0.00020742322
   8795000   0.049453249   -0.3085086      0             -0.26914691    -0.0041539947 
   8796000   0.049097805   -0.30732223     0             -0.26824344     0.010586751  
   8797000   0.050751691   -0.30794063     0             -0.26754545    -0.0085411651 
   8798000   0.050929062   -0.30929352     0             -0.26875717     0.0018594164 
   8799000   0.051131424   -0.30864389     0             -0.26794648     0.0036641255 
   8800000   0.05230457    -0.30810853     0             -0.26647736    -0.0028738738 
   8801000   0.050470669   -0.30802318     0             -0.26785169    -0.0012396803 
   8802000   0.050087853   -0.30806522     0             -0.26819842    -0.005436898  
   8803000   0.047910455   -0.30886907     0             -0.27073535    -0.0040823906 
   8804000   0.048259524   -0.30841009     0             -0.26999853    -0.00085610917
   8805000   0.050689058   -0.30969642     0             -0.26935109    -0.0011286213 
   8806000   0.05168512    -0.30306445     0             -0.26192632     0.0055494535 
   8807000   0.048571681   -0.30835781     0             -0.26969779    -0.0019888036 
   8808000   0.049444875   -0.30825705     0             -0.26890202     0.0030583571 
   8809000   0.04875376    -0.30859758     0             -0.26979263    -2.3580083e-05
   8810000   0.04926612    -0.30871497     0             -0.26950222    -0.0011522946 
   8811000   0.050524011   -0.30850966     0             -0.2682957      0.0023325263 
   8812000   0.051254527   -0.30669828     0             -0.26590288     0.0098222903 
   8813000   0.052985047   -0.30870627     0             -0.26653348    -0.001289788  
   8814000   0.052967814   -0.30937392     0             -0.26721485     0.0042155665 
   8815000   0.050586651   -0.30847875     0             -0.26821493    -0.0037722967 
   8816000   0.050311346   -0.30828869     0             -0.26824401     0.00090529089
   8817000   0.050834747   -0.3072273      0             -0.26676602     0.0036390961 
   8818000   0.05246863    -0.30825964     0             -0.26649789    -0.0070864939 
   8819000   0.0513071     -0.30913597     0             -0.26829873     0.0057702192 
   8820000   0.051513538   -0.30905507     0             -0.26805351     0.00030101535
   8821000   0.051503509   -0.30921754     0             -0.26822396     4.0199077e-05
   8822000   0.050307865   -0.3084813      0             -0.26843939     0.0065037549 
   8823000   0.051097265   -0.30382965     0             -0.26315942     0.0016466605 
   8824000   0.052122156   -0.30795741     0             -0.26647143     0.00026905451
   8825000   0.05111791    -0.30915031     0             -0.26846365    -0.007978125  
   8826000   0.050309412   -0.30047518     0             -0.26043203     0.00084770191
   8827000   0.049832895   -0.30956054     0             -0.26989667     0.0018895742 
   8828000   0.050093668   -0.30884344     0             -0.26897201     0.0014296258 
   8829000   0.048851266   -0.30920776     0             -0.27032521     0.0085305238 
   8830000   0.052102619   -0.30960059     0             -0.26813016    -0.00029930214
   8831000   0.05100865    -0.30950026     0             -0.26890056     0.0016599123 
   8832000   0.050523148   -0.30854488     0             -0.26833161     0.0027870813 
   8833000   0.04958549    -0.3072279      0             -0.26776094    -0.0025514475 
   8834000   0.0483153     -0.30883172     0             -0.27037576    -0.0011604902 
   8835000   0.051418351   -0.30047248     0             -0.25954668     0.0077561081 
   8836000   0.051230486   -0.29641533     0             -0.25563906     0.0070590509 
   8837000   0.053317867   -0.30873893     0             -0.26630124    -0.0019825042 
   8838000   0.050980344   -0.30853065     0             -0.26795348     0.004451322  
   8839000   0.047990496   -0.30843417     0             -0.27023673     0.0070334929 
   8840000   0.049552838   -0.30901607     0             -0.26957511    -0.0049722574 
   8841000   0.0481923     -0.30415804     0             -0.26579998    -0.00054909956
   8842000   0.050027902   -0.3071113      0             -0.26729222    -0.0010371197 
   8843000   0.050116408   -0.30936256     0             -0.26947303     0.0047294955 
   8844000   0.049846146   -0.3094197      0             -0.26974528     0.0021099673 
   8845000   0.048957636   -0.29623213     0             -0.25726491    -0.0015806254 
   8846000   0.050451051   -0.30862828     0             -0.26847239     0.0031019587 
   8847000   0.05352297    -0.30830278     0             -0.26570184     0.0015490823 
   8848000   0.049157212   -0.30966647     0             -0.2705404     -0.0016073941 
   8849000   0.050424415   -0.30855136     0             -0.26841668    -0.0005111457 
   8850000   0.052815595   -0.30889201     0             -0.26685409    -0.0081022065 
   8851000   0.049741709   -0.30267365     0             -0.26308236     0.0052436628 
   8852000   0.047744269   -0.30750122     0             -0.26949977    -0.00066284686
   8853000   0.050571549   -0.30858273     0             -0.26833094     6.3090061e-05
   8854000   0.050965958   -0.30827127     0             -0.26770555     0.0074984087 
   8855000   0.04921808    -0.30965828     0             -0.27048377     0.0010628125 
   8856000   0.049507526   -0.31062679     0             -0.2712219     -0.0086372002 
   8857000   0.051931503   -0.30559934     0             -0.26426511    -0.0021128461 
   8858000   0.05096209    -0.30990296     0             -0.26934032     0.0076090713 
   8859000   0.051091214   -0.31051348     0             -0.26984807    -0.0024652934 
   8860000   0.051106513   -0.31144868     0             -0.27077109    -0.0033026488 
   8861000   0.049838021   -0.31023435     0             -0.2705664      0.0075881608 
   8862000   0.048648756   -0.30895733     0             -0.27023596    -0.0044600562 
   8863000   0.05070394    -0.3106317      0             -0.27027453    -0.0031618205 
   8864000   0.049564817   -0.31056728     0             -0.27111678    -0.0020825396 
   8865000   0.048330598   -0.31004704     0             -0.2715789     -0.0024083717 
   8866000   0.048046629   -0.30965099     0             -0.27140888     0.0061281913 
   8867000   0.049328047   -0.31032237     0             -0.27106033    -0.0074387422 
   8868000   0.048578491   -0.30964059     0             -0.27097515     0.0035131058 
   8869000   0.051047557   -0.31047296     0             -0.26984229    -5.0399888e-05
   8870000   0.048907437   -0.31040456     0             -0.27147729     0.004141191  
   8871000   0.051034975   -0.31108683     0             -0.27046618    -0.0025962386 
   8872000   0.049693806   -0.30935841     0             -0.26980524    -0.00010681053
   8873000   0.052728885   -0.30612973     0             -0.26416084     0.0034339121 
   8874000   0.050329557   -0.30349691     0             -0.26343772     0.0085649268 
   8875000   0.049976914   -0.30364308     0             -0.26386458    -0.0025943202 
   8876000   0.051375462   -0.30909848     0             -0.26820683     0.00065787526
   8877000   0.050324352   -0.31066064     0             -0.2706056     -0.0090194597 
   8878000   0.048168257   -0.30981994     0             -0.27148101    -0.010150693  
   8879000   0.048914798   -0.31097066     0             -0.27203754    -0.00080384467
   8880000   0.050618352   -0.31014144     0             -0.26985239     0.0061932492 
   8881000   0.054561642   -0.30865715     0             -0.26522949     0.0026125915 
   8882000   0.050729496   -0.31091867     0             -0.27054116    -0.0060796831 
   8883000   0.048018944   -0.31116484     0             -0.27294476    -0.0016227251 
   8884000   0.048843523   -0.30973076     0             -0.27085437    -0.00454356   
   8885000   0.050817532   -0.3111758      0             -0.27072822     0.00023443979
   8886000   0.05212551    -0.3102084      0             -0.26871975    -0.0040971731 
   8887000   0.0489284     -0.31169792     0             -0.27275397     0.00087102241
   8888000   0.050093186   -0.30974983     0             -0.26987879    -0.0049192922 
   8889000   0.050697981   -0.30645395     0             -0.26610153    -0.0027560101 
   8890000   0.053224325   -0.31020048     0             -0.26783724    -0.0061164277 
   8891000   0.050872766   -0.30876557     0             -0.26827403     0.0065255988 
   8892000   0.051478181   -0.30997847     0             -0.26900506    -0.0026146174 
   8893000   0.051346192   -0.30996442     0             -0.26909606    -0.0094902863 
   8894000   0.048811973   -0.31019909     0             -0.27134781     0.0024187403 
   8895000   0.047968986   -0.30935495     0             -0.27117463     0.0050024155 
   8896000   0.050044971   -0.30956314     0             -0.26973047    -0.0054204795 
   8897000   0.049039277   -0.30380657     0             -0.26477437     0.0050566625 
   8898000   0.052767228   -0.30934441     0             -0.26734499     0.0012486177 
   8899000   0.049810281   -0.3096029      0             -0.26995703     0.00033034381
   8900000   0.050623739   -0.30397213     0             -0.2636788     -0.00041869675
   8901000   0.049591854   -0.30957811     0             -0.27010609     0.0044942343 
   8902000   0.050505151   -0.30898488     0             -0.26878594     0.0033842995 
   8903000   0.047643629   -0.31054319     0             -0.27262184     0.00085368822
   8904000   0.050148936   -0.31001285     0             -0.27009743     0.0033806689 
   8905000   0.047321475   -0.30926823     0             -0.27160329     0.0035492506 
   8906000   0.0484171     -0.31054601     0             -0.27200903    -0.0084231651 
   8907000   0.051707126   -0.30367149     0             -0.26251585     0.0029047837 
   8908000   0.049992643   -0.30961379     0             -0.26982277    -0.0018714396 
   8909000   0.049351235   -0.30927632     0             -0.26999582    -0.0030640395 
   8910000   0.048877153   -0.3095868      0             -0.27068364     0.0041007809 
   8911000   0.048423998   -0.30253509     0             -0.26399261    -0.0002641262 
   8912000   0.049398982   -0.3098264      0             -0.27050789    -0.0050285803 
   8913000   0.051871346   -0.30865742     0             -0.26737107    -0.00027339417
   8914000   0.050182344   -0.30982134     0             -0.26987933    -0.006055407  
   8915000   0.050459821   -0.30983304     0             -0.26967018     0.0023396575 
   8916000   0.052986535   -0.31027199     0             -0.26809802    -8.0785336e-06
   8917000   0.048651834   -0.30872938     0             -0.27000556    -0.0085946439 
   8918000   0.049932866   -0.30851311     0             -0.26876967     0.0068886177 
   8919000   0.051492441   -0.30872271     0             -0.26773795     0.00057781296
   8920000   0.051549424   -0.3102415      0             -0.26921138     0.00066876426
   8921000   0.048744115   -0.31008936     0             -0.27129209    -0.0039820643 
   8922000   0.050462262   -0.30884043     0             -0.26867563    -0.0018129499 
   8923000   0.050590329   -0.30889642     0             -0.26862968    -0.0040027776 
   8924000   0.049991515   -0.30883963     0             -0.26904951     0.0056695365 
   8925000   0.046770042   -0.3101724      0             -0.27294637    -0.0010982771 
   8926000   0.047115504   -0.3090852      0             -0.2715842      0.0056596106 
   8927000   0.051724434   -0.30886927     0             -0.26769986    -0.0012834048 
   8928000   0.050247641   -0.30341487     0             -0.26342089     0.0013085848 
   8929000   0.049408382   -0.30722993     0             -0.26790395    -0.0048536867 
   8930000   0.050331956   -0.30434917     0             -0.26428807     0.0057088549 
   8931000   0.049661512   -0.30850489     0             -0.26897743     0.000235567  
   8932000   0.049122506   -0.30923791     0             -0.27013946     0.0013217359 
   8933000   0.048682177   -0.30872923     0             -0.26998126     0.006766249  
   8934000   0.047917081   -0.31030584     0             -0.27216684    -0.0045670027 
   8935000   0.050477602   -0.30405592     0             -0.26387891    -0.0026274997 
   8936000   0.048814785   -0.31084924     0             -0.27199573     0.010743338  
   8937000   0.050953333   -0.31027113     0             -0.26971546     0.0024689252 
   8938000   0.052983965   -0.30508189     0             -0.26290996     0.008968112  
   8939000   0.050939634   -0.30918072     0             -0.26863595     0.0007118951 
   8940000   0.050155806   -0.30992456     0             -0.27000367    -0.0029763788 
   8941000   0.050673851   -0.31103498     0             -0.27070176     0.0056102398 
   8942000   0.051260108   -0.30949514     0             -0.2686953     -0.0074653859 
   8943000   0.051715305   -0.31070101     0             -0.26953886    -0.0050403152 
   8944000   0.050603478   -0.31091248     0             -0.27063528    -0.0089183268 
   8945000   0.053417555   -0.31178228     0             -0.26926525     0.011523727  
   8946000   0.049324079   -0.31090926     0             -0.27165037    -0.0021586804 
   8947000   0.051230576   -0.31096039     0             -0.27018405     0.0016201374 
   8948000   0.050429833   -0.30871536     0             -0.26857637     0.0026251217 
   8949000   0.050684761   -0.31008084     0             -0.26973893    -0.0024960097 
   8950000   0.053012302   -0.31185511     0             -0.26966063     0.0060601896 
   8951000   0.051763776   -0.31113512     0             -0.26993439    -0.0020804222 
   8952000   0.050977075   -0.30903799     0             -0.26846343     0.0037139292 
   8953000   0.048108723   -0.30176928     0             -0.26347774    -0.0032057065 
   8954000   0.051157073   -0.31073503     0             -0.27001719     0.004949142  
   8955000   0.047747588   -0.30917131     0             -0.27116722     0.0096248268 
   8956000   0.051429822   -0.31088673     0             -0.26995181     0.0022896684 
   8957000   0.050038604   -0.29525651     0             -0.25542891    -0.0033130708 
   8958000   0.048840057   -0.30854833     0             -0.2696747     -0.0054309283 
   8959000   0.051128915   -0.31132814     0             -0.27063272     0.0060232274 
   8960000   0.052250126   -0.3106453      0             -0.26905746     0.0082150919 
   8961000   0.049873442   -0.31229231     0             -0.27259617    -0.0016632279 
   8962000   0.052849131   -0.30596766     0             -0.26390305     0.0040568273 
   8963000   0.049292992   -0.31002546     0             -0.27079131    -0.00055469601
   8964000   0.050237167   -0.31188835     0             -0.27190271    -0.0067129702 
   8965000   0.050244365   -0.31180077     0             -0.27180939     0.0059380775 
   8966000   0.050238796   -0.30634342     0             -0.26635648     0.0060693095 
   8967000   0.050545284   -0.31109862     0             -0.27086773    -0.0015351475 
   8968000   0.046740545   -0.31092999     0             -0.27372744     0.0053456591 
   8969000   0.04931693    -0.3109717      0             -0.2717185      0.0054103432 
   8970000   0.047762199   -0.31216907     0             -0.27415334     0.0025099541 
   8971000   0.051437758   -0.3113372      0             -0.27039596    -0.0079126146 
   8972000   0.050550288   -0.31215689     0             -0.27192202     0.0086240904 
   8973000   0.051622819   -0.31270975     0             -0.27162121    -0.0044845287 
   8974000   0.052583244   -0.30526101     0             -0.26340804    -0.0083215381 
   8975000   0.050045401   -0.31139755     0             -0.27156453    -0.002291834  
   8976000   0.052523226   -0.30849864     0             -0.26669344     0.00070120044
   8977000   0.049978283   -0.31147247     0             -0.27169288    -0.0032021164 
   8978000   0.05037788    -0.30910244     0             -0.2690048     -0.0012698419 
   8979000   0.048160514   -0.31120083     0             -0.27286807    -0.0053135152 
   8980000   0.049112756   -0.31027905     0             -0.27118836     0.0042874218 
   8981000   0.051208672   -0.31003299     0             -0.26927409    -0.0051610489 
   8982000   0.049088353   -0.31135743     0             -0.27228617     0.002109275  
   8983000   0.049763974   -0.31006678     0             -0.27045777    -0.0006724985 
   8984000   0.052324658   -0.31065603     0             -0.26900887    -0.0024840124 
   8985000   0.048573786   -0.31065731     0             -0.27199561     0.00052304981
   8986000   0.051604011   -0.31019639     0             -0.26912282    -0.0048321364 
   8987000   0.048834089   -0.30971129     0             -0.27084241    -0.006724278  
   8988000   0.048688119   -0.3068955      0             -0.2681428      0.0056139933 
   8989000   0.049577377   -0.30382453     0             -0.26436403     0.007661875  
   8990000   0.051499524   -0.31022734     0             -0.26923694     0.00034814751
   8991000   0.051360584   -0.30848324     0             -0.26760342     0.0046026888 
   8992000   0.04929704    -0.31021578     0             -0.27097842     0.0067577005 
   8993000   0.049828242   -0.30954728     0             -0.26988711     0.00309923   
   8994000   0.049367934   -0.31010973     0             -0.27081594     0.0019522287 
   8995000   0.049872884   -0.30306057     0             -0.26336488     0.00052944263
   8996000   0.049404431   -0.31076441     0             -0.27144157    -0.005111486  
   8997000   0.05153583    -0.30967274     0             -0.26865344    -0.0013722749 
   8998000   0.048819097   -0.309549       0             -0.27069205     0.0022925134 
   8999000   0.049978107   -0.30866162     0             -0.26888217    -7.5334266e-05
   9000000   0.05012174    -0.30939244     0             -0.26949867    -0.0023174607 
   9001000   0.051479117   -0.30952718     0             -0.26855302     0.0035512601 
   9002000   0.050406698   -0.30879125     0             -0.26867067     0.0002394249 
   9003000   0.049862797   -0.30848521     0             -0.26879754     0.00048144441
   9004000   0.049501895   -0.30814797     0             -0.26874755     0.0014270992 
   9005000   0.050382068   -0.3089655      0             -0.26886452     0.0031222004 
   9006000   0.048253651   -0.30811077     0             -0.26970388    -0.0066436254 
   9007000   0.051547727   -0.3074763      0             -0.26644753    -0.00031909618
   9008000   0.050921951   -0.3075284      0             -0.26699771     0.005976939  
   9009000   0.047251406   -0.30816697     0             -0.2705578     -0.0039784801 
   9010000   0.049515819   -0.30732749     0             -0.26791599     0.0059577169 
   9011000   0.050546785   -0.30881662     0             -0.26858454    -0.0011443374 
   9012000   0.05061352    -0.30720542     0             -0.26692022    -0.00090233089
   9013000   0.048624251   -0.30779666     0             -0.2690948      0.0029801477 
   9014000   0.049856816   -0.30846655     0             -0.26878365    -0.0043537897 
   9015000   0.050895609   -0.30919233     0             -0.26868261     0.00066413506
   9016000   0.049953268   -0.30845408     0             -0.2686944     -0.0082784147 
   9017000   0.049907553   -0.30734462     0             -0.26762133     0.0087220083 
   9018000   0.047478138   -0.30754796     0             -0.26975833     4.4840218e-05
   9019000   0.050925202   -0.30835843     0             -0.26782515    -0.00061250409
   9020000   0.050472504   -0.30471727     0             -0.26454431    -0.0033142363 
   9021000   0.049697943   -0.30177613     0             -0.26221967     0.0029671362 
   9022000   0.050347842   -0.30800292     0             -0.26792918    -0.00050262773
   9023000   0.050874489   -0.30374916     0             -0.26325625    -0.0049710712 
   9024000   0.047842353   -0.30682089     0             -0.26874137    -0.00067030628
   9025000   0.047439127   -0.30754307     0             -0.26978449     0.0016704987 
   9026000   0.048693259   -0.30871142     0             -0.26995463    -0.0078215473 
   9027000   0.050945288   -0.3080932      0             -0.26754393    -0.0056698325 
   9028000   0.050522257   -0.3091053      0             -0.26889274     0.0067935857 
   9029000   0.050645363   -0.30862345     0             -0.26831291     0.0052172455 
   9030000   0.049461776   -0.3079208      0             -0.26855232     0.00018218869
   9031000   0.051492714   -0.30819623     0             -0.26721124    -0.010199119  
   9032000   0.048330843   -0.30754666     0             -0.26907833    -0.0018780012 
   9033000   0.050143765   -0.30952498     0             -0.26961368    -0.010451883  
   9034000   0.0512173     -0.30269018     0             -0.26192441    -0.0015047188 
   9035000   0.051248046   -0.30920419     0             -0.26841395    -0.002731728  
   9036000   0.054237511   -0.30854287     0             -0.2653732      0.0052322707 
   9037000   0.04829608    -0.30743976     0             -0.2689991      0.0067081165 
   9038000   0.051728173   -0.30722733     0             -0.26605494    -0.0070881368 
   9039000   0.049004496   -0.30763385     0             -0.26862933    -0.0019681174 
   9040000   0.050376421   -0.30702108     0             -0.26692459     0.00064242051
   9041000   0.050557859   -0.30807709     0             -0.26783619    -0.0039649039 
   9042000   0.050758392   -0.30778358     0             -0.26738307     0.0031027859 
   9043000   0.050524548   -0.30775453     0             -0.26754014    -0.0019858424 
   9044000   0.047756167   -0.30735963     0             -0.26934871    -0.0018246458 
   9045000   0.04885308    -0.30750567     0             -0.26862168    -0.0013712454 
   9046000   0.051747493   -0.30411158     0             -0.26292381    -0.0070807371 
   9047000   0.050831515   -0.30784293     0             -0.26738423     0.0014086018 
   9048000   0.048677141   -0.30782502     0             -0.26908106     0.0039373722 
   9049000   0.053246688   -0.30550887     0             -0.26312783    -0.00067909472
   9050000   0.04914182    -0.3085136      0             -0.26939978     0.0040276661 
   9051000   0.051333116   -0.30704479     0             -0.26618683     0.004962525  
   9052000   0.050081317   -0.30715388     0             -0.26729228    -0.00057463532
   9053000   0.048204236   -0.30151448     0             -0.26314692     0.0029726469 
   9054000   0.049055825   -0.29951099     0             -0.26046562     0.0039552128 
   9055000   0.050936932   -0.30507408     0             -0.26453147    -0.00015371343
   9056000   0.052698597   -0.30889859     0             -0.2669538     -0.0032038679 
   9057000   0.047292253   -0.3048544      0             -0.26721272    -0.0043011627 
   9058000   0.049295063   -0.30843898     0             -0.26920319    -0.0072683509 
   9059000   0.051214967   -0.30852624     0             -0.26776233    -0.0046957329 
   9060000   0.050550378   -0.30729457     0             -0.26705963    -0.0037807407 
   9061000   0.051267143   -0.30011005     0             -0.25930461     0.0027948303 
   9062000   0.05057254    -0.30851007     0             -0.26825749    -0.0094329497 
   9063000   0.048146065   -0.29720377     0             -0.25888251     0.0078262069 
   9064000   0.048597254   -0.30939561     0             -0.27071523    -0.0055917498 
   9065000   0.049685485   -0.30932894     0             -0.2697824      0.004119272  
   9066000   0.050548544   -0.30983541     0             -0.26960192     0.0015651796 
   9067000   0.051292779   -0.30265121     0             -0.26182537    -0.0057486632 
   9068000   0.049135468   -0.30846002     0             -0.26935126    -0.0045300334 
   9069000   0.049873131   -0.30945125     0             -0.26975535     0.0045471901 
   9070000   0.049469141   -0.3088803      0             -0.26950596    -0.0023139285 
   9071000   0.049623718   -0.30760904     0             -0.26811166    -0.0029315583 
   9072000   0.053186703   -0.30939367     0             -0.26706038     0.0059198356 
   9073000   0.048234364   -0.30936947     0             -0.27097793    -0.0032395327 
   9074000   0.04957764    -0.29995432     0             -0.26049362    -0.00070113312
   9075000   0.052166553   -0.30878122     0             -0.2672599     -0.0021790232 
   9076000   0.051453279   -0.30919773     0             -0.26824414    -0.0039278969 
   9077000   0.050953265   -0.30943498     0             -0.26887936     0.0033523301 
   9078000   0.048569854   -0.30943808     0             -0.27077951    -0.0027935215 
   9079000   0.050338081   -0.30869902     0             -0.26863305    -0.00042253211
   9080000   0.050518461   -0.30330773     0             -0.2630982      0.0073052247 
   9081000   0.049306521   -0.31063902     0             -0.27139411     0.0042214715 
   9082000   0.052887687   -0.30884538     0             -0.26675009    -0.00020452665
   9083000   0.049383749   -0.30947115     0             -0.27016477     0.0035145777 
   9084000   0.049819376   -0.30877349     0             -0.26912038    -0.0083669434 
   9085000   0.050288746   -0.3094746      0             -0.2694479      0.0093480673 
   9086000   0.049047507   -0.30879516     0             -0.26975641    -0.010001942  
   9087000   0.050529091   -0.30924701     0             -0.26902901     0.00037887284
   9088000   0.053018419   -0.30909661     0             -0.26689726     0.0057460866 
   9089000   0.049623232   -0.3097317      0             -0.27023471     0.00059648865
   9090000   0.050727379   -0.30845347     0             -0.26807765     0.0048865965 
   9091000   0.051247368   -0.30829566     0             -0.26750596     0.00088804263
   9092000   0.048791709   -0.30264838     0             -0.26381322    -0.0019650632 
   9093000   0.048262371   -0.3094055      0             -0.27099167     0.0038373023 
   9094000   0.051241519   -0.30820982     0             -0.26742478    -0.0032563074 
   9095000   0.052109742   -0.30823169     0             -0.26675559    -0.0034004279 
   9096000   0.049633364   -0.30804233     0             -0.26853727    -0.0067516823 
   9097000   0.050815725   -0.30879282     0             -0.26834668    -0.0034354663 
   9098000   0.049243363   -0.3079645      0             -0.26876986    -0.0022093321 
   9099000   0.048666297   -0.30806964     0             -0.26933431     0.0068915001 
   9100000   0.049092448   -0.30808039     0             -0.26900587     0.0045525956 
   9101000   0.049141823   -0.30819221     0             -0.26907839     0.0019753144 
   9102000   0.050973804   -0.30806402     0             -0.26749205     0.0054822242 
   9103000   0.049812934   -0.30722498     0             -0.267577      -0.0069665541 
   9104000   0.053189603   -0.30867792     0             -0.26634232    -0.000396899  
   9105000   0.04930494    -0.3080134      0             -0.26876975    -0.0014432808 
   9106000   0.049868021   -0.30164508     0             -0.26195325     0.0050527414 
   9107000   0.05502919    -0.30712967     0             -0.26332987    -0.0042806168 
   9108000   0.04975276    -0.30803087     0             -0.26843078    -0.00020468266
   9109000   0.048772194   -0.30828443     0             -0.26946482     0.0010089954 
   9110000   0.049441095   -0.30783209     0             -0.26848007    -0.0091664569 
   9111000   0.049658613   -0.30862047     0             -0.26909532     0.0039469828 
   9112000   0.050301405   -0.30821433     0             -0.26817756     0.0053229118 
   9113000   0.049723441   -0.30914247     0             -0.26956572    -0.0048978831 
   9114000   0.05183841    -0.30786753     0             -0.2666074      0.0043946724 
   9115000   0.049888755   -0.30828791     0             -0.26857958    -0.0045661174 
   9116000   0.048482286   -0.30899456     0             -0.27040569     5.9905503e-05
   9117000   0.050049341   -0.30344465     0             -0.2636085     -0.0010597789 
   9118000   0.049780198   -0.30863776     0             -0.26901583     0.00280833   
   9119000   0.049574676   -0.30804169     0             -0.26858334    -0.0020817665 
   9120000   0.052571844   -0.30740932     0             -0.26556541     0.00407723   
   9121000   0.050988534   -0.30902536     0             -0.26844168     0.0078647384 
   9122000   0.051739122   -0.30797448     0             -0.26679337    -0.0085550464 
   9123000   0.051997884   -0.30735126     0             -0.26596419     0.0025713403 
   9124000   0.050361489   -0.30340163     0             -0.26331703    -0.0011304844 
   9125000   0.0513239     -0.3093065      0             -0.26845588     0.0040496031 
   9126000   0.050332625   -0.30952527     0             -0.26946365    -0.00029038613
   9127000   0.051850683   -0.30930962     0             -0.26803972     0.0042886929 
   9128000   0.050940818   -0.2991026      0             -0.2585569     -0.0038089069 
   9129000   0.049332222   -0.3099287      0             -0.27066334     0.0034135716 
   9130000   0.051839598   -0.29672951     0             -0.25546843     0.0031509995 
   9131000   0.049707103   -0.30940415     0             -0.2698404     -0.00050963814
   9132000   0.049896496   -0.30910587     0             -0.26939138     0.0018296425 
   9133000   0.049097475   -0.30967262     0             -0.2705941      0.0043708857 
   9134000   0.050981147   -0.30993584     0             -0.26935803     0.0014272648 
   9135000   0.049676792   -0.30863976     0             -0.26910013    -0.0014284897 
   9136000   0.053452989   -0.30991142     0             -0.26736618    -0.0050823802 
   9137000   0.051350082   -0.30134208     0             -0.26047062     0.002662735  
   9138000   0.053606797   -0.31089976     0             -0.2682321     -0.0015954673 
   9139000   0.051577296   -0.31082847     0             -0.26977617     0.0014918385 
   9140000   0.05242113    -0.31065291     0             -0.26892896    -0.0036366029 
   9141000   0.05008936    -0.31163392     0             -0.27176592    -0.00066934987
   9142000   0.049603646   -0.3060289      0             -0.26654749     0.00035588982
   9143000   0.05109428    -0.31160385     0             -0.270936      -0.0023484044 
   9144000   0.049099377   -0.31068347     0             -0.27160343    -0.0040059042 
   9145000   0.049677376   -0.31200587     0             -0.27246578    -0.0041951311 
   9146000   0.051757624   -0.31088504     0             -0.26968921    -0.0096274197 
   9147000   0.048242089   -0.31056721     0             -0.27216953     0.0050429666 
   9148000   0.050867118   -0.31013861     0             -0.26965156    -0.0018172979 
   9149000   0.051683868   -0.30934515     0             -0.26820802     0.0024754947 
   9150000   0.048805026   -0.30922271     0             -0.27037696    -0.0025931921 
   9151000   0.050267961   -0.3101905      0             -0.27018034    -0.00070722057
   9152000   0.050952696   -0.3110587      0             -0.27050354     0.0095248383 
   9153000   0.047643194   -0.31049554     0             -0.27257453     0.0031388739 
   9154000   0.04884969    -0.31154944     0             -0.27266814     0.00069955716
   9155000   0.050267557   -0.31174724     0             -0.27173741     0.0078091722 
   9156000   0.050760319   -0.31069133     0             -0.27028929    -0.0019672766 
   9157000   0.047395857   -0.30246847     0             -0.26474433    -0.0082441195 
   9158000   0.050146762   -0.30310677     0             -0.26319308     0.00087106792
   9159000   0.050149257   -0.31003673     0             -0.27012106    -0.0014627157 
   9160000   0.049236681   -0.30924725     0             -0.27005793    -0.0018417317 
   9161000   0.049074247   -0.31027446     0             -0.27121442    -0.0035622315 
   9162000   0.050393143   -0.30991636     0             -0.26980657     0.0010463966 
   9163000   0.048164183   -0.30975039     0             -0.27141471    -0.0067059645 
   9164000   0.051738466   -0.31067224     0             -0.26949165    -0.0026607225 
   9165000   0.050893112   -0.31102298     0             -0.27051524     0.0043425341 
   9166000   0.049939167   -0.30514343     0             -0.26539497     0.0013509702 
   9167000   0.048294472   -0.31006139     0             -0.27162201     0.0013486905 
   9168000   0.049200566   -0.30972115     0             -0.27056058    -0.0048832525 
   9169000   0.051262181   -0.30972598     0             -0.26892449     0.0097632509 
   9170000   0.050818335   -0.30984204     0             -0.26939382    -0.0038582302 
   9171000   0.048867348   -0.30972683     0             -0.27083148     0.0023475902 
   9172000   0.051554469   -0.31048329     0             -0.26944915    -0.0069928873 
   9173000   0.04982257    -0.29764155     0             -0.25798589    -0.0054723452 
   9174000   0.049130718   -0.31027325     0             -0.27116827     0.0060509034 
   9175000   0.051406369   -0.30850249     0             -0.26758623    -0.0072423471 
   9176000   0.049932801   -0.31068078     0             -0.27093739    -0.0027161484 
   9177000   0.048169869   -0.30894763     0             -0.27060743     0.0039864948 
   9178000   0.0515538     -0.30914503     0             -0.26811142    -0.0020760914 
   9179000   0.0491835     -0.30866719     0             -0.2695202     -0.0014697942 
   9180000   0.052945132   -0.30856869     0             -0.26642767     0.010771413  
   9181000   0.051496837   -0.3087174      0             -0.26772914     0.0051522471 
   9182000   0.050266969   -0.30733375     0             -0.26732438    -0.0010095781 
   9183000   0.052958522   -0.30835928     0             -0.2662076     -0.002156285  
   9184000   0.051603101   -0.30839833     0             -0.26732549     0.00028000855
   9185000   0.053771682   -0.30770102     0             -0.26490212    -0.002609569  
   9186000   0.052318685   -0.30792981     0             -0.26628741     0.0012084455 
   9187000   0.05116143    -0.30843964     0             -0.26771834    -0.0072196718 
   9188000   0.049170083   -0.30774936     0             -0.26861305    -0.0054497941 
   9189000   0.050418244   -0.30865866     0             -0.26852889     0.0012105024 
   9190000   0.051347612   -0.30669456     0             -0.26582507    -0.0031983172 
   9191000   0.049775476   -0.30927788     0             -0.26965972    -0.00025486363
   9192000   0.050980441   -0.30881203     0             -0.26823478     0.0049769214 
   9193000   0.051321925   -0.30879126     0             -0.26794221     0.0058203454 
   9194000   0.049824015   -0.30902939     0             -0.26937259     0.003170022  
   9195000   0.051613054   -0.30972166     0             -0.26864089    -0.0016986741 
   9196000   0.047367607   -0.30309172     0             -0.26539007     5.3081309e-05
   9197000   0.052051589   -0.30787887     0             -0.26644906     0.0023347076 
   9198000   0.049488047   -0.30809968     0             -0.26871029    -0.0025256066 
   9199000   0.051057619   -0.30846034     0             -0.26782166    -0.0028718127 
   9200000   0.050556652   -0.30870548     0             -0.26846555     0.0017935699 
   9201000   0.049779693   -0.30802245     0             -0.26840092     0.0017009406 
   9202000   0.051051195   -0.30885878     0             -0.26822522     0.0024938923 
   9203000   0.049735169   -0.30787626     0             -0.26829017    -0.0039765013 
   9204000   0.050934935   -0.30178472     0             -0.2612437     -0.0011979367 
   9205000   0.04980639    -0.30695554     0             -0.26731277     0.0056621276 
   9206000   0.047596036   -0.30892179     0             -0.27103832     0.00040006235
   9207000   0.048439979   -0.30775924     0             -0.26920405     0.0036518931 
   9208000   0.052457805   -0.30835289     0             -0.26659976     0.0025067545 
   9209000   0.050475629   -0.30827918     0             -0.26810373    -0.00045896478
   9210000   0.048722117   -0.30928983     0             -0.27051007    -0.0010536375 
   9211000   0.050203658   -0.30954161     0             -0.26958263    -0.0017205185 
   9212000   0.04919602    -0.31002104     0             -0.27086409     0.001389195  
   9213000   0.051510841   -0.30997056     0             -0.26897115     0.0032982946 
   9214000   0.050214813   -0.30940988     0             -0.26944203     0.00015883641
   9215000   0.050559833   -0.30921286     0             -0.26897039    -0.0007692036 
   9216000   0.049839526   -0.30881347     0             -0.26914432     0.00050805935
   9217000   0.051781322   -0.30949661     0             -0.26828192    -0.0021867646 
   9218000   0.051355641   -0.30769954     0             -0.26682366     0.00013231373
   9219000   0.048689009   -0.30931439     0             -0.27056098     0.0034512528 
   9220000   0.052262597   -0.3088851      0             -0.26728733    -0.001534068  
   9221000   0.049838644   -0.30895038     0             -0.26928194     0.0015061833 
   9222000   0.050734868   -0.30797228     0             -0.2675905      0.00028877413
   9223000   0.050255147   -0.30904779     0             -0.26904783    -0.0086843348 
   9224000   0.051660408   -0.30828801     0             -0.26716955     0.0066346582 
   9225000   0.049757111   -0.30969177     0             -0.27008822    -0.0011143823 
   9226000   0.050285085   -0.30985925     0             -0.26983546     0.0031423319 
   9227000   0.052007977   -0.29755194     0             -0.25615684    -0.0080478398 
   9228000   0.048150132   -0.30880079     0             -0.27047629     0.0066862443 
   9229000   0.049813298   -0.30911519     0             -0.26946692    -0.0097268968 
   9230000   0.047845476   -0.30926684     0             -0.27118483    -0.0066626176 
   9231000   0.050268968   -0.30771941     0             -0.26770845     0.00090590345
   9232000   0.050048566   -0.30921941     0             -0.26938388     0.0034921201 
   9233000   0.048328513   -0.30912168     0             -0.27065521    -0.013167767  
   9234000   0.052018278   -0.30906081     0             -0.26765751    -0.002073558  
   9235000   0.047130047   -0.30933192     0             -0.27181935    -0.0011822454 
   9236000   0.046485266   -0.30908687     0             -0.2720875     -0.0076368741 
   9237000   0.048313087   -0.30904793     0             -0.27059374     0.0063865984 
   9238000   0.052118968   -0.30076261     0             -0.25927917    -0.0049887656 
   9239000   0.051632698   -0.30920385     0             -0.26810745     0.0070372744 
   9240000   0.050783539   -0.30905839     0             -0.26863786    -0.0010666731 
   9241000   0.04997434    -0.30975685     0             -0.2699804      0.0027874832 
   9242000   0.052590546   -0.30036673     0             -0.25850794     0.0053058755 
   9243000   0.0500212     -0.30889186     0             -0.26907811    -0.0047655627 
   9244000   0.051764565   -0.31111239     0             -0.26991104     0.0038980401 
   9245000   0.047857467   -0.30821975     0             -0.27012819    -0.0033275726 
   9246000   0.048151618   -0.30334918     0             -0.2650235     -0.0044090563 
   9247000   0.050464623   -0.30905114     0             -0.26888445     0.0013244637 
   9248000   0.050721019   -0.30894396     0             -0.26857319     0.0066637587 
   9249000   0.047423534   -0.30841902     0             -0.27067285     0.0062937896 
   9250000   0.049370857   -0.30903358     0             -0.26973746    -0.0074667586 
   9251000   0.051930663   -0.30959774     0             -0.26826418    -0.0034106734 
   9252000   0.054020751   -0.30936466     0             -0.26636752    -0.0041333663 
   9253000   0.049849884   -0.30863745     0             -0.26896006     0.0013096314 
   9254000   0.049968196   -0.30567758     0             -0.26590602     0.008316659  
   9255000   0.050602826   -0.30219322     0             -0.26191653     0.00066048467
   9256000   0.049865395   -0.30765316     0             -0.26796342     0.0004208155 
   9257000   0.04850147    -0.30723971     0             -0.26863557     0.0068012137 
   9258000   0.051100172   -0.30868206     0             -0.26800952     0.0023128368 
   9259000   0.047458012   -0.30850975     0             -0.27073614     0.0021595201 
   9260000   0.049705858   -0.30564804     0             -0.26608528    -0.0044212498 
   9261000   0.050182971   -0.30874959     0             -0.26880708     0.0052461868 
   9262000   0.048778911   -0.30816635     0             -0.26934139     0.0055781828 
   9263000   0.050818549   -0.30801433     0             -0.26756594    -0.0054115769 
   9264000   0.050956064   -0.30828892     0             -0.26773108     0.0031183782 
   9265000   0.050131818   -0.30377166     0             -0.26386987     0.0069240509 
   9266000   0.048248027   -0.30902814     0             -0.27062572     0.0011995414 
   9267000   0.05283143    -0.30889822     0             -0.2668477      0.00077422471
   9268000   0.05214599    -0.30233145     0             -0.2608265      0.0024263331 
   9269000   0.050927891   -0.30238069     0             -0.26184527     0.0030276125 
   9270000   0.051151273   -0.30928578     0             -0.26857257    -0.003195752  
   9271000   0.048928332   -0.3021864      0             -0.2632425      0.0072267736 
   9272000   0.048547131   -0.2942508      0             -0.25561032     0.01184225   
   9273000   0.050948385   -0.3083611      0             -0.26780937    -0.0008541517 
   9274000   0.050282117   -0.30940219     0             -0.26938077    -0.0043018733 
   9275000   0.051742771   -0.30925125     0             -0.26806724     0.0038235232 
   9276000   0.050825802   -0.30790511     0             -0.26745095    -0.0019840489 
   9277000   0.048983002   -0.30846813     0             -0.26948072    -0.0054985074 
   9278000   0.048860757   -0.30894216     0             -0.27005205    -0.0036890304 
   9279000   0.046501258   -0.30789059     0             -0.27087849     0.00026257206
   9280000   0.050675435   -0.30874929     0             -0.26841481    -0.0019135924 
   9281000   0.050140709   -0.30843885     0             -0.26852998    -0.0034391323 
   9282000   0.051925614   -0.30850673     0             -0.26717719    -0.0046030967 
   9283000   0.049815329   -0.30245578     0             -0.26280589    -0.0052037541 
   9284000   0.047221103   -0.30434295     0             -0.26675791     0.0036784519 
   9285000   0.050892391   -0.30684437     0             -0.26633721    -0.0036034722 
   9286000   0.048942333   -0.30048961     0             -0.26153458     0.00096705651
   9287000   0.049008198   -0.30816596     0             -0.2691585     -0.0072683282 
   9288000   0.048133129   -0.30992442     0             -0.27161346    -0.0038875353 
   9289000   0.049653058   -0.29049901     0             -0.25097828    -0.0017130326 
   9290000   0.051775405   -0.3091147      0             -0.26790472    -0.0050157272 
   9291000   0.050276551   -0.30644371     0             -0.26642672    -0.0015581096 
   9292000   0.050055797   -0.31126459     0             -0.2714233     -0.0076428875 
   9293000   0.050178729   -0.31006685     0             -0.27012772    -0.0065718831 
   9294000   0.049929534   -0.31120126     0             -0.27146048    -0.0013957549 
   9295000   0.050879066   -0.30930682     0             -0.26881026    -0.00073584023
   9296000   0.049568719   -0.31032505     0             -0.27087144     0.0018295538 
   9297000   0.048103351   -0.30915385     0             -0.27086659     0.0039305319 
   9298000   0.049633404   -0.30907458     0             -0.26956949     0.0042031519 
   9299000   0.05012968    -0.31088531     0             -0.27098522     0.0039015985 
   9300000   0.050252678   -0.30631194     0             -0.26631395     0.0010025613 
   9301000   0.049276769   -0.31055766     0             -0.27133643     0.00011789795
   9302000   0.050208919   -0.30982905     0             -0.26986589    -0.0029399466 
   9303000   0.050816516   -0.31014257     0             -0.2696958      0.0027185624 
   9304000   0.053103248   -0.3100388      0             -0.26777193    -0.00013200594
   9305000   0.05173861    -0.30929843     0             -0.26811773    -0.002683844  
   9306000   0.05020358    -0.31093523     0             -0.27097632    -0.0028816351 
   9307000   0.05035764    -0.31035238     0             -0.27027084    -0.0061112229 
   9308000   0.051170933   -0.31010895     0             -0.26938009     0.00056484055
   9309000   0.049972323   -0.31110268     0             -0.27132783    -0.004456013  
   9310000   0.052970674   -0.31074862     0             -0.26858728     0.0079025653 
   9311000   0.0506337     -0.31047687     0             -0.27017561     0.0034090834 
   9312000   0.04750749    -0.30890258     0             -0.27108958    -0.0021212596 
   9313000   0.050125786   -0.31091761     0             -0.27102062     0.013006632  
   9314000   0.050204783   -0.30507597     0             -0.2651161     -0.0084780458 
   9315000   0.049700596   -0.30981474     0             -0.27025618     0.0089988601 
   9316000   0.049922043   -0.30969257     0             -0.26995774    -0.0011160417 
   9317000   0.051606839   -0.30877317     0             -0.26769735    -2.3874279e-05
   9318000   0.050005394   -0.30368945     0             -0.26388828     0.0010851958 
   9319000   0.05152056    -0.31028962     0             -0.26928247    -0.0048843349 
   9320000   0.050675741   -0.3099046      0             -0.26956987     0.0018374621 
   9321000   0.049074149   -0.30955436     0             -0.2704944     -0.0034644261 
   9322000   0.052062234   -0.3093605      0             -0.26792222     0.0016247789 
   9323000   0.050476487   -0.30932296     0             -0.26914683     0.0016549338 
   9324000   0.049042025   -0.3098388      0             -0.27080442    -0.00021364724
   9325000   0.051413397   -0.31102375     0             -0.2701019      0.00044102334
   9326000   0.049900254   -0.3100174      0             -0.27029991     0.0082253648 
   9327000   0.049458434   -0.30931926     0             -0.26995344     0.001639401  
   9328000   0.052091387   -0.31057127     0             -0.26910978     0.00078099273
   9329000   0.049273991   -0.30765504     0             -0.26843602     0.00062346698
   9330000   0.048921339   -0.30890739     0             -0.26996906    -0.0031831255 
   9331000   0.050928735   -0.30900186     0             -0.26846577    -0.0042741505 
   9332000   0.04998797    -0.30899577     0             -0.26920847    -0.0016500052 
   9333000   0.050539454   -0.30500655     0             -0.2647803      0.0070480482 
   9334000   0.051625595   -0.30781372     0             -0.26672298    -0.0092132968 
   9335000   0.048789514   -0.30794192     0             -0.26910851     0.0035247508 
   9336000   0.04932336    -0.30773128     0             -0.26847297     0.0064996578 
   9337000   0.049084694   -0.29639281     0             -0.25732446     0.0066159577 
   9338000   0.050370799   -0.30628404     0             -0.26619203    -0.0037182645 
   9339000   0.050420414   -0.30829926     0             -0.26816776     0.0084724099 
   9340000   0.047504668   -0.30800889     0             -0.27019814     0.0030668653 
   9341000   0.053554255   -0.30228826     0             -0.25966242     0.0056212589 
   9342000   0.050250272   -0.3074794      0             -0.26748333     0.0046913306 
   9343000   0.05095512    -0.30842233     0             -0.26786524     0.0005993393 
   9344000   0.050939616   -0.30165414     0             -0.26110939     0.002187344  
   9345000   0.049431658   -0.30338587     0             -0.26404136    -0.0073240079 
   9346000   0.051496741   -0.29712046     0             -0.25613227    -0.0018665584 
   9347000   0.04966007    -0.30891569     0             -0.26938938    -0.0075688477 
   9348000   0.050417839   -0.30855653     0             -0.26842708     0.0018269956 
   9349000   0.050296262   -0.30818191     0             -0.26814923     0.00049883722
   9350000   0.050508025   -0.30774353     0             -0.2675423     -0.0011165115 
   9351000   0.048427695   -0.30817425     0             -0.26962883    -0.0061052119 
   9352000   0.051892629   -0.30770139     0             -0.2663981      0.0032018905 
   9353000   0.049132317   -0.3083084      0             -0.26920215    -0.0024517968 
   9354000   0.052312237   -0.30875472     0             -0.26711745    -0.0022323875 
   9355000   0.051676408   -0.3075298      0             -0.26639861     0.0025977904 
   9356000   0.052470209   -0.30802803     0             -0.26626502    -0.0012658665 
   9357000   0.050597031   -0.30442579     0             -0.26415372     0.0041475177 
   9358000   0.050433663   -0.305922       0             -0.26577996    -0.0058570946 
   9359000   0.050989418   -0.30747913     0             -0.26689474     0.0068244404 
   9360000   0.052276336   -0.305476       0             -0.2638673      0.0044208259 
   9361000   0.049382557   -0.30597984     0             -0.26667441    -0.0026402276 
   9362000   0.048706679   -0.30704        0             -0.26827252     0.004832283  
   9363000   0.049174498   -0.30611362     0             -0.2669738      0.0031100147 
   9364000   0.050020706   -0.30660015     0             -0.26678679    -0.0003920701 
   9365000   0.051691079   -0.30752859     0             -0.26638572     0.0013088971 
   9366000   0.048761288   -0.30713313     0             -0.26832219    -0.0010048451 
   9367000   0.050812745   -0.30305153     0             -0.26260776    -0.0020250995 
   9368000   0.049533062   -0.30778195     0             -0.26835673    -4.298322e-05 
   9369000   0.04655243    -0.29714081     0             -0.26008799    -0.0058383508 
   9370000   0.050245995   -0.3028943      0             -0.26290163     4.6815515e-05
   9371000   0.049668988   -0.30776224     0             -0.26822883     0.0073453133 
   9372000   0.048011881   -0.30632867     0             -0.26811422    -0.0062393431 
   9373000   0.054343616   -0.30771384     0             -0.26445972     0.000666909  
   9374000   0.049630249   -0.28880795     0             -0.24930537    -0.0038514236 
   9375000   0.050927272   -0.30749993     0             -0.26696501     0.004877363  
   9376000   0.050115587   -0.3065775      0             -0.26668863    -0.0069496408 
   9377000   0.050672898   -0.30435511     0             -0.26402265    -0.0010457579 
   9378000   0.052271936   -0.30092501     0             -0.25931982    -0.0026518046 
   9379000   0.048923236   -0.30656448     0             -0.26762464    -0.0013245268 
   9380000   0.049710459   -0.30532993     0             -0.26576352     0.0031830154 
   9381000   0.047648633   -0.30686031     0             -0.26893498     0.0020590451 
   9382000   0.051231614   -0.30748512     0             -0.26670796    -0.0020856348 
   9383000   0.048431465   -0.30705853     0             -0.26851011     0.0014429626 
   9384000   0.04971941    -0.30717116     0             -0.26759762     0.0058891461 
   9385000   0.047480098   -0.3074802      0             -0.26968901     0.00061283689
   9386000   0.051303857   -0.30950707     0             -0.26867241     0.0067710388 
   9387000   0.049500835   -0.30863473     0             -0.26923516    -0.013556956  
   9388000   0.048540237   -0.3092701      0             -0.2706351      0.0054918386 
   9389000   0.050152346   -0.3091246      0             -0.26920646     0.00038943783
   9390000   0.049891851   -0.3090122      0             -0.2693014     -0.00026681525
   9391000   0.049878586   -0.30902057     0             -0.26932034     0.0022791079 
   9392000   0.047564709   -0.31037093     0             -0.27251239     0.00091261536
   9393000   0.048744159   -0.30392665     0             -0.26512934    -0.003276752  
   9394000   0.049147153   -0.31072889     0             -0.27161083    -0.0099610624 
   9395000   0.051069843   -0.31076082     0             -0.27011242     0.001303973  
   9396000   0.049111258   -0.31051621     0             -0.27142672     0.0030451704 
   9397000   0.050993945   -0.31169056     0             -0.27110257    -0.0040877596 
   9398000   0.048495453   -0.31108019     0             -0.27248084    -0.00030133231
   9399000   0.050583657   -0.31151601     0             -0.27125458    -0.00062584348
   9400000   0.047567466   -0.31235767     0             -0.27449694     0.0036945595 
   9401000   0.050089857   -0.30242225     0             -0.26255385     0.0051107567 
   9402000   0.048866732   -0.31126201     0             -0.27236715    -0.0032976144 
   9403000   0.049049318   -0.31073607     0             -0.27169588    -4.819951e-05 
   9404000   0.049240604   -0.31030961     0             -0.27111717    -0.00035515833
   9405000   0.049925962   -0.30981424     0             -0.2700763      0.009162496  
   9406000   0.052227472   -0.3092568      0             -0.267687      -0.0032822598 
   9407000   0.050575339   -0.31138346     0             -0.27112865    -0.0010300375 
   9408000   0.050598955   -0.31218004     0             -0.27190643    -0.003459198  
   9409000   0.051618197   -0.3074867      0             -0.26640184    -0.0013253531 
   9410000   0.047481137   -0.31126494     0             -0.27347292    -0.0024382101 
   9411000   0.051012924   -0.30471792     0             -0.26411482     0.00033747012
   9412000   0.050012607   -0.31150248     0             -0.27169557    -0.0030521239 
   9413000   0.050516684   -0.31109489     0             -0.27088676     0.0039814653 
   9414000   0.050465605   -0.31021398     0             -0.27004651    -0.0053205424 
   9415000   0.051004451   -0.3115973      0             -0.27100095     0.00061315617
   9416000   0.05083551    -0.31111222     0             -0.27065033     0.0045716899 
   9417000   0.05047997    -0.31155693     0             -0.27137803    -0.0027792311 
   9418000   0.050136158   -0.31184359     0             -0.27193834     0.003347976  
   9419000   0.049875643   -0.3113358      0             -0.2716379      0.0044297924 
   9420000   0.048754762   -0.31040592     0             -0.27160018     0.00098532598
   9421000   0.049635978   -0.31096714     0             -0.27146       -0.0092878706 
   9422000   0.049379433   -0.31089295     0             -0.27159001    -0.0012532507 
   9423000   0.049013021   -0.31175509     0             -0.27274378    -0.0076987566 
   9424000   0.048930693   -0.31168928     0             -0.27274351    -0.0026630484 
   9425000   0.048573339   -0.30501039     0             -0.26634905    -0.003507596  
   9426000   0.049899926   -0.3070329      0             -0.26731568     0.0061667019 
   9427000   0.051591731   -0.31132752     0             -0.27026373    -0.0015639043 
   9428000   0.049725873   -0.31110436     0             -0.27152567    -0.0012457421 
   9429000   0.050047129   -0.31138225     0             -0.27154787    -0.00033390332
   9430000   0.05030649    -0.31150512     0             -0.2714643     -0.0011526113 
   9431000   0.050655675   -0.31156697     0             -0.27124822    -0.0020283979 
   9432000   0.050200103   -0.30458975     0             -0.26463361     0.00037460338
   9433000   0.046978655   -0.31260673     0             -0.27521466     0.0060916573 
   9434000   0.048476716   -0.31003386     0             -0.27144942     0.0019248348 
   9435000   0.048873992   -0.31099082     0             -0.27209018    -0.0006442908 
   9436000   0.048214173   -0.31192218     0             -0.27354671    -0.0027641439 
   9437000   0.049257908   -0.31189692     0             -0.27269071     0.0096085588 
   9438000   0.050177963   -0.31136213     0             -0.27142361     0.00084470518
   9439000   0.049474807   -0.31178931     0             -0.27241046     0.0020426025 
   9440000   0.050787329   -0.30952187     0             -0.26909833    -0.0045116179 
   9441000   0.051340672   -0.30485798     0             -0.26399401     9.3725716e-05
   9442000   0.050650685   -0.31170077     0             -0.27138599    -0.0024763401 
   9443000   0.049401477   -0.31090214     0             -0.27158166     0.0026438877 
   9444000   0.049478547   -0.31133679     0             -0.27195496     0.0024774182 
   9445000   0.050715048   -0.31235955     0             -0.27199354    -0.00083484596
   9446000   0.048247803   -0.31176374     0             -0.2733615      0.004248988  
   9447000   0.049424513   -0.31127722     0             -0.2719384      0.00098971271
   9448000   0.051555097   -0.30659958     0             -0.26556494    -0.0036871504 
   9449000   0.051619807   -0.31047118     0             -0.26938504    -0.0035655515 
   9450000   0.050698225   -0.30940342     0             -0.2690508     -0.0071254529 
   9451000   0.050959225   -0.31096952     0             -0.27040916    -0.005666384  
   9452000   0.048679042   -0.3095019      0             -0.27075643     0.00066341164
   9453000   0.048862874   -0.31059209     0             -0.27170029    -0.0039276419 
   9454000   0.05044624    -0.31073003     0             -0.27057797     0.0037914561 
   9455000   0.048439019   -0.31023052     0             -0.27167609    -0.0021815715 
   9456000   0.049768401   -0.31114994     0             -0.2715374     -0.0044385014 
   9457000   0.050764593   -0.31081088     0             -0.27040543     0.00043332027
   9458000   0.050940902   -0.31097919     0             -0.27043341     0.0011515807 
   9459000   0.05044968    -0.31021957     0             -0.27006477     0.00089741972
   9460000   0.050531558   -0.31092194     0             -0.27070198     0.0041333039 
   9461000   0.051666699   -0.31044005     0             -0.26931659    -0.0054176948 
   9462000   0.047920101   -0.31042458     0             -0.27228318     0.0024029917 
   9463000   0.050351332   -0.31101463     0             -0.27093811     0.0012159584 
   9464000   0.049367969   -0.31124422     0             -0.2719504     -0.0024612155 
   9465000   0.053369049   -0.31107779     0             -0.26859936    -0.00046345809
   9466000   0.049980015   -0.30538791     0             -0.26560695     0.0026995467 
   9467000   0.053227608   -0.31058489     0             -0.26821904    -0.0084685843 
   9468000   0.054052145   -0.30962874     0             -0.26660662    -0.0066773804 
   9469000   0.049127086   -0.30987506     0             -0.27077297    -0.0052969793 
   9470000   0.050455905   -0.31100772     0             -0.27084797    -0.0059943971 
   9471000   0.051740769   -0.31082649     0             -0.26964407    -0.0050793653 
   9472000   0.048281429   -0.30955938     0             -0.27113038    -0.0065911267 
   9473000   0.051462231   -0.30510198     0             -0.26414126    -0.00061185472
   9474000   0.049567306   -0.3101851      0             -0.27073262     0.0084823762 
   9475000   0.050063687   -0.30973487     0             -0.26988731     0.0073612766 
   9476000   0.050181361   -0.30946651     0             -0.26952528    -0.0065607198 
   9477000   0.050371323   -0.31074003     0             -0.2706476     -0.0063006514 
   9478000   0.048370897   -0.3109433      0             -0.27244309     0.0013438846 
   9479000   0.050436508   -0.30983749     0             -0.26969318    -0.0016866445 
   9480000   0.051599989   -0.30987813     0             -0.26880777    -0.0018110487 
   9481000   0.048761189   -0.31053939     0             -0.27172853     0.0056675369 
   9482000   0.048890906   -0.31067622     0             -0.27176211    -0.0038682828 
   9483000   0.048306129   -0.31072142     0             -0.27227276     0.0024698854 
   9484000   0.048830975   -0.31101416     0             -0.27214776    -0.0062813289 
   9485000   0.050655995   -0.31071331     0             -0.27039431    -0.0024853406 
   9486000   0.049199305   -0.30988787     0             -0.2707283     -0.0035656294 
   9487000   0.051135465   -0.31105023     0             -0.27034959    -0.0081827868 
   9488000   0.050696174   -0.31072844     0             -0.27037745     0.0075367135 
   9489000   0.049787564   -0.31088376     0             -0.27125598     0.0078260252 
   9490000   0.048326192   -0.31103955     0             -0.27257492    -0.0019818201 
   9491000   0.050575886   -0.3100772      0             -0.26982196     0.0013837469 
   9492000   0.04945639    -0.31066067     0             -0.27129647     0.00018326743
   9493000   0.051345845   -0.30998621     0             -0.26911813     0.0059253489 
   9494000   0.049466847   -0.31053756     0             -0.27116505     0.0041991386 
   9495000   0.049494985   -0.31043165     0             -0.27103673    -0.0022009397 
   9496000   0.04915339    -0.31040667     0             -0.27128365    -0.0014034607 
   9497000   0.051607172   -0.30848304     0             -0.26740696    -0.00288682   
   9498000   0.051073551   -0.31118349     0             -0.27053214     0.0034133591 
   9499000   0.051545599   -0.30426312     0             -0.26323605     0.0028080219 
   9500000   0.050501409   -0.30993332     0             -0.26973735     0.0043148483 
   9501000   0.049131983   -0.30912712     0             -0.27002113    -0.0013402198 
   9502000   0.048786167   -0.31011014     0             -0.2712794      0.0079700765 
   9503000   0.049697498   -0.31057636     0             -0.27102026     0.0084615832 
   9504000   0.051268099   -0.3097845      0             -0.2689783      0.0020251091 
   9505000   0.047119816   -0.30917812     0             -0.2716737     -0.0005632302 
   9506000   0.050846386   -0.31081593     0             -0.27034539     0.0011292868 
   9507000   0.049815313   -0.3103983      0             -0.27074843     0.00045211509
   9508000   0.04643634    -0.31108943     0             -0.274129       0.00018705189
   9509000   0.051289602   -0.31104248     0             -0.27021917    -0.004206176  
   9510000   0.049019751   -0.3099877      0             -0.27097104     0.0072473921 
   9511000   0.048021801   -0.3111543      0             -0.27293195     0.00039823965
   9512000   0.049414073   -0.31075889     0             -0.27142838     0.00062840282
   9513000   0.052778862   -0.31232498     0             -0.27031631    -0.0002076755 
   9514000   0.050498818   -0.31022483     0             -0.27003092     0.0016297608 
   9515000   0.048590349   -0.3101975      0             -0.27152262     0.0061245368 
   9516000   0.049645635   -0.3107619      0             -0.27124707     0.0042432705 
   9517000   0.053090811   -0.3107849      0             -0.26852793    -0.0011133053 
   9518000   0.050347522   -0.31198682     0             -0.27191333     0.0047643834 
   9519000   0.049329628   -0.31113707     0             -0.27187377     0.00016996175
   9520000   0.04837601    -0.31261379     0             -0.27410951    -0.00069731334
   9521000   0.050038939   -0.31211918     0             -0.27229131    -0.0043105708 
   9522000   0.049791753   -0.31314644     0             -0.27351532     0.0035427319 
   9523000   0.046017398   -0.31193049     0             -0.27530352    -0.002445431  
   9524000   0.049049796   -0.30618733     0             -0.26714676    -0.00072397491
   9525000   0.050804805   -0.31270924     0             -0.27227179    -0.0041822088 
   9526000   0.047564084   -0.31119711     0             -0.27333907    -0.0042416145 
   9527000   0.052217542   -0.3125063      0             -0.2709444     -0.0068080561 
   9528000   0.050668183   -0.31221085     0             -0.27188214     0.0018915005 
   9529000   0.049590565   -0.3081237      0             -0.26865271     0.0023029388 
   9530000   0.050925837   -0.31245371     0             -0.27191993    -0.01439644   
   9531000   0.049706347   -0.30862368     0             -0.26906054    -0.0030258463 
   9532000   0.050548466   -0.31264938     0             -0.27241596    -0.0014499253 
   9533000   0.049209828   -0.31238419     0             -0.27321624     0.0013283073 
   9534000   0.049441781   -0.31208555     0             -0.27273299    -0.0030538602 
   9535000   0.049927017   -0.31063031     0             -0.27089152    -0.0017133562 
   9536000   0.051113915   -0.31113886     0             -0.27045538    -0.00059740624
   9537000   0.05157435    -0.31323714     0             -0.27218718     0.008458946  
   9538000   0.053528955   -0.30650161     0             -0.26389591    -0.0011020025 
   9539000   0.050880153   -0.30543477     0             -0.26493735     0.0061552373 
   9540000   0.05163033    -0.31212263     0             -0.27102811     0.0081414821 
   9541000   0.04822593    -0.31407353     0             -0.2756887     -0.0084345197 
   9542000   0.049307685   -0.31228797     0             -0.27304214     0.0071443992 
   9543000   0.05216668    -0.31227971     0             -0.27075829     0.0083660066 
   9544000   0.048641414   -0.31171446     0             -0.27299894    -0.00076953547
   9545000   0.048854425   -0.30440851     0             -0.26552344     0.00062975253
   9546000   0.051276279   -0.3129238      0             -0.27211109     0.0035906847 
   9547000   0.051910977   -0.31265429     0             -0.2713364     -0.0011526859 
   9548000   0.04833091    -0.31259928     0             -0.2741309      0.0050870888 
   9549000   0.05072002    -0.31176623     0             -0.27139626     0.0039299461 
   9550000   0.05089252    -0.30004386     0             -0.25953659    -0.0021602726 
   9551000   0.049231368   -0.31395278     0             -0.27476769     0.0078672996 
   9552000   0.048536244   -0.31210406     0             -0.27347224    -0.00068272045
   9553000   0.05119535    -0.31042692     0             -0.26967862     0.00034955054
   9554000   0.051759937   -0.31224793     0             -0.27105025    -0.002119005  
   9555000   0.051699901   -0.31261481     0             -0.27146492     0.0025588195 
   9556000   0.048988091   -0.31115694     0             -0.27216548     0.010088042  
   9557000   0.050005049   -0.31158235     0             -0.27178146    -0.010636963  
   9558000   0.049565259   -0.30811791     0             -0.26866706    -0.0022873609 
   9559000   0.051590275   -0.31267652     0             -0.27161389    -0.0048171989 
   9560000   0.049571349   -0.31105454     0             -0.27159884     0.00074616942
   9561000   0.048098763   -0.31236796     0             -0.27408435    -0.0079776153 
   9562000   0.051231943   -0.31202509     0             -0.27124766     0.0017640602 
   9563000   0.050049099   -0.31142443     0             -0.27158848     0.0033386639 
   9564000   0.048941407   -0.31112765     0             -0.27217334    -0.0076630531 
   9565000   0.051912124   -0.31104499     0             -0.26972619     0.00042390611
   9566000   0.049653031   -0.31099455     0             -0.27147384     0.0050280642 
   9567000   0.050277859   -0.310138       0             -0.27011997    -0.0010067444 
   9568000   0.050212856   -0.31109678     0             -0.27113048     0.0029615376 
   9569000   0.051312954   -0.30979097     0             -0.26894907    -0.004651754  
   9570000   0.048319194   -0.30500385     0             -0.26654479    -0.004698891  
   9571000   0.050239841   -0.30741995     0             -0.26743218    -0.0038804899 
   9572000   0.049121233   -0.31185214     0             -0.27275471     0.00061014891
   9573000   0.050671657   -0.30951574     0             -0.26918427    -0.0013749228 
   9574000   0.051372689   -0.30819139     0             -0.26730194     0.0086920661 
   9575000   0.048478878   -0.31048446     0             -0.2718983      0.0024344531 
   9576000   0.050139969   -0.31065232     0             -0.27074404    -0.0058909196 
   9577000   0.04931889    -0.31083202     0             -0.27157727     0.0036028418 
   9578000   0.051929818   -0.31013831     0             -0.26880542     0.0036021081 
   9579000   0.049795975   -0.31007369     0             -0.27043921     0.004126993  
   9580000   0.05082345    -0.3110322      0             -0.27057991    -0.0018160003 
   9581000   0.049586423   -0.31066328     0             -0.27119558    -0.0020266855 
   9582000   0.051447942   -0.31047031     0             -0.26952096    -0.00025437727
   9583000   0.05263361    -0.3112933      0             -0.26940024     0.0050131817 
   9584000   0.051091193   -0.30980932     0             -0.26914393     0.0035138525 
   9585000   0.052235143   -0.30256518     0             -0.26098927     0.00059610883
   9586000   0.049442545   -0.3040294      0             -0.26467622     0.0035643756 
   9587000   0.049244844   -0.30839797     0             -0.26920215    -0.0010166574 
   9588000   0.050194539   -0.30809237     0             -0.26814065     0.0042232236 
   9589000   0.052242886   -0.30855735     0             -0.26697528     0.003508102  
   9590000   0.049860066   -0.30759057     0             -0.26790507    -0.0046503816 
   9591000   0.049805408   -0.30883345     0             -0.26919146     0.0017645948 
   9592000   0.051461305   -0.30133479     0             -0.2603748     -0.0047826498 
   9593000   0.048732117   -0.3083872      0             -0.26959948     0.0065652906 
   9594000   0.0495667     -0.30862592     0             -0.26917392     0.0018350696 
   9595000   0.048746347   -0.30838681     0             -0.26958776    -0.0034575216 
   9596000   0.051316208   -0.30780923     0             -0.26696473    -0.00019316326
   9597000   0.049584965   -0.30893122     0             -0.26946469     0.0026886657 
   9598000   0.051161453   -0.30935054     0             -0.26862922    -0.0050584882 
   9599000   0.050372275   -0.30888208     0             -0.26878889     0.0024742723 
   9600000   0.048369909   -0.30818507     0             -0.26968565     0.012966016  
   9601000   0.049535184   -0.3096475      0             -0.27022059     0.00060229739
   9602000   0.050392031   -0.30964473     0             -0.26953582     0.00075951864
   9603000   0.053441264   -0.30814027     0             -0.26560436     0.00031002059
   9604000   0.046144491   -0.30777166     0             -0.27104353    -0.00024221123
   9605000   0.051948693   -0.3076304      0             -0.26628248    -0.00450955   
   9606000   0.048052027   -0.30875758     0             -0.27051117    -0.00062659161
   9607000   0.05069387    -0.30850287     0             -0.26815372    -0.0044392938 
   9608000   0.049199069   -0.30148471     0             -0.26232532    -0.0023492242 
   9609000   0.051147378   -0.3066352      0             -0.26592509     0.0016891064 
   9610000   0.048899046   -0.30890014     0             -0.26997956    -0.0023287064 
   9611000   0.049638483   -0.30971671     0             -0.27020758     0.008163853  
   9612000   0.051147903   -0.30897509     0             -0.26826455    -0.0017730555 
   9613000   0.051569342   -0.30939826     0             -0.26835229    -0.0031979664 
   9614000   0.049044044   -0.30872056     0             -0.26968456     0.00469025   
   9615000   0.050772377   -0.30923958     0             -0.26882794     0.003368285  
   9616000   0.05045132    -0.31115968     0             -0.27100359     0.0060433844 
   9617000   0.051923291   -0.31131585     0             -0.26998816    -0.0043356486 
   9618000   0.050648362   -0.31101473     0             -0.2707018     -0.0015605764 
   9619000   0.049847052   -0.31070132     0             -0.27102618    -0.0001087335 
   9620000   0.049957598   -0.31036375     0             -0.27060062    -0.0095504535 
   9621000   0.052259671   -0.3098391      0             -0.26824367     0.0022464666 
   9622000   0.049999724   -0.31150952     0             -0.27171286    -0.0040734095 
   9623000   0.050237811   -0.30411886     0             -0.26413271    -0.0088171688 
   9624000   0.049751907   -0.31364965     0             -0.27405025    -0.0069656907 
   9625000   0.049748848   -0.31320061     0             -0.27360364     0.0021309664 
   9626000   0.050806715   -0.31198415     0             -0.27154518    -0.0015898038 
   9627000   0.048186892   -0.31327988     0             -0.27492612     0.0019778452 
   9628000   0.050550111   -0.31139116     0             -0.27115644     0.00067765604
   9629000   0.048744108   -0.3123794      0             -0.27358214     0.011687868  
   9630000   0.050260083   -0.31307805     0             -0.27307417    -0.003395447  
   9631000   0.050202751   -0.31280544     0             -0.27284719     0.00033718417
   9632000   0.050654597   -0.31110863     0             -0.27079073     0.00018472788
   9633000   0.048982723   -0.30986407     0             -0.27087689    -0.006079978  
   9634000   0.050728718   -0.31213754     0             -0.27176065    -0.0067261563 
   9635000   0.05049928    -0.30056158     0             -0.2603673     -0.0011734608 
   9636000   0.049875939   -0.31160366     0             -0.27190553    -0.0025272432 
   9637000   0.048386765   -0.31327425     0             -0.2747614      0.0038558524 
   9638000   0.046594102   -0.31369826     0             -0.27661227     0.0058564234 
   9639000   0.049750779   -0.31404883     0             -0.27445032    -0.0015996963 
   9640000   0.04991177    -0.31402408     0             -0.27429743     0.0023502637 
   9641000   0.054851367   -0.31292344     0             -0.26926518    -0.0021898736 
   9642000   0.047262329   -0.31296579     0             -0.27534793    -0.0050748794 
   9643000   0.05065411    -0.31258462     0             -0.27226711     0.007040714  
   9644000   0.050630323   -0.31060922     0             -0.27031065     0.00060243861
   9645000   0.053079695   -0.31068096     0             -0.26843284    -0.0019546507 
   9646000   0.050285775   -0.3123024      0             -0.27227807     0.0016834967 
   9647000   0.050301015   -0.31314009     0             -0.27310363    -0.0026104339 
   9648000   0.049098926   -0.31076634     0             -0.27168667     0.00045170184
   9649000   0.048123262   -0.31233905     0             -0.27403594     0.0004355092 
   9650000   0.052685668   -0.31207856     0             -0.27014406    -0.0035444602 
   9651000   0.048969986   -0.30526831     0             -0.26629126    -0.0020892337 
   9652000   0.04971691    -0.31164944     0             -0.27207788     0.0048668129 
   9653000   0.048898035   -0.31246711     0             -0.27354733     0.0015412919 
   9654000   0.048920094   -0.30975374     0             -0.2708164      0.0057120461 
   9655000   0.050904734   -0.31173482     0             -0.27121784     0.0069816278 
   9656000   0.047507891   -0.3123124      0             -0.27449909    -0.0090525344 
   9657000   0.052554009   -0.31199373     0             -0.27016402     0.0026591258 
   9658000   0.049848901   -0.31079255     0             -0.27111594     0.0040097729 
   9659000   0.05088529    -0.31212084     0             -0.27161932     0.0051677868 
   9660000   0.048544417   -0.31106297     0             -0.27242464     0.0010427639 
   9661000   0.049267783   -0.31103864     0             -0.27182456     0.0026249122 
   9662000   0.051208763   -0.30706906     0             -0.26631009     0.00014803951
   9663000   0.052098358   -0.30318768     0             -0.26172064     0.011528747  
   9664000   0.050997362   -0.31116693     0             -0.27057622    -0.00012855723
   9665000   0.049849059   -0.31056593     0             -0.27088919     0.0029461289 
   9666000   0.049325203   -0.31182807     0             -0.2725683     -0.0043826551 
   9667000   0.047778415   -0.30733178     0             -0.26930315     0.0074426197 
   9668000   0.051094715   -0.31093587     0             -0.27026767     0.0017459202 
   9669000   0.048375733   -0.31029939     0             -0.27179533    -0.0030290001 
   9670000   0.047559086   -0.31143867     0             -0.27358461     0.0039196258 
   9671000   0.050101894   -0.31059736     0             -0.27071939    -0.0048141877 
   9672000   0.048114302   -0.3111144      0             -0.27281843    -0.00039009713
   9673000   0.049523164   -0.31050991     0             -0.27109257    -0.0019607245 
   9674000   0.047695272   -0.31072232     0             -0.27275987    -0.00041616246
   9675000   0.052219702   -0.31067171     0             -0.26910809     0.0033166727 
   9676000   0.049681413   -0.31090986     0             -0.27136656     0.0053901441 
   9677000   0.050009661   -0.31069457     0             -0.27089001     0.0039525417 
   9678000   0.051347005   -0.30603156     0             -0.26516255    -0.006149498  
   9679000   0.051083519   -0.30928053     0             -0.26862124     0.00017602216
   9680000   0.049925725   -0.31062274     0             -0.27088498    -0.0051634172 
   9681000   0.050355011   -0.31141451     0             -0.27133507    -0.0067062051 
   9682000   0.050754799   -0.31057181     0             -0.27017417    -0.0029415657 
   9683000   0.049168939   -0.31051875     0             -0.27138335    -0.0055535098 
   9684000   0.049054632   -0.31086727     0             -0.27182285    -0.0050972999 
   9685000   0.049345628   -0.31077746     0             -0.27150143    -0.00079210512
   9686000   0.050401067   -0.31177392     0             -0.27165782     0.0050306893 
   9687000   0.050438142   -0.31019063     0             -0.27004502     0.002326892  
   9688000   0.052752062   -0.30393329     0             -0.26194595     0.002691984  
   9689000   0.048706461   -0.3103385      0             -0.2715712      0.0043263319 
   9690000   0.051911142   -0.30503705     0             -0.26371902    -0.0080698009 
   9691000   0.050998964   -0.30598113     0             -0.26538914    -0.0068293481 
   9692000   0.049966099   -0.30926081     0             -0.26949092    -0.0040166782 
   9693000   0.05147755    -0.3095769      0             -0.26860399     0.0010265179 
   9694000   0.051001593   -0.31018138     0             -0.2695873      0.0022182045 
   9695000   0.050077842   -0.30954235     0             -0.26968352    -0.0031292607 
   9696000   0.052063354   -0.30351061     0             -0.26207144     0.0021493885 
   9697000   0.05017921    -0.30843953     0             -0.26850002    -0.0036229041 
   9698000   0.05010489    -0.30952537     0             -0.269645      -0.0045120156 
   9699000   0.051674301   -0.30962937     0             -0.26849985    -0.0052281139 
   9700000   0.05196143    -0.3106848      0             -0.26932675    -0.0060747305 
   9701000   0.048639894   -0.30924724     0             -0.27053292     0.00030321747
   9702000   0.048169344   -0.30460885     0             -0.26626906     0.0023175075 
   9703000   0.04989352    -0.30988614     0             -0.27017401     0.0034758803 
   9704000   0.050741445   -0.30667945     0             -0.26629243    -0.0021350333 
   9705000   0.050381149   -0.30967481     0             -0.26957457     0.0077450155 
   9706000   0.051615986   -0.30920068     0             -0.26811759     0.0057662332 
   9707000   0.04758052    -0.31001306     0             -0.27214194     0.00031005809
   9708000   0.049382555   -0.30828076     0             -0.26897533    -0.0035014058 
   9709000   0.048503655   -0.30973921     0             -0.27113333    -0.0020732363 
   9710000   0.050143168   -0.31084623     0             -0.2709354      0.0056641495 
   9711000   0.049442118   -0.31056825     0             -0.27121541     0.002169496  
   9712000   0.049662721   -0.31019848     0             -0.27067005     0.0046292337 
   9713000   0.051229895   -0.30288139     0             -0.2621056     -0.0019063205 
   9714000   0.04847745    -0.31000359     0             -0.27141857     0.0044243097 
   9715000   0.0481896     -0.31068413     0             -0.27232822    -0.00061094368
   9716000   0.049661868   -0.31007393     0             -0.27054619     0.0052623055 
   9717000   0.051914153   -0.30989294     0             -0.26857252    -0.0010223552 
   9718000   0.049915638   -0.30977062     0             -0.2700409      0.00077007579
   9719000   0.049037001   -0.31054433     0             -0.27151394    -0.0011703341 
   9720000   0.052408858   -0.31029641     0             -0.26858223    -0.00025601172
   9721000   0.049680087   -0.31049738     0             -0.27095513     0.0042459952 
   9722000   0.051622915   -0.31021262     0             -0.26912401     0.00087342882
   9723000   0.049915184   -0.31002061     0             -0.27029124    -0.0047690482 
   9724000   0.049979461   -0.30810029     0             -0.26831977     0.0050035504 
   9725000   0.051215909   -0.30877331     0             -0.26800865     0.0051883146 
   9726000   0.051716846   -0.30836752     0             -0.26720414     0.0040892426 
   9727000   0.049525809   -0.30830912     0             -0.26888967    -0.00452423   
   9728000   0.050820249   -0.30834518     0             -0.26789544    -0.0016944945 
   9729000   0.047638803   -0.3080925      0             -0.27017499     0.0031804709 
   9730000   0.052622814   -0.30737735     0             -0.26549288    -0.0079416588 
   9731000   0.051171549   -0.29923446     0             -0.25850511     0.0040542235 
   9732000   0.050212728   -0.30882121     0             -0.26885501    -0.0089180038 
   9733000   0.052295845   -0.30715418     0             -0.26552995     0.00070284204
   9734000   0.054804342   -0.30847083     0             -0.26485        0.001364271  
   9735000   0.048850753   -0.30331019     0             -0.26442804     0.0074856039 
   9736000   0.051652185   -0.30308797     0             -0.26197606    -0.0014690371 
   9737000   0.048656453   -0.30738137     0             -0.26865387     0.002685335  
   9738000   0.049270379   -0.30751733     0             -0.26830118    -0.0048512685 
   9739000   0.051824888   -0.30824608     0             -0.26699671     0.0037313985 
   9740000   0.051284319   -0.30902495     0             -0.26820584     0.00015970192
   9741000   0.052188499   -0.30903535     0             -0.26749657    -0.0032402956 
   9742000   0.047029569   -0.31010521     0             -0.27267261     0.00086522765
   9743000   0.051673538   -0.30889116     0             -0.26776226    -0.0023776251 
   9744000   0.047711037   -0.30859094     0             -0.27061594     0.0011049613 
   9745000   0.047546942   -0.30734736     0             -0.26950296     0.0049595164 
   9746000   0.051581643   -0.30564666     0             -0.2645909      0.0073277979 
   9747000   0.049201917   -0.30988219     0             -0.27072054    -0.0030225419 
   9748000   0.05062075    -0.30788385     0             -0.2675929     -0.0041285953 
   9749000   0.049123954   -0.30896802     0             -0.26986842    -0.0064428228 
   9750000   0.049528287   -0.30351541     0             -0.26409399     0.0045942716 
   9751000   0.048824755   -0.30897186     0             -0.2701104     -0.0001106142 
   9752000   0.049696466   -0.30986697     0             -0.27031169    -0.0034431068 
   9753000   0.051649345   -0.30934594     0             -0.26823629     0.00057158181
   9754000   0.049982954   -0.30849078     0             -0.26870747    -0.0001921421 
   9755000   0.053396411   -0.30273599     0             -0.26023578     0.0070629882 
   9756000   0.051072552   -0.3085771      0             -0.26792654     0.0021488172 
   9757000   0.050180363   -0.30945598     0             -0.26951555     0.0024527744 
   9758000   0.048378634   -0.30939362     0             -0.27088725    -0.0020696082 
   9759000   0.05017394    -0.31018851     0             -0.27025319    -0.0021222054 
   9760000   0.049551088   -0.30933369     0             -0.26989413    -0.0043309049 
   9761000   0.051871072   -0.30908185     0             -0.26779572    -0.0065138364 
   9762000   0.048180932   -0.30805051     0             -0.2697015     -7.8703855e-05
   9763000   0.049006068   -0.3101636      0             -0.27115783    -0.0054025525 
   9764000   0.05177522    -0.3071592      0             -0.26594936    -0.0032374098 
   9765000   0.051775723   -0.3066183      0             -0.26540806    -0.0039928764 
   9766000   0.05026308    -0.30914977     0             -0.2691435      0.0029360596 
   9767000   0.050003943   -0.3097096      0             -0.26990958     0.0051040818 
   9768000   0.050359852   -0.30982451     0             -0.26974122     0.003863447  
   9769000   0.048414779   -0.31048991     0             -0.27195477     0.0054567722 
   9770000   0.050105614   -0.31160044     0             -0.27171951     0.0038857591 
   9771000   0.052935849   -0.31098915     0             -0.26885552    -0.0028601457 
   9772000   0.050290254   -0.30812132     0             -0.26809343    -0.0025390954 
   9773000   0.049679159   -0.30572533     0             -0.26618382     0.0038158138 
   9774000   0.05014316    -0.31103419     0             -0.27112337    -0.00021003957
   9775000   0.050253891   -0.31168959     0             -0.27169063     0.0027689477 
   9776000   0.049828372   -0.31078915     0             -0.27112888     0.0021782179 
   9777000   0.04708409    -0.31009699     0             -0.272621      -0.0015979207 
   9778000   0.049533175   -0.31134265     0             -0.27191734     0.0071167819 
   9779000   0.047068158   -0.31082489     0             -0.27336158     0.0054856186 
   9780000   0.050541894   -0.31094058     0             -0.27071239     0.0040897803 
   9781000   0.04965106    -0.30885969     0             -0.26934055    -0.0022080396 
   9782000   0.049957261   -0.3102688      0             -0.27050594     0.0021197944 
   9783000   0.0479892     -0.31086419     0             -0.27266778    -0.0021560773 
   9784000   0.051262185   -0.31010843     0             -0.26930693     0.0072537671 
   9785000   0.051972645   -0.3111101      0             -0.26974313     0.00092463343
   9786000   0.051026795   -0.31137051     0             -0.27075637     0.0012482898 
   9787000   0.048757456   -0.30965004     0             -0.27084215    -0.0026142173 
   9788000   0.052547238   -0.31055362     0             -0.2687293      0.0005516827 
   9789000   0.050457398   -0.31042231     0             -0.27026137    -0.0092024286 
   9790000   0.052308335   -0.31072429     0             -0.26909012     0.0029904334 
   9791000   0.052193512   -0.30459423     0             -0.26305145    -0.0015201976 
   9792000   0.050409742   -0.31048143     0             -0.27035843     0.0011381374 
   9793000   0.050727679   -0.31152201     0             -0.27114595    -0.0047234466 
   9794000   0.04927466    -0.31174956     0             -0.27253001     0.0044114692 
   9795000   0.049328631   -0.31106119     0             -0.27179868    -0.0034488146 
   9796000   0.051276848   -0.31138197     0             -0.27056881     0.010821616  
   9797000   0.049424278   -0.31161002     0             -0.27227138    -0.0028045984 
   9798000   0.047527915   -0.31089191     0             -0.27306266     0.0054874925 
   9799000   0.048169462   -0.31160403     0             -0.27326415     0.002041528  
   9800000   0.048439973   -0.30975155     0             -0.27119636     0.0034462488 
   9801000   0.050716561   -0.31124782     0             -0.27088061    -0.0083830799 
   9802000   0.051119324   -0.3112729      0             -0.27058511    -0.0015218206 
   9803000   0.047035889   -0.31145878     0             -0.27402115     0.0039156876 
   9804000   0.049532753   -0.31161807     0             -0.27219309     1.949107e-06 
   9805000   0.050224047   -0.31136236     0             -0.27138715     0.0018514549 
   9806000   0.053789004   -0.31088133     0             -0.26806864     0.0010010033 
   9807000   0.049258116   -0.31171482     0             -0.27250844     0.0075377174 
   9808000   0.047632019   -0.31145386     0             -0.27354175    -0.0037789179 
   9809000   0.053405974   -0.31170901     0             -0.26920119    -0.0035395025 
   9810000   0.049293551   -0.31269107     0             -0.27345648    -0.00093592108
   9811000   0.051286156   -0.30875459     0             -0.26793401    -0.006412705  
   9812000   0.049537373   -0.31062504     0             -0.27119638    -0.011944733  
   9813000   0.04951528    -0.31242719     0             -0.27301612     0.00199538   
   9814000   0.050831161   -0.31223529     0             -0.27177686    -0.0052357285 
   9815000   0.050232984   -0.31161855     0             -0.27163623    -0.005595546  
   9816000   0.051989702   -0.31048511     0             -0.26910456    -0.0042657859 
   9817000   0.047234635   -0.30689479     0             -0.26929898     0.0033543769 
   9818000   0.05024529    -0.30970577     0             -0.26971366    -0.004477173  
   9819000   0.050940743   -0.31176997     0             -0.27122432     0.0018679131 
   9820000   0.050235129   -0.31394412     0             -0.2739601      0.001344102  
   9821000   0.050544797   -0.31177905     0             -0.27154855     0.0022666562 
   9822000   0.050685849   -0.30511575     0             -0.26477298     0.012427397  
   9823000   0.055487049   -0.30656516     0             -0.26240094     0.0046999027 
   9824000   0.049725128   -0.31160546     0             -0.27202736    -0.0010972133 
   9825000   0.048983654   -0.31103431     0             -0.27204638    -0.0015137005 
   9826000   0.049773287   -0.31047774     0             -0.27086131     0.0079682376 
   9827000   0.052249175   -0.31237844     0             -0.27079136     0.0063874746 
   9828000   0.049828099   -0.31271463     0             -0.27305458    -0.00095846184
   9829000   0.049224708   -0.31140933     0             -0.27222954     0.0021031023 
   9830000   0.049781955   -0.31208624     0             -0.27246292    -0.00030854467
   9831000   0.050542826   -0.31225383     0             -0.2720249     -0.0098166522 
   9832000   0.05060283    -0.31320199     0             -0.2729253      0.002722109  
   9833000   0.051006714   -0.3131142      0             -0.27251604     0.0068698855 
   9834000   0.049229767   -0.31237247     0             -0.27318865    -0.0021130563 
   9835000   0.051317149   -0.31149041     0             -0.27064517    -0.0013343975 
   9836000   0.049260969   -0.3125225      0             -0.27331385     0.0068071336 
   9837000   0.049622412   -0.31218856     0             -0.27269222    -0.0024534962 
   9838000   0.050585707   -0.31095962     0             -0.27069656     0.0029540249 
   9839000   0.048693163   -0.31144611     0             -0.2726894     -0.0018238702 
   9840000   0.050135468   -0.31047068     0             -0.27056598     0.0040773274 
   9841000   0.050143039   -0.31214212     0             -0.27223139     0.00079598461
   9842000   0.049567806   -0.31111157     0             -0.2716587      0.0028303316 
   9843000   0.051032388   -0.31201015     0             -0.27139156    -0.0013750762 
   9844000   0.049530717   -0.31211108     0             -0.27268773     0.0028464718 
   9845000   0.049300872   -0.31156487     0             -0.27232445    -0.0045959036 
   9846000   0.050763987   -0.30866024     0             -0.26825528    -0.003083998  
   9847000   0.048803898   -0.31115942     0             -0.27231457    -0.0063915435 
   9848000   0.0508447     -0.31195641     0             -0.27148721     0.0026909228 
   9849000   0.047787126   -0.3101903      0             -0.27215473     0.0050646568 
   9850000   0.049971184   -0.31061825     0             -0.27084431     0.01037112   
   9851000   0.051451881   -0.31153274     0             -0.27058026    -0.0044276238 
   9852000   0.0523336     -0.30808967     0             -0.26643539    -0.0079578646 
   9853000   0.053747188   -0.31103272     0             -0.26825331     0.0042798656 
   9854000   0.049571547   -0.30701084     0             -0.26755499    -0.00056995406
   9855000   0.051752128   -0.31303195     0             -0.27184049     0.0005594882 
   9856000   0.050957162   -0.31192256     0             -0.27136385     0.00013529285
   9857000   0.048873943   -0.31095539     0             -0.27205479     0.0021703697 
   9858000   0.050578293   -0.31305416     0             -0.272797       0.0027607745 
   9859000   0.051561644   -0.31157455     0             -0.2705347      0.003985988  
   9860000   0.050546879   -0.31074688     0             -0.27051472    -0.0076790134 
   9861000   0.048169448   -0.31206833     0             -0.27372846     0.0022270455 
   9862000   0.052254474   -0.30424471     0             -0.26265342     0.0083113485 
   9863000   0.051479474   -0.31141236     0             -0.27043792    -0.0013410392 
   9864000   0.049980183   -0.30659402     0             -0.26681292    -0.0013794112 
   9865000   0.050129331   -0.31129499     0             -0.27139518    -0.00012303073
   9866000   0.051535953   -0.31143744     0             -0.27041804    -0.0046290251 
   9867000   0.049555912   -0.31135162     0             -0.27190821     0.0040656633 
   9868000   0.050736255   -0.30788121     0             -0.26749832    -0.0068732287 
   9869000   0.051815419   -0.3054206      0             -0.26417876     0.0036194755 
   9870000   0.052792957   -0.31205785     0             -0.27003795     0.0079107095 
   9871000   0.049049903   -0.31273261     0             -0.27369195    -0.0031656152 
   9872000   0.048136478   -0.31145916     0             -0.27314553     0.00057086677
   9873000   0.048051881   -0.30516893     0             -0.26692264    -0.0058809128 
   9874000   0.05215813    -0.31117998     0             -0.26966537     0.00058705022
   9875000   0.052457203   -0.31020966     0             -0.268457       0.0057595811 
   9876000   0.050926438   -0.31117518     0             -0.27064092    -0.003164591  
   9877000   0.049634656   -0.31112928     0             -0.2716232      0.0014770006 
   9878000   0.04812118    -0.30988621     0             -0.27158476     0.003093226  
   9879000   0.047652315   -0.31095899     0             -0.27303072    -0.0081321469 
   9880000   0.051229706   -0.31138925     0             -0.27061361     0.0030836755 
   9881000   0.051084007   -0.31145463     0             -0.27079495     0.0032562162 
   9882000   0.054022166   -0.3067003      0             -0.26370204    -0.0014329714 
   9883000   0.051386164   -0.31137102     0             -0.27047084     0.0094984451 
   9884000   0.052603479   -0.29976819     0             -0.25789911    -0.0030864173 
   9885000   0.053123988   -0.31197569     0             -0.26969231     0.0028016617 
   9886000   0.049230012   -0.31199634     0             -0.27281233     0.0011372925 
   9887000   0.050498443   -0.3127785      0             -0.2725849      0.00013300708
   9888000   0.052435291   -0.3128224      0             -0.27108718     0.003315486  
   9889000   0.050770421   -0.31156703     0             -0.27115695    -0.0058131942 
   9890000   0.050304989   -0.31212129     0             -0.27208166    -0.0072941272 
   9891000   0.050433943   -0.31146392     0             -0.27132165     0.0021131874 
   9892000   0.048165457   -0.31154644     0             -0.27320974    -0.0028102218 
   9893000   0.05024659    -0.31109708     0             -0.27110394     0.0014278901 
   9894000   0.048667088   -0.31144892     0             -0.27271296     0.0044896172 
   9895000   0.049778408   -0.31300397     0             -0.27338347    -0.0072653428 
   9896000   0.049855367   -0.31094622     0             -0.27126446     0.006863114  
   9897000   0.05151298    -0.31217845     0             -0.27117734    -0.0030761009 
   9898000   0.050081787   -0.31223692     0             -0.27237495     0.0010774314 
   9899000   0.049643757   -0.31048708     0             -0.27097375     0.0023943854 
   9900000   0.049815123   -0.31268771     0             -0.27303799     0.0065374087 
   9901000   0.049165595   -0.31252419     0             -0.27339145     0.0013031644 
   9902000   0.051481583   -0.31362013     0             -0.272644       0.0048884408 
   9903000   0.046316321   -0.31219232     0             -0.27532742     0.0020429092 
   9904000   0.050468071   -0.31343275     0             -0.27326332    -0.0024752059 
   9905000   0.050018394   -0.31211089     0             -0.27229937     0.00093076256
   9906000   0.050627439   -0.31348202     0             -0.27318575    -0.0053991438 
   9907000   0.051056498   -0.31265163     0             -0.27201385     0.0066476127 
   9908000   0.051572019   -0.31311935     0             -0.27207124     0.001910939  
   9909000   0.050911788   -0.3125229      0             -0.2720003      3.1738651e-05
   9910000   0.05118444    -0.31227412     0             -0.2715345     -0.0043747446 
   9911000   0.048818237   -0.31206978     0             -0.27321351    -0.0026799423 
   9912000   0.051785368   -0.31029898     0             -0.26908106    -0.0052542564 
   9913000   0.047479859   -0.31114646     0             -0.27335546     0.00028478738
   9914000   0.048739913   -0.30998408     0             -0.27119015    -0.00070979586
   9915000   0.051384157   -0.31143993     0             -0.27054135     0.0010223681 
   9916000   0.048909067   -0.31037663     0             -0.27144807    -0.0083508754 
   9917000   0.048612369   -0.30359038     0             -0.26489798     0.0031090893 
   9918000   0.050556699   -0.30980068     0             -0.26956071    -0.010383794  
   9919000   0.050858152   -0.30945402     0             -0.26897411     0.0047729096 
   9920000   0.053298269   -0.31025666     0             -0.26783457     0.0086321565 
   9921000   0.049120591   -0.31276359     0             -0.27366667    -0.00079218161
   9922000   0.052253063   -0.31149619     0             -0.26990602     0.0045977243 
   9923000   0.050484395   -0.31204254     0             -0.27186012    -0.0035333192 
   9924000   0.049859646   -0.31277175     0             -0.27308659    -0.0084478271 
   9925000   0.050192295   -0.31189721     0             -0.27194729     0.0045485113 
   9926000   0.049300496   -0.31080489     0             -0.27156478     0.0015024347 
   9927000   0.051576502   -0.30513888     0             -0.26408721    -0.0048850253 
   9928000   0.050642987   -0.31150242     0             -0.27119377    -0.0050574309 
   9929000   0.048341057   -0.31024749     0             -0.27177103     0.0024580509 
   9930000   0.050475501   -0.31084887     0             -0.27067353    -0.0042199692 
   9931000   0.050140187   -0.3116917      0             -0.27178325     0.0019207524 
   9932000   0.047483995   -0.30173033     0             -0.26393604    -0.0037394275 
   9933000   0.048797861   -0.30548224     0             -0.26664219     0.0037654176 
   9934000   0.050344001   -0.31097928     0             -0.27090861    -0.0031173609 
   9935000   0.047352514   -0.30959154     0             -0.2719019      0.0061808759 
   9936000   0.048500276   -0.31043161     0             -0.27182842    -0.0027808368 
   9937000   0.050790425   -0.30893448     0             -0.26850848     0.0022229579 
   9938000   0.050794225   -0.30920398     0             -0.26877495    -0.0043778964 
   9939000   0.049157647   -0.31188601     0             -0.2727596     -0.00027205296
   9940000   0.049054598   -0.31056591     0             -0.27152151     0.0040378303 
   9941000   0.050296536   -0.31028588     0             -0.27025298     0.0084438583 
   9942000   0.050634789   -0.30989081     0             -0.26958869     0.004884162  
   9943000   0.051296535   -0.31098708     0             -0.27015824    -0.0046781413 
   9944000   0.049079193   -0.30925103     0             -0.27018706     0.0032245789 
   9945000   0.052503852   -0.31065005     0             -0.26886027    -0.00042653785
   9946000   0.049602429   -0.30497066     0             -0.26549023    -0.010474478  
   9947000   0.048791938   -0.31039353     0             -0.27155819     0.0066501539 
   9948000   0.052252221   -0.3118628      0             -0.2702733      0.0013132974 
   9949000   0.047454997   -0.298951       0             -0.26117979     0.0024078812 
   9950000   0.051633471   -0.31121042     0             -0.27011341    -0.0023693392 
   9951000   0.049690054   -0.31090441     0             -0.27135424     0.00439455   
   9952000   0.048122844   -0.31241886     0             -0.27411609     0.001083276  
   9953000   0.050388462   -0.31066459     0             -0.27055852    -0.0017481984 
   9954000   0.049569653   -0.31226339     0             -0.27280904    -0.0029829193 
   9955000   0.046930526   -0.29882003     0             -0.26146627    -0.0021680432 
   9956000   0.051857398   -0.31331263     0             -0.27203739     0.0044648912 
   9957000   0.050826298   -0.31106057     0             -0.27060601    -0.010690108  
   9958000   0.050508978   -0.31028442     0             -0.27008243    -0.0082462115 
   9959000   0.050068867   -0.31204805     0             -0.27219636     0.0011586736 
   9960000   0.051399422   -0.30638596     0             -0.26547523    -0.0002272691 
   9961000   0.050946614   -0.31138838     0             -0.27083806    -0.0030350646 
   9962000   0.051044435   -0.3078565      0             -0.26722832     0.0053439606 
   9963000   0.048435431   -0.31192182     0             -0.27337024    -0.0023841336 
   9964000   0.049140288   -0.31255155     0             -0.27343896     0.00055612392
   9965000   0.0524039     -0.31255556     0             -0.27084533    -0.0062955273 
   9966000   0.049429488   -0.31182212     0             -0.27247934    -0.0073397333 
   9967000   0.051797473   -0.3120013      0             -0.27077375    -0.0010803057 
   9968000   0.048083399   -0.31260823     0             -0.27433685    -0.001806807  
   9969000   0.050711942   -0.31195737     0             -0.27159384    -0.0019782164 
   9970000   0.048618907   -0.31193159     0             -0.27323398     0.0050039768 
   9971000   0.050498074   -0.31028574     0             -0.27009243     0.0027837425 
   9972000   0.0503508     -0.31203256     0             -0.27195647     0.0056309956 
   9973000   0.049495902   -0.31115072     0             -0.27175507     0.0077464855 
   9974000   0.050868136   -0.31144493     0             -0.27095708     0.0038240474 
   9975000   0.050839517   -0.30572136     0             -0.26525629     0.0040824649 
   9976000   0.048403772   -0.31193301     0             -0.27340663    -0.0022125157 
   9977000   0.05187699    -0.31221838     0             -0.27092753    -0.00089881154
   9978000   0.050325946   -0.30815406     0             -0.26809775    -0.0013240764 
   9979000   0.049499538   -0.31216886     0             -0.27277033     0.0012936802 
   9980000   0.05313305    -0.31159162     0             -0.26930103     0.0011465792 
   9981000   0.050511746   -0.31146049     0             -0.2712563     -0.0036494024 
   9982000   0.050000732   -0.31237398     0             -0.27257652    -0.0054948806 
   9983000   0.05112399    -0.30366533     0             -0.26297383     0.0017174455 
   9984000   0.050965575   -0.30554151     0             -0.2649761      0.0019907063 
   9985000   0.050068582   -0.31313741     0             -0.27328594    -0.0077288679 
   9986000   0.048698931   -0.31350134     0             -0.27474004    -0.0034534489 
   9987000   0.047619062   -0.31258204     0             -0.27468024    -0.0044743042 
   9988000   0.051012187   -0.3134378      0             -0.27283528     0.00072365522
   9989000   0.048558469   -0.31291255     0             -0.27426304     0.005355751  
   9990000   0.051228443   -0.30597286     0             -0.26519822    -0.0055938191 
   9991000   0.050231454   -0.31416115     0             -0.27418006     0.0012194554 
   9992000   0.049668443   -0.31369642     0             -0.27416344    -0.0014517812 
   9993000   0.050676334   -0.3133572      0             -0.273022       0.0070836928 
   9994000   0.050186801   -0.31347339     0             -0.27352783     0.0011478951 
   9995000   0.046678251   -0.31383316     0             -0.27668019     0.0016470396 
   9996000   0.049474316   -0.31330959     0             -0.27393113     0.0043579309 
   9997000   0.049516241   -0.3119912      0             -0.27257937    -0.0029805143 
   9998000   0.051566527   -0.31268794     0             -0.27164421     0.0006962346 
   9999000   0.048583388   -0.31274391     0             -0.27407457     0.0028297974 
  10000000   0.048269727   -0.3126976      0             -0.27427792    -0.0042117129 
Loop time of 1762.56 on 4 procs for 10000000 steps with 1600 atoms

Performance: 2450986.846 tau/day, 5673.581 timesteps/s, 9.078 Matom-step/s
89.5% CPU use with 4 MPI tasks x 1 OpenMP threads

MPI task timing breakdown:
Section |  min time  |  avg time  |  max time  |%varavg| %total
---------------------------------------------------------------
Pair    | 280.34     | 322.5      | 412.08     | 291.6 | 18.30
Bond    | 0.58798    | 0.60817    | 0.6314     |   2.4 |  0.03
Neigh   | 29.353     | 29.39      | 29.417     |   0.5 |  1.67
Comm    | 232.29     | 314.08     | 349.71     | 268.4 | 17.82
Output  | 3.4265     | 3.6489     | 3.8123     |   8.0 |  0.21
Modify  | 1050.1     | 1060.8     | 1070.8     |  22.5 | 60.19
Other   |            | 31.47      |            |       |  1.79

Nlocal:            400 ave         491 max         279 min
Histogram: 1 0 0 0 1 0 0 1 0 1
Nghost:         849.75 ave         927 max         763 min
Histogram: 1 0 0 0 1 0 1 0 0 1
Neighs:              0 ave           0 max           0 min
Histogram: 4 0 0 0 0 0 0 0 0 0
FullNghs:       4807.5 ave        6046 max        3035 min
Histogram: 1 0 0 0 1 0 0 0 0 2

Total # of neighbors = 19230
Ave neighs/atom = 12.01875
Ave special neighs/atom = 2.3125
Neighbor list builds = 26210
Dangerous builds = 0
Total wall time: 0:29:39
