LAMMPS (27 Jun 2024)
OMP_NUM_THREADS environment is not set. Defaulting to 1 thread. (src/comm.cpp:98)
  using 1 OpenMP thread(s) per MPI task
package omp 0
using multi-threaded neighbor list subroutines
# Script to create a Polymer using Patchy Particles (PP)
# It saves the last position of the particles with a cluster ID
# Types of Particles:
#   Cross linker:   PPA
#   Monomer:        PPB

# Parallel configuration with pacakge OPENMP
# RUN: env OMP_NUM_THREADS=Nthreads mpirun -np NProcs lmp -sf omp -in

# Initialization
units lj
dimension 3
boundary p p p

# Styles of atoms and that stuff
atom_style bond
bond_style zero nocoeff
#pair_style hybrid/overlay lj/cut 1.12 sw threebody off threebody/table
pair_style hybrid/overlay/omp lj/cut/omp 1.12 sw/omp threebody off threebody/table
newton on

# Varaibles
variable L equal 5
variable NCL equal 10
variable NMO equal 90
variable seed1 equal 1234
variable seed2 equal 4321
variable seed3 equal 3124
variable steps equal 60000000
variable tstep equal 0.005
variable sstep equal 10000

# Create simulaiton box
region simulation_box block -$L $L -$L $L -$L $L
region simulation_box block -5 $L -$L $L -$L $L
region simulation_box block -5 5 -$L $L -$L $L
region simulation_box block -5 5 -5 $L -$L $L
region simulation_box block -5 5 -5 5 -$L $L
region simulation_box block -5 5 -5 5 -5 $L
region simulation_box block -5 5 -5 5 -5 5
# N-atom-types region-ID keyword value Is necesesary the extra/special/per/atom (# of special neighbors per atom)
create_box 4 simulation_box     bond/types 1     extra/bond/per/atom 4     extra/special/per/atom 5
Created orthogonal box = (-5 -5 -5) to (5 5 5)
  1 by 1 by 2 MPI processor grid

# Atom types
mass 1 1.0      # CL
mass 2 1.0      # MO
mass 3 0.5      # PA
mass 4 0.5      # PB

# Coefficients
bond_coeff * nocoeff
pair_coeff * * threebody/table swapMech.3b NULL NULL PA PB
pair_coeff 1 1 lj/cut/omp 1.0 1.0 1.12 # i-type j-type pair-style eps sigma cutoff
pair_coeff 2 2 lj/cut/omp 1.0 1.0 1.12 # i-type j-type pair-style eps sigma cutoff
pair_coeff 1 2 lj/cut/omp 1.0 1.0 1.12 # i-type j-type pair-style eps sigma cutoff
pair_coeff 1 3 none
pair_coeff 1 4 none
pair_coeff 2 3 none
pair_coeff 2 4 none
pair_coeff 3 4 sw/omp patchyPot.ws NULL NULL PA PB # i-type j-type pair-style
  disabling sw potential three-body terms
pair_coeff 3 3 sw/omp patchyPot.ws NULL NULL PA PA
pair_coeff 4 4 sw/omp patchyPot.ws NULL NULL PB PB # i-type j-type eps sigma cutoff wca

pair_modify shift yes

# Molecules
molecule CL molecule.patchy.CL
Read molecule template CL:
# Patchy Cross-Linker
  1 molecules
  0 fragments
  5 atoms with max type 3
  4 bonds with max type 1
  0 angles with max type 0
  0 dihedrals with max type 0
  0 impropers with max type 0
molecule MO molecule.patchy.MO
Read molecule template MO:
# Patchy Monomer
  1 molecules
  0 fragments
  3 atoms with max type 4
  2 bonds with max type 1
  0 angles with max type 0
  0 dihedrals with max type 0
  0 impropers with max type 0

# Introduce the molecules
# ID style args keyword arg
region spawn_box block -$L $L -$L $L -$L $L
region spawn_box block -5 $L -$L $L -$L $L
region spawn_box block -5 5 -$L $L -$L $L
region spawn_box block -5 5 -5 $L -$L $L
region spawn_box block -5 5 -5 5 -$L $L
region spawn_box block -5 5 -5 5 -5 $L
region spawn_box block -5 5 -5 5 -5 5

# create_atoms type style args keyword values
# style_random: N seed region-ID
# keyword_mol: template-ID seed
# keyword_overlap: overlap value = only insert if at least this distance from all existing atoms
# keyword_maxtry: maxtry value = number of attempts to insert a particle before failure
create_atoms 0 random ${NCL} ${seed1} spawn_box mol CL ${seed1} overlap 0.5 maxtry 5000 #xls
create_atoms 0 random 10 ${seed1} spawn_box mol CL ${seed1} overlap 0.5 maxtry 5000 
create_atoms 0 random 10 1234 spawn_box mol CL ${seed1} overlap 0.5 maxtry 5000 
create_atoms 0 random 10 1234 spawn_box mol CL 1234 overlap 0.5 maxtry 5000 
Created 50 atoms
  using lattice units in orthogonal box = (-5 -5 -5) to (5 5 5)
  create_atoms CPU = 0.002 seconds
create_atoms 0 random ${NMO} ${seed2} spawn_box mol MO ${seed2} overlap 0.5 maxtry 5000 #mon
create_atoms 0 random 90 ${seed2} spawn_box mol MO ${seed2} overlap 0.5 maxtry 5000 
create_atoms 0 random 90 4321 spawn_box mol MO ${seed2} overlap 0.5 maxtry 5000 
create_atoms 0 random 90 4321 spawn_box mol MO 4321 overlap 0.5 maxtry 5000 
Created 270 atoms
  using lattice units in orthogonal box = (-5 -5 -5) to (5 5 5)
  create_atoms CPU = 0.000 seconds

# Create patchy particles
group CrossLinker type 1 3
50 atoms in group CrossLinker
group Monomer type 2 4
270 atoms in group Monomer
group Patches type 3 4
220 atoms in group Patches
group CL type 1
10 atoms in group CL
group MO type 2
90 atoms in group MO
fix pCL CrossLinker rigid/small/omp molecule #langevin 1.0 1.0 100.0 ${seed3}
  create bodies CPU = 0.000 seconds
  10 rigid bodies with 50 atoms
  0.46400431 = max distance from body owner to body atom
fix pMO Monomer rigid/small/omp molecule #langevin 1.0 1.0 100.0 ${seed3}
  create bodies CPU = 0.000 seconds
  90 rigid bodies with 270 atoms
  0.5 = max distance from body owner to body atom

# Neighbor list
neighbor 1.8 bin # extra-distance style
neigh_modify exclude molecule/intra CrossLinker
neigh_modify exclude molecule/intra Monomer

fix langevinFix all langevin 0.05 0.05 0.5 12345 # ID group-ID langevin Tstart Tstop damp seed

thermo ${sstep}
thermo 10000

# COMPUTES

# Compute global kinetic and potential energy and temperature
compute t all temp
compute ep all pe
compute ek all ke

# Compute Cluster sizes
# compute ID group-ID cluster/atom cutoff
# compute ID group-ID chunk/atom style args keyword value
# compute ID group-ID property/chunk chunkID input1 input2
compute cluster all aggregate/atom 0.75
compute cc1 all chunk/atom c_cluster compress yes pbc yes
compute size all property/chunk cc1 count

# DUMPS and FIXES

# Save atom positions
dump dumpID all atom ${sstep} info/patchyParticles_assembly.dumpf
dump dumpID all atom 10000 info/patchyParticles_assembly.dumpf
dump_modify dumpID pbc yes # remap atoms via periodic boundary conditions
#dump dumpCID all custom 1 info/patchyParticlesCluster_assembly.dumpf id type mol xs ys zs c_cluster
#dump_modify dumpCID pbc yes # remap atoms via periodic boundary conditions

# Write dump file of the last configuration
dump dumpNew all custom ${steps} newdata_assembly.dumpf id type mol x y z c_cluster
dump dumpNew all custom 60000000 newdata_assembly.dumpf id type mol x y z c_cluster
dump_modify dumpNew delay ${steps}
dump_modify dumpNew delay 60000000

# Save global energies and temperature
group Energy empty
0 atoms in group Energy
fix fixEng Energy ave/time 1 1 10 c_t c_ep c_ek file info/energy_assembly.fixf

# Save the cluster sizes
#fix ID group-ID style Nevery Nrepeat Nfreq lo hi Nbin value1 value2
fix 1 all ave/time 1 1 ${sstep} c_size file info/sizeCluster_assembly.fixf mode vector
fix 1 all ave/time 1 1 10000 c_size file info/sizeCluster_assembly.fixf mode vector

# RUN SIMULATION

timestep ${tstep}
timestep 0.005
run ${steps}
run 60000000
WARNING: Using a manybody potential with bonds/angles/dihedrals and special_bond exclusions (src/pair.cpp:242)
Hybrid pair style last /omp style sw/omp
Last active /omp style is pair_style sw/omp
WARNING: More than one fix rigid command (src/RIGID/fix_rigid_small.cpp:529)
WARNING: More than one fix rigid command (src/RIGID/fix_rigid_small.cpp:529)
Neighbor list info ...
  update: every = 1 steps, delay = 0 steps, check = yes
  max neighbors/atom: 2000, page size: 100000
  master list distance cutoff = 2.92
  ghost atom cutoff = 2.92
  binsize = 1.46, bins = 7 7 7
  6 neighbor lists, perpetual/occasional/extra = 5 1 0
  (1) pair lj/cut/omp, perpetual, skip from (5)
      attributes: half, newton on, omp
      pair build: skip/omp
      stencil: none
      bin: none
  (2) pair sw/omp, perpetual, skip from (5)
      attributes: half, newton on, omp, cut 2.55
      pair build: skip/omp
      stencil: none
      bin: none
  (3) pair threebody/table, perpetual, skip from (6)
      attributes: full, newton on, omp, cut 2.425
      pair build: skip/omp
      stencil: none
      bin: none
  (4) compute aggregate/atom, occasional
      attributes: full, newton on, omp
      pair build: full/bin/omp
      stencil: full/bin/3d
      bin: standard
  (5) neighbor class addition, perpetual
      attributes: half, newton on, omp
      pair build: half/bin/newton/omp
      stencil: half/bin/3d
      bin: standard
  (6) neighbor class addition, perpetual
      attributes: full, newton on, omp, cut 2.425
      pair build: full/bin/omp
      stencil: full/bin/3d
      bin: standard
Per MPI rank memory allocation (min/avg/max) = 19.37 | 19.37 | 19.37 Mbytes
   Step          Temp          E_pair         E_mol          TotEng         Press     
         0   0              2.6302494      0              2.6302494      22.611792    
     10000   0.05496405    -0.12841464     0             -0.084872808   -0.0031975802 
     20000   0.061192933   -0.16084544     0             -0.11236916    -0.037799725  
     30000   0.067922828   -0.15650952     0             -0.1027019      0.0014802179 
     40000   0.067434839   -0.15143994     0             -0.0980189     -0.040714513  
     50000   0.063331062   -0.13289894     0             -0.082728862    0.017960377  
     60000   0.066342405   -0.14985202     0             -0.097296394   -0.043425244  
     70000   0.065607418   -0.16179044     0             -0.10981706    -0.075883421  
     80000   0.064288885   -0.14347714     0             -0.092548287    0.035106959  
     90000   0.071233544   -0.1565903      0             -0.10015997    -0.059187563  
    100000   0.062009212   -0.14894637     0             -0.09982345    -0.0060722093 
    110000   0.071403272   -0.15505911     0             -0.098494333   -0.032695365  
    120000   0.075305602   -0.14841689     0             -0.088760729   -0.0024142909 
    130000   0.070653983   -0.13855252     0             -0.08258132    -0.043682248  
    140000   0.069298033   -0.13992839     0             -0.085031359    0.018191759  
    150000   0.074639573   -0.14965952     0             -0.09053098    -0.0046767226 
    160000   0.074911606   -0.14530471     0             -0.085960673    0.01181459   
    170000   0.072267244   -0.13724333     0             -0.079994127   -0.032486342  
    180000   0.068525465   -0.15184043     0             -0.097555417    0.018360625  
    190000   0.076351191   -0.1483349      0             -0.087850436   -0.011518019  
    200000   0.07170279    -0.159608       0             -0.10280594    -0.028466685  
    210000   0.073951566   -0.15955108     0             -0.10096758    -0.015820774  
    220000   0.078316946   -0.15337197     0             -0.091330268   -0.0041403525 
    230000   0.070889408   -0.1532981      0             -0.097140393    0.0016202456 
    240000   0.072551449   -0.14828896     0             -0.090814613   -0.065885194  
    250000   0.077103136   -0.15196624     0             -0.090886104    0.044969018  
    260000   0.070394782   -0.14898896     0             -0.093223092   -0.002132215  
    270000   0.072495197   -0.14749767     0             -0.090067879    0.010145353  
    280000   0.081496207   -0.1632263      0             -0.098666023   -0.052624173  
    290000   0.070409459   -0.12985963     0             -0.074082135   -0.04195602   
    300000   0.063051172   -0.14994631     0             -0.099997958   -0.083237979  
    310000   0.073205711   -0.14418069     0             -0.086188045   -0.054046517  
    320000   0.0726478     -0.1563978      0             -0.09884712    -0.036696195  
    330000   0.065441484   -0.15400851     0             -0.10216659    -0.020049058  
    340000   0.082626639   -0.14437267     0             -0.078916877    0.038999368  
    350000   0.072275362   -0.14154889     0             -0.084293251    0.014885067  
    360000   0.072335246   -0.13340276     0             -0.076099681    0.021981303  
    370000   0.06742228    -0.14759221     0             -0.094181127    0.025078533  
    380000   0.07783113    -0.14650359     0             -0.084846738   -0.11268896   
    390000   0.077439931   -0.14777913     0             -0.086432186    0.0020983555 
    400000   0.0651982     -0.1439065      0             -0.092257302   -0.017238617  
    410000   0.069903444   -0.14327399     0             -0.08789736    -0.055152846  
    420000   0.067348971   -0.14574035     0             -0.09238734    -0.067706533  
    430000   0.067277147   -0.13728464     0             -0.083988527   -0.032413094  
    440000   0.063839909   -0.13186695     0             -0.081293775    0.035947009  
    450000   0.064982722   -0.1446192      0             -0.093140696   -0.017751171  
    460000   0.070193504   -0.14772693     0             -0.092120515   -0.0059850569 
    470000   0.072414287   -0.13029167     0             -0.072925981    0.013091476  
    480000   0.07028479    -0.13382548     0             -0.078146746    0.0068176355 
    490000   0.067727489   -0.14220622     0             -0.088553354   -0.047499724  
    500000   0.073538925   -0.13660088     0             -0.078344261   -0.088439251  
    510000   0.076063461   -0.14972757     0             -0.08947105    -0.020591481  
    520000   0.060946477   -0.15028648     0             -0.10200545     0.011606537  
    530000   0.064978656   -0.1553127      0             -0.10383742    -0.042898949  
    540000   0.068313152   -0.13989951     0             -0.08578268    -0.070647368  
    550000   0.062183107   -0.14423191     0             -0.094971228   -0.027004291  
    560000   0.064670669   -0.13726903     0             -0.086037733    0.06126544   
    570000   0.07121164    -0.14917862     0             -0.092765646   -0.046160263  
    580000   0.080564521   -0.14264431     0             -0.078822107    0.056102047  
    590000   0.073864862   -0.14772145     0             -0.089206634   -0.045417978  
    600000   0.073463367   -0.14013493     0             -0.081938167   -0.023530564  
    610000   0.076080504   -0.14311414     0             -0.082844113   -0.010172744  
    620000   0.075410931   -0.14704766     0             -0.087308064   -0.006514445  
    630000   0.073661225   -0.14351752     0             -0.085164018   -0.068565772  
    640000   0.074850756   -0.14232011     0             -0.083024272   -0.064681745  
    650000   0.068068332   -0.13611786     0             -0.082194974    0.02733317   
    660000   0.069414274   -0.14085499     0             -0.085865868    0.034335769  
    670000   0.069873067   -0.14089053     0             -0.085537958   -0.010986566  
    680000   0.062824243   -0.13826617     0             -0.088497586   -0.10067083   
    690000   0.064473422   -0.14145768     0             -0.090382639    0.0020535121 
    700000   0.067079988   -0.15519046     0             -0.10205053    -0.046525486  
    710000   0.067381217   -0.15755182     0             -0.10417326    -0.076474642  
    720000   0.076250977   -0.14975145     0             -0.089346377    0.0012339603 
    730000   0.071620847   -0.13695935     0             -0.080222209   -0.010466342  
    740000   0.069302359   -0.14909597     0             -0.094195506   -0.055750294  
    750000   0.075289037   -0.15388894     0             -0.094245904   -0.083504998  
    760000   0.072034204   -0.14694841     0             -0.08988381     0.039129357  
    770000   0.071245449   -0.1510805      0             -0.094640747   -0.036915762  
    780000   0.072757757   -0.16365425     0             -0.10601646    -0.037275804  
    790000   0.061599914   -0.1580273      0             -0.10922862    -0.0035330388 
    800000   0.078334257   -0.13802154     0             -0.075966117   -0.013101031  
    810000   0.068766506   -0.15068811     0             -0.096212142    0.017372949  
    820000   0.063727501   -0.1447225      0             -0.094238372    0.0010636823 
    830000   0.071628456   -0.17825108     0             -0.12150792    -0.053444009  
    840000   0.074923801   -0.16186447     0             -0.10251077    -0.02097463   
    850000   0.067533241   -0.15011942     0             -0.096620431   -0.016349173  
    860000   0.067335653   -0.1497346      0             -0.096392134    0.0040964302 
    870000   0.064307937   -0.14779404     0             -0.096850099    0.068690149  
    880000   0.075039212   -0.15299744     0             -0.093552309    0.065143291  
    890000   0.076904116   -0.13373113     0             -0.072808649   -0.057059219  
    900000   0.072957721   -0.14737035     0             -0.089574157   -0.0025628491 
    910000   0.072649202   -0.14192772     0             -0.084375929   -0.069985335  
    920000   0.074684589   -0.1376399      0             -0.078475699   -0.040261678  
    930000   0.071286274   -0.1447023      0             -0.088230208   -0.034257742  
    940000   0.071595935   -0.1397764      0             -0.083058996   -0.084843786  
    950000   0.06989261    -0.14231983     0             -0.086951775   -0.051979154  
    960000   0.073134627   -0.15078598     0             -0.09284964    -0.019528372  
    970000   0.067129359   -0.15431199     0             -0.10113295    -0.063203039  
    980000   0.068696862   -0.14877441     0             -0.094353612    0.039088603  
    990000   0.07043298    -0.15095971     0             -0.095163582    0.0099223996 
   1000000   0.068182408   -0.14663373     0             -0.092620478   -0.015816543  
   1010000   0.064004605   -0.14209869     0             -0.091395044   -0.029720828  
   1020000   0.064099327   -0.13498948     0             -0.084210791   -0.022396086  
   1030000   0.070670996   -0.15078987     0             -0.094805195   -0.047277364  
   1040000   0.06734491    -0.1400146      0             -0.086664806    0.029487508  
   1050000   0.068280766   -0.15200989     0             -0.097918723   -0.0024909665 
   1060000   0.070566502   -0.16452785     0             -0.10862595    -0.061236143  
   1070000   0.075472729   -0.16274827     0             -0.10295972     0.0091575137 
   1080000   0.070693976   -0.15050889     0             -0.094506009   -0.076162747  
   1090000   0.073685367   -0.15446074     0             -0.096088109    0.021554211  
   1100000   0.063046696   -0.15549991     0             -0.1055551     -0.028277623  
   1110000   0.074445988   -0.14232965     0             -0.083354468    0.039809457  
   1120000   0.074297417   -0.15650177     0             -0.097644283   -0.076744638  
   1130000   0.073355621   -0.15943208     0             -0.10132067    -0.053603926  
   1140000   0.072115778   -0.14902324     0             -0.091894018   -0.02798381   
   1150000   0.056188402   -0.15471856     0             -0.11020681     0.025868678  
   1160000   0.069545492   -0.16059088     0             -0.10549781    -0.086796579  
   1170000   0.064207987   -0.17229027     0             -0.1214255     -0.057391874  
   1180000   0.068303836   -0.15744646     0             -0.10333702    -0.041547773  
   1190000   0.071184212   -0.13753311     0             -0.081141864   -0.053601322  
   1200000   0.069571846   -0.13819324     0             -0.083079297   -0.062832089  
   1210000   0.068756908   -0.14844831     0             -0.093979945   -0.11029175   
   1220000   0.066856967   -0.14142446     0             -0.08846121    -0.016490521  
   1230000   0.069923653   -0.16440966     0             -0.10901702    -0.07603805   
   1240000   0.073224818   -0.15452099     0             -0.0965132      0.041472426  
   1250000   0.074236655   -0.13994715     0             -0.081137796   -0.010911245  
   1260000   0.069925097   -0.14827306     0             -0.092879271    0.0031897903 
   1270000   0.071736828   -0.14591877     0             -0.089089756    0.032894302  
   1280000   0.070815282   -0.16865869     0             -0.11255971     0.043049833  
   1290000   0.067309521   -0.15434326     0             -0.1010215     -0.052060606  
   1300000   0.069707854   -0.16433477     0             -0.10911308    -0.029908385  
   1310000   0.06745702    -0.15099777     0             -0.097559158   -0.0076431448 
   1320000   0.067275321   -0.16421456     0             -0.11091989    -0.032617306  
   1330000   0.066848372   -0.17435991     0             -0.12140347     0.0040105869 
   1340000   0.070738221   -0.17701626     0             -0.12097832    -0.14891653   
   1350000   0.068052558   -0.17813278     0             -0.12422239    -0.036355783  
   1360000   0.060596384   -0.15590208     0             -0.10789838     0.013008365  
   1370000   0.07257195    -0.14800914     0             -0.090518549    0.079594881  
   1380000   0.072414738   -0.14949858     0             -0.092132534   -0.048650403  
   1390000   0.069815404   -0.15034917     0             -0.095042275   -0.010925722  
   1400000   0.071442924   -0.15673923     0             -0.10014304     0.014239572  
   1410000   0.061271604   -0.16064176     0             -0.11210316     0.00065460547
   1420000   0.063659959   -0.15014517     0             -0.099714551   -0.0093299337 
   1430000   0.065034135   -0.1434087      0             -0.091889468   -0.060303979  
   1440000   0.077973848   -0.14218798     0             -0.080418074   -0.041800071  
   1450000   0.074293691   -0.15375137     0             -0.094896834    0.033458352  
   1460000   0.071135581   -0.15519806     0             -0.098845341    0.013817021  
   1470000   0.070815168   -0.15427044     0             -0.098171553   -0.0036517626 
   1480000   0.073049245   -0.15166008     0             -0.093791385   -0.0055239141 
   1490000   0.080513755   -0.14385708     0             -0.080075087   -0.029564508  
   1500000   0.069928422   -0.14557132     0             -0.090174896    0.022304641  
   1510000   0.060798556   -0.14737845     0             -0.09921459    -0.0080290038 
   1520000   0.068199169   -0.15335431     0             -0.099327783   -0.0041580009 
   1530000   0.068392073   -0.15569764     0             -0.10151829    -0.055898693  
   1540000   0.068139968   -0.15077599     0             -0.096796355   -0.051266353  
   1550000   0.071430923   -0.12679711     0             -0.070210426    0.0082250156 
   1560000   0.071909357   -0.13617067     0             -0.079204972    0.073402109  
   1570000   0.069965006   -0.14552073     0             -0.09009533     0.0038097783 
   1580000   0.070375902   -0.149938       0             -0.094187092   -0.071071123  
   1590000   0.078418659   -0.14124601     0             -0.079123733    0.015955124  
   1600000   0.078298578   -0.14245742     0             -0.080430261    0.038851418  
   1610000   0.078837677   -0.15410254     0             -0.091648317   -0.021208224  
   1620000   0.067761684   -0.15560701     0             -0.10192705    -0.048664388  
   1630000   0.071665005   -0.14796466     0             -0.091192541    0.027293205  
   1640000   0.070258206   -0.16000604     0             -0.10434837    -0.11102106   
   1650000   0.069620703   -0.13414439     0             -0.078991737   -0.083316467  
   1660000   0.068385213   -0.14360007     0             -0.089426159   -0.015173953  
   1670000   0.067180549   -0.14461941     0             -0.091399816    0.004568691  
   1680000   0.066510868   -0.15039623     0             -0.097707151   -0.01475953   
   1690000   0.07517487    -0.1403032      0             -0.080750609    0.049984646  
   1700000   0.069325453   -0.14915547     0             -0.094236715    0.02075003   
   1710000   0.076664319   -0.14719927     0             -0.086466759   -0.044206548  
   1720000   0.087550656   -0.14308839     0             -0.073731855   -0.025481344  
   1730000   0.067546757   -0.1302946      0             -0.076784907   -0.015886468  
   1740000   0.069631963   -0.12020193     0             -0.065040356   -0.072853614  
   1750000   0.072087012   -0.13106065     0             -0.073954218   -0.029807622  
   1760000   0.069109544   -0.13709742     0             -0.082349704   -0.093308137  
   1770000   0.074895183   -0.13930687     0             -0.079975846    0.0092043968 
   1780000   0.079222348   -0.14938566     0             -0.086626702   -0.003888135  
   1790000   0.080027279   -0.14053419     0             -0.077137585   -0.088074244  
   1800000   0.072184356   -0.13704587     0             -0.079862326   -0.036269082  
   1810000   0.062269263   -0.13674668     0             -0.087417753   -0.073793934  
   1820000   0.065664576   -0.13063627     0             -0.078617618   -0.0067115724 
   1830000   0.068014525   -0.13130958     0             -0.077429326    0.0016610515 
   1840000   0.069627368   -0.14745087     0             -0.092292942    0.023642142  
   1850000   0.069407315   -0.13047087     0             -0.075487261   -0.01755719   
   1860000   0.066249144   -0.14337228     0             -0.090890534   -0.012046724  
   1870000   0.068105156   -0.16085038     0             -0.10689832    -0.061056596  
   1880000   0.068398051   -0.14861923     0             -0.094435146    0.0053142985 
   1890000   0.067963505   -0.1349221      0             -0.081082263   -0.054768341  
   1900000   0.07407372    -0.14378334     0             -0.085103067   -0.042184285  
   1910000   0.072007925   -0.15308114     0             -0.096037363    0.063497643  
   1920000   0.063090198   -0.16590794     0             -0.11592868     0.0025730476 
   1930000   0.061657849   -0.15801985     0             -0.10917527     0.0028846906 
   1940000   0.075677135   -0.14846913     0             -0.088518652   -0.082717235  
   1950000   0.071521078   -0.15151826     0             -0.094860153   -0.074742673  
   1960000   0.061427674   -0.1517453      0             -0.10308306     0.010450655  
   1970000   0.073279216   -0.15265453     0             -0.09460365     0.033680847  
   1980000   0.07195196    -0.15223726     0             -0.095237821    0.021849289  
   1990000   0.06314557    -0.1669409      0             -0.11691777    -0.049600912  
   2000000   0.069795169   -0.1697964      0             -0.11450554    -0.010348957  
   2010000   0.06523302    -0.1607565      0             -0.10907972    -0.029072341  
   2020000   0.071568805   -0.14401392     0             -0.087318005   -0.033028001  
   2030000   0.065227087   -0.16450422     0             -0.11283213    -0.00799618   
   2040000   0.069661129   -0.15431148     0             -0.0991268      0.034618472  
   2050000   0.071699479   -0.13772104     0             -0.080921611    0.097501054  
   2060000   0.070802432   -0.14941298     0             -0.093324183   -0.07060952   
   2070000   0.078702199   -0.15580804     0             -0.093461143    0.0016951422 
   2080000   0.07840305    -0.14873267     0             -0.086622755    0.032254242  
   2090000   0.072324152   -0.14759405     0             -0.090299765   -0.029800908  
   2100000   0.063120407   -0.14920431     0             -0.099201109   -0.0008086873 
   2110000   0.083165253   -0.15164293     0             -0.085760455   -0.046307089  
   2120000   0.075211163   -0.14606885     0             -0.086487509    0.041524492  
   2130000   0.068184808   -0.17521553     0             -0.12120038    -0.029725692  
   2140000   0.064133716   -0.13866553     0             -0.087859603   -0.085238099  
   2150000   0.075955194   -0.1366103      0             -0.076439546    0.014380152  
   2160000   0.077229562   -0.13401881     0             -0.072838516   -0.060439669  
   2170000   0.062291373   -0.13400899     0             -0.084662545   -0.029203414  
   2180000   0.074611298   -0.12651621     0             -0.067410074   -0.046756428  
   2190000   0.073711906   -0.14696013     0             -0.088566484    0.0022062339 
   2200000   0.065282809   -0.14491518     0             -0.093198954   -0.042158873  
   2210000   0.068527799   -0.13789781     0             -0.083610946   -0.029199264  
   2220000   0.066124026   -0.1371967      0             -0.084814068   -0.0056519062 
   2230000   0.063511397   -0.13364142     0             -0.083328489    0.041454015  
   2240000   0.067620609   -0.15556227     0             -0.10199407     0.030036197  
   2250000   0.066195991   -0.1565631      0             -0.10412346     0.037416568  
   2260000   0.067736211   -0.1755509      0             -0.12189112    -0.048589176  
   2270000   0.075910128   -0.1719668      0             -0.11183174    -0.00085590452
   2280000   0.077453874   -0.17004393     0             -0.10868594    -0.054658742  
   2290000   0.070207894   -0.17052342     0             -0.11490561    -0.043419069  
   2300000   0.069198894   -0.13865535     0             -0.083836852    0.070683858  
   2310000   0.062806936   -0.14419462     0             -0.094439751   -0.0080102557 
   2320000   0.069565475   -0.13430483     0             -0.079195926   -0.054855901  
   2330000   0.070901904   -0.14172721     0             -0.085559605   -0.033166534  
   2340000   0.063000029   -0.15111061     0             -0.10120278    -0.0062696368 
   2350000   0.081697441   -0.15531866     0             -0.090598972    0.022687375  
   2360000   0.074857201   -0.1558443      0             -0.096543366   -0.014698871  
   2370000   0.072205642   -0.16111176     0             -0.10391135     0.10233954   
   2380000   0.066362756   -0.16958488     0             -0.11701314     0.0098807483 
   2390000   0.071006902   -0.17063849     0             -0.11438771    -0.059312759  
   2400000   0.062770255   -0.1651544      0             -0.11542859     0.018904751  
   2410000   0.07243704    -0.15406658     0             -0.096682865   -0.047441739  
   2420000   0.072599927   -0.15740999     0             -0.099897239    0.0090701184 
   2430000   0.065734348   -0.15006479     0             -0.097990858   -0.10943263   
   2440000   0.070906359   -0.14363987     0             -0.087468734   -0.0053202212 
   2450000   0.0753728     -0.15039246     0             -0.090683068   -0.076700814  
   2460000   0.067905218   -0.16245976     0             -0.10866609    -0.03852419   
   2470000   0.07650719    -0.13217678     0             -0.071568742   -0.02440858   
   2480000   0.067377702   -0.16173176     0             -0.10835599    -0.021477152  
   2490000   0.075954683   -0.1549079      0             -0.094737548   -0.080209926  
   2500000   0.078267175   -0.14648845     0             -0.084486175    0.062646198  
   2510000   0.075677196   -0.13969034     0             -0.079739814    0.037168716  
   2520000   0.076520854   -0.15389997     0             -0.093281102   -0.033333127  
   2530000   0.073985662   -0.14735309     0             -0.08874257    -0.027654509  
   2540000   0.066243786   -0.15205655     0             -0.099579055   -0.022615485  
   2550000   0.071794165   -0.14309879     0             -0.086224352    0.027136421  
   2560000   0.068148577   -0.1456148      0             -0.091628345    0.011865753  
   2570000   0.066763065   -0.1444013      0             -0.09151243     0.029703727  
   2580000   0.072298289   -0.13663554     0             -0.079361742    0.029552959  
   2590000   0.066976506   -0.13269421     0             -0.079636259    0.082882883  
   2600000   0.071852563   -0.12427211     0             -0.067351405    0.0025794775 
   2610000   0.073110361   -0.14977882     0             -0.091861701   -0.081332316  
   2620000   0.084100736   -0.14385125     0             -0.077227697   -0.064431788  
   2630000   0.075209205   -0.12801292     0             -0.068433128    0.085704537  
   2640000   0.079977282   -0.13247228     0             -0.069115274   -0.02236448   
   2650000   0.074766615   -0.13374341     0             -0.074514236    0.029797263  
   2660000   0.0723076     -0.13486242     0             -0.077581245   -0.038586951  
   2670000   0.065008198   -0.14855258     0             -0.097053897   -0.0035417746 
   2680000   0.0830031     -0.14112556     0             -0.075371546   -0.066120522  
   2690000   0.068615633   -0.13647067     0             -0.082114219   -0.0044793077 
   2700000   0.079955766   -0.13277779     0             -0.069437833   -0.0014936117 
   2710000   0.073002051   -0.14688837     0             -0.089057052    0.011537399  
   2720000   0.074881242   -0.1579562      0             -0.098636214    0.030795021  
   2730000   0.068116311   -0.15499245     0             -0.10103156    -0.024520539  
   2740000   0.070664688   -0.15889068     0             -0.10291099     0.061605902  
   2750000   0.074892615   -0.15161901     0             -0.092290018   -0.046095856  
   2760000   0.078337156   -0.145866       0             -0.083808284   -0.01448718   
   2770000   0.073484361   -0.13644573     0             -0.07823234     0.0087307418 
   2780000   0.074662713   -0.14541577     0             -0.086268902   -0.023121675  
   2790000   0.071183219   -0.15733233     0             -0.10094188     0.028576297  
   2800000   0.068814166   -0.15972397     0             -0.10521025     0.018383854  
   2810000   0.076479639   -0.13420287     0             -0.073616657    0.021932952  
   2820000   0.079207806   -0.16074001     0             -0.097992576   -0.073521647  
   2830000   0.075913375   -0.14035881     0             -0.080221184   -0.015482451  
   2840000   0.077850412   -0.15217023     0             -0.090498102    0.021470971  
   2850000   0.068301737   -0.1565231      0             -0.10241532    -0.094491213  
   2860000   0.070656757   -0.14412616     0             -0.088152765   -0.076346679  
   2870000   0.068488082   -0.14304632     0             -0.088790914   -0.041227488  
   2880000   0.063708988   -0.15267551     0             -0.10220604    -0.01894335   
   2890000   0.063064191   -0.15326078     0             -0.10330212    -0.021104388  
   2900000   0.0772567     -0.16228211     0             -0.10108032     0.01834122   
   2910000   0.068899854   -0.16367452     0             -0.10909291    -0.00010987285
   2920000   0.074495372   -0.15485847     0             -0.095844172   -0.03331505   
   2930000   0.059252302   -0.16271811     0             -0.11577918    -0.017697933  
   2940000   0.071816247   -0.16426716     0             -0.10737523    -0.017097521  
   2950000   0.073503031   -0.15816214     0             -0.099933958   -0.088787716  
   2960000   0.068316904   -0.14957618     0             -0.095456379   -0.064170186  
   2970000   0.070601146   -0.14118635     0             -0.085257003   -0.012763347  
   2980000   0.072716443   -0.15614868     0             -0.098543618   -0.013310562  
   2990000   0.070681117   -0.15271193     0             -0.096719232    0.012378706  
   3000000   0.071385268   -0.16251916     0             -0.10596864    -0.015849209  
   3010000   0.074650508   -0.17103945     0             -0.11190225    -0.011349774  
   3020000   0.066363233   -0.15835543     0             -0.10578331    -0.048557631  
   3030000   0.071461088   -0.1446493      0             -0.08803872    -0.014485567  
   3040000   0.071364207   -0.15516358     0             -0.09862975    -0.010119694  
   3050000   0.056953047   -0.12757007     0             -0.082452575   -0.026809718  
   3060000   0.064482863   -0.14712791     0             -0.096045395    0.0093004002 
   3070000   0.06430754    -0.1483778      0             -0.097434171   -0.01612816   
   3080000   0.079183041   -0.14012658     0             -0.077398769   -0.018973529  
   3090000   0.07378334    -0.14243109     0             -0.083980852   -0.09443456   
   3100000   0.069253473   -0.12827493     0             -0.073413195   -0.049324448  
   3110000   0.084363118   -0.13463068     0             -0.067799272   -0.016845139  
   3120000   0.066095601   -0.13603951     0             -0.083679403    0.0076948207 
   3130000   0.069622562   -0.13816153     0             -0.083007405   -0.075989529  
   3140000   0.069423723   -0.15331843     0             -0.098321826   -0.090964165  
   3150000   0.080780123   -0.14724734     0             -0.083254338   -0.031924137  
   3160000   0.070628733   -0.14116767     0             -0.085216471   -0.0559089    
   3170000   0.071433461   -0.1636564      0             -0.1070677     -0.048471476  
   3180000   0.073159865   -0.16151506     0             -0.10355873    -0.048238158  
   3190000   0.071379216   -0.15054428     0             -0.093998553   -0.053618213  
   3200000   0.066962594   -0.13936175     0             -0.086314818   -0.052521592  
   3210000   0.069601802   -0.14689657     0             -0.091758891   -0.02588798   
   3220000   0.071001862   -0.15059671     0             -0.094349927   -0.0048289434 
   3230000   0.068872861   -0.13476198     0             -0.080201757    0.030118192  
   3240000   0.071475084   -0.13672058     0             -0.080098913    0.012970071  
   3250000   0.082091228   -0.13466682     0             -0.069635176   -0.099827877  
   3260000   0.071624227   -0.13003122     0             -0.0732914     -0.078123491  
   3270000   0.070048833   -0.14235168     0             -0.086859868   -0.013079181  
   3280000   0.069962363   -0.16007        0             -0.10464669    -0.0046693381 
   3290000   0.063348123   -0.13707778     0             -0.086894189   -0.016663557  
   3300000   0.084737629   -0.14856879     0             -0.081440694   -0.088682248  
   3310000   0.072618652   -0.14070566     0             -0.083178075   -0.033626512  
   3320000   0.079495853   -0.1410474      0             -0.078071775    0.032809447  
   3330000   0.068975632   -0.14974453     0             -0.095102892   -0.10000435   
   3340000   0.074025472   -0.14323523     0             -0.084593172    0.01465206   
   3350000   0.074830128   -0.14324976     0             -0.083970264    0.0039224452 
   3360000   0.074825223   -0.14621906     0             -0.086943456   -0.0088270014 
   3370000   0.071819326   -0.13250199     0             -0.075607622   -0.045678554  
   3380000   0.073067581   -0.14062199     0             -0.082738764   -0.0026991532 
   3390000   0.078237343   -0.15506695     0             -0.093088306    0.042437826  
   3400000   0.073448976   -0.15503647     0             -0.096851107   -0.00090758978
   3410000   0.064145855   -0.14776592     0             -0.096950375   -0.058923772  
   3420000   0.070813632   -0.1303781      0             -0.074280421   -0.08234554   
   3430000   0.06434634    -0.14297471     0             -0.092000339   -0.047480841  
   3440000   0.066467301   -0.14980565     0             -0.097151085   -0.054356956  
   3450000   0.075698781   -0.15100823     0             -0.091040597   -0.040552339  
   3460000   0.068842998   -0.14740306     0             -0.092866503   -0.013412224  
   3470000   0.073061357   -0.13174193     0             -0.073863638   -0.010907678  
   3480000   0.067363339   -0.15191401     0             -0.098549616    0.0090568203 
   3490000   0.073250743   -0.12858523     0             -0.070556908   -0.042040461  
   3500000   0.072410076   -0.14892561     0             -0.091563257    0.081529327  
   3510000   0.062511989   -0.14941597     0             -0.099894756   -0.035248823  
   3520000   0.066127806   -0.13249844     0             -0.080112814   -0.047433229  
   3530000   0.076176745   -0.13902367     0             -0.078677405   -0.12391646   
   3540000   0.070254149   -0.15609042     0             -0.10043597    -0.013403896  
   3550000   0.068206643   -0.14915226     0             -0.095119813    0.0022550095 
   3560000   0.06531291    -0.15124421     0             -0.099504142   -0.097794926  
   3570000   0.071995423   -0.15492409     0             -0.097890219   -0.086649836  
   3580000   0.074873085   -0.14056125     0             -0.081247728    0.014582228  
   3590000   0.072942161   -0.14725408     0             -0.089470216    0.036802888  
   3600000   0.069261766   -0.15440889     0             -0.09954058     0.015805435  
   3610000   0.071356733   -0.14295305     0             -0.086425134   -0.043351612  
   3620000   0.074253707   -0.15742093     0             -0.098598067   -0.054741705  
   3630000   0.077614993   -0.13800029     0             -0.076514663   -0.083373794  
   3640000   0.075893938   -0.1359131      0             -0.075790871   -0.0067733528 
   3650000   0.085335135   -0.12966722     0             -0.062065794    0.021707395  
   3660000   0.073847049   -0.13837722     0             -0.079876508   -0.015864241  
   3670000   0.069968517   -0.15374875     0             -0.098320567   -0.033230939  
   3680000   0.070078214   -0.14860944     0             -0.093094351    0.0026907755 
   3690000   0.067853148   -0.14798009     0             -0.094227671   -0.0080082251 
   3700000   0.069698692   -0.15472535     0             -0.099510913    0.01500562   
   3710000   0.066958615   -0.1530966      0             -0.10005282    -0.055951402  
   3720000   0.069246811   -0.14483663     0             -0.089980172   -0.076917278  
   3730000   0.072277255   -0.13238371     0             -0.075126571   -0.071733896  
   3740000   0.070969247   -0.13570191     0             -0.079480956   -0.00019099701
   3750000   0.069976881   -0.13946778     0             -0.084032969   -0.0035159029 
   3760000   0.074599058   -0.15601318     0             -0.09691674    -0.00236503   
   3770000   0.059765626   -0.14003406     0             -0.092688476    0.053812811  
   3780000   0.06533226    -0.14732399     0             -0.095568588   -0.0086104103 
   3790000   0.068070179   -0.12838906     0             -0.074464712   -0.031380161  
   3800000   0.074174313   -0.1450502      0             -0.086290237    0.07244471   
   3810000   0.071426633   -0.14797263     0             -0.091389344   -0.033794046  
   3820000   0.069833657   -0.14459454     0             -0.089273192   -0.023236834  
   3830000   0.070172392   -0.14493487     0             -0.089345176   -0.048376148  
   3840000   0.064021829   -0.16524846     0             -0.11453117    -0.02239273   
   3850000   0.066797872   -0.14646475     0             -0.093548306   -0.066623576  
   3860000   0.070336147   -0.13589656     0             -0.08017714    -0.02373505   
   3870000   0.070929115   -0.15182996     0             -0.095640807   -0.034910811  
   3880000   0.073524034   -0.14040584     0             -0.082161023   -0.0098584524 
   3890000   0.074550289   -0.15350048     0             -0.094442669   -0.081891257  
   3900000   0.075628812   -0.14532301     0             -0.085410814    0.0064450255 
   3910000   0.070127533   -0.14945681     0             -0.093902652   -0.081410745  
   3920000   0.075190298   -0.14216339     0             -0.082598577    0.020779522  
   3930000   0.070551461   -0.14376056     0             -0.087870574   -0.038278845  
   3940000   0.070968974   -0.13975279     0             -0.083532053    0.0013763568 
   3950000   0.070618705   -0.13927923     0             -0.08333597    -0.01586172   
   3960000   0.060598967   -0.14853533     0             -0.10052958     0.0020726697 
   3970000   0.066616289   -0.15575289     0             -0.10298029     0.023731201  
   3980000   0.072294174   -0.14826891     0             -0.090998366   -0.02387389   
   3990000   0.067140384   -0.16442825     0             -0.11124048     0.012739702  
   4000000   0.072407744   -0.13873599     0             -0.081375484    0.0094939807 
   4010000   0.076610845   -0.15177825     0             -0.091088097   -0.10950863   
   4020000   0.084238225   -0.14451996     0             -0.077787487   -0.049425374  
   4030000   0.071752108   -0.13821849     0             -0.081377364   -0.011042048  
   4040000   0.059731111   -0.14996166     0             -0.10264342    -0.038434252  
   4050000   0.075494455   -0.17387571     0             -0.11406995    -0.03281449   
   4060000   0.068420904   -0.15768378     0             -0.10348159    -0.047919369  
   4070000   0.071564673   -0.15082766     0             -0.094135022    0.021257775  
   4080000   0.066922852   -0.15623479     0             -0.10321934     0.032962832  
   4090000   0.072822796   -0.17402893     0             -0.11633962    -0.097830054  
   4100000   0.070925368   -0.16586611     0             -0.10967992    -0.020150777  
   4110000   0.067542501   -0.15253728     0             -0.099030953   -0.057690706  
   4120000   0.074089327   -0.13551606     0             -0.07682342     0.027551105  
   4130000   0.071755634   -0.13047766     0             -0.07363374    -0.09578932   
   4140000   0.066355888   -0.14167643     0             -0.08911012    -0.065115931  
   4150000   0.069009728   -0.14055112     0             -0.085882476   -0.0048275403 
   4160000   0.068174239   -0.13283272     0             -0.078825944    0.0096445844 
   4170000   0.072397098   -0.13850257     0             -0.081150495   -0.067321176  
   4180000   0.073979085   -0.13788596     0             -0.079280655   -0.025630991  
   4190000   0.06746303    -0.15252387     0             -0.099080498   -0.03078405   
   4200000   0.070289589   -0.1504465      0             -0.094763971   -0.012670687  
   4210000   0.068320901   -0.15619825     0             -0.10207528     0.0079690754 
   4220000   0.064484626   -0.15314803     0             -0.10206412    -0.0087655373 
   4230000   0.07938329    -0.14692281     0             -0.084036359   -0.0020556761 
   4240000   0.077151884   -0.13465265     0             -0.073533896   -0.046701229  
   4250000   0.070005045   -0.14035691     0             -0.084899792   -0.025490879  
   4260000   0.081249568   -0.14106116     0             -0.076696267   -0.0065256521 
   4270000   0.06030442    -0.16421682     0             -0.11644441     0.0024026818 
   4280000   0.067108394   -0.15993483     0             -0.1067724      0.018057202  
   4290000   0.074389971   -0.16289294     0             -0.10396213    -0.01502686   
   4300000   0.066256073   -0.16235546     0             -0.10986822     0.026367738  
   4310000   0.072837271   -0.16245388     0             -0.1047531     -0.030377099  
   4320000   0.077473102   -0.14641717     0             -0.085043949   -0.042595622  
   4330000   0.069030334   -0.15361635     0             -0.098931383   -0.014106679  
   4340000   0.071825335   -0.15779058     0             -0.10089144    -0.0084195909 
   4350000   0.071497568   -0.15946709     0             -0.10282761     0.013405591  
   4360000   0.078939629   -0.14850315     0             -0.085968166   -0.054924784  
   4370000   0.071137231   -0.15606675     0             -0.099712728    0.019961384  
   4380000   0.069869209   -0.15238765     0             -0.097038132   -0.036127548  
   4390000   0.071613348   -0.14636294     0             -0.08963174     0.012502416  
   4400000   0.077052385   -0.13359749     0             -0.072557554   -0.009528907  
   4410000   0.066082594   -0.15951145     0             -0.10716165    -0.0011129821 
   4420000   0.069467204   -0.12959794     0             -0.074566889   -0.11878001   
   4430000   0.073575347   -0.1507632      0             -0.092477734   -0.023527665  
   4440000   0.065380877   -0.14333729     0             -0.09154338     0.037003854  
   4450000   0.062137262   -0.1561474      0             -0.10692303    -0.042504423  
   4460000   0.07328547    -0.15424082     0             -0.096184983    0.0039258817 
   4470000   0.07499114    -0.15045661     0             -0.091049568   -0.0046109141 
   4480000   0.070593645   -0.13268311     0             -0.076759703   -0.058759541  
   4490000   0.069119521   -0.14528951     0             -0.090533887   -0.084230385  
   4500000   0.07487777    -0.15351682     0             -0.094199589   -0.044093139  
   4510000   0.068856104   -0.15422539     0             -0.09967844     0.11359092   
   4520000   0.066141883   -0.14315664     0             -0.090759867    0.026990015  
   4530000   0.067744419   -0.1368319      0             -0.083165614    0.00084196295
   4540000   0.062242419   -0.14061119     0             -0.091303524   -0.045827637  
   4550000   0.075932534   -0.14948376     0             -0.089330957    0.0049776917 
   4560000   0.072723051   -0.17478538     0             -0.11717508    -0.030226788  
   4570000   0.068038916   -0.16939143     0             -0.11549185     0.0016064568 
   4580000   0.066657439   -0.17333726     0             -0.12053207    -0.048382884  
   4590000   0.071655947   -0.14695102     0             -0.090186078   -0.049195441  
   4600000   0.070432695   -0.15487461     0             -0.099078707   -0.049167761  
   4610000   0.070869295   -0.17426666     0             -0.11812489    -0.088225227  
   4620000   0.069585036   -0.15168353     0             -0.096559135   -0.0060525528 
   4630000   0.071013816   -0.14685656     0             -0.090600305    0.017028213  
   4640000   0.065347919   -0.14566659     0             -0.093898785    0.0012545944 
   4650000   0.068537606   -0.15008919     0             -0.095794555    0.032413074  
   4660000   0.07322807    -0.14207081     0             -0.084060446   -0.073551391  
   4670000   0.074244059   -0.14997142     0             -0.091156201   -0.084730743  
   4680000   0.071698956   -0.13477629     0             -0.077977268   -0.090518212  
   4690000   0.072539907   -0.16124973     0             -0.10378452    -0.036574211  
   4700000   0.073039792   -0.16485498     0             -0.10699377    -0.0054810387 
   4710000   0.067262484   -0.16705375     0             -0.11376925    -0.015883542  
   4720000   0.067453621   -0.15111619     0             -0.097680276   -0.020120079  
   4730000   0.074317056   -0.13246776     0             -0.073594722    0.10822975   
   4740000   0.071815562   -0.14091754     0             -0.084026146   -0.070996435  
   4750000   0.070852756   -0.14092483     0             -0.08479616    -0.057422172  
   4760000   0.068618933   -0.14428633     0             -0.089927269    0.019496695  
   4770000   0.076937144   -0.14490646     0             -0.083957819   -0.0022064762 
   4780000   0.06715129    -0.15770963     0             -0.10451322     0.01576442   
   4790000   0.071669432   -0.16059852     0             -0.10382289     0.086009915  
   4800000   0.083643445   -0.16176009     0             -0.095498798    0.060506284  
   4810000   0.073046174   -0.15695139     0             -0.099085124    0.0021351437 
   4820000   0.067898998   -0.13659955     0             -0.08281081     0.053163199  
   4830000   0.070584093   -0.14568111     0             -0.089765276   -0.11895547   
   4840000   0.067348672   -0.16603594     0             -0.11268317    -0.079747526  
   4850000   0.068503155   -0.15355082     0             -0.099283475    0.021126551  
   4860000   0.066005513   -0.14232374     0             -0.090035      -0.08815175   
   4870000   0.076985071   -0.14901117     0             -0.08802456    -0.062853182  
   4880000   0.071837956   -0.14658137     0             -0.089672244   -0.025617358  
   4890000   0.066113163   -0.16593387     0             -0.11355985    -0.0062671906 
   4900000   0.067464858   -0.15881444     0             -0.10536962    -0.038606495  
   4910000   0.068019455   -0.1512943      0             -0.097410136   -0.047032916  
   4920000   0.071266417   -0.15028876     0             -0.093832391   -0.034209713  
   4930000   0.078218082   -0.14007915     0             -0.078115762    0.010023742  
   4940000   0.075730222   -0.16218935     0             -0.10219682    -0.0045980477 
   4950000   0.061147924   -0.14985082     0             -0.1014102     -0.066260966  
   4960000   0.070566057   -0.15690906     0             -0.10100751    -0.042836631  
   4970000   0.066313842   -0.15570856     0             -0.10317557    -0.075524357  
   4980000   0.069918285   -0.14827414     0             -0.092885745   -0.005642476  
   4990000   0.076153325   -0.15288794     0             -0.092560223   -0.051286464  
   5000000   0.059061125   -0.14927339     0             -0.1024859     -0.0189857    
   5010000   0.070372497   -0.13523035     0             -0.079482139   -0.0010467626 
   5020000   0.07151895    -0.16933187     0             -0.11267545    -0.030930046  
   5030000   0.072594367   -0.14218228     0             -0.084673935    0.0019167747 
   5040000   0.068244017   -0.14960543     0             -0.095543374   -0.064220167  
   5050000   0.068133586   -0.13793942     0             -0.083964842    0.037897839  
   5060000   0.065383397   -0.15719179     0             -0.10539588    -0.079110631  
   5070000   0.073367971   -0.14145818     0             -0.083336986   -0.042614734  
   5080000   0.073729826   -0.14005917     0             -0.081651325   -0.041609831  
   5090000   0.063372232   -0.13921174     0             -0.089009048    0.055761351  
   5100000   0.072115214   -0.13157265     0             -0.074443877   -0.10294855   
   5110000   0.072295928   -0.15576268     0             -0.098490753   -0.012908652  
   5120000   0.072210889   -0.14893469     0             -0.091730128   -0.085963389  
   5130000   0.069888957   -0.15342874     0             -0.098063586    0.018014119  
   5140000   0.064344216   -0.15512449     0             -0.10415181     0.0054953563 
   5150000   0.067563171   -0.15919548     0             -0.10567278    -0.036708373  
   5160000   0.0734492     -0.15809996     0             -0.099914426   -0.1569013    
   5170000   0.071275197   -0.16697188     0             -0.11050856    -0.0016086023 
   5180000   0.060622966   -0.1720817      0             -0.12405695    -0.055032406  
   5190000   0.06581738    -0.17318044     0             -0.12104074    -0.034053226  
   5200000   0.068055258   -0.17205929     0             -0.11814676     0.06333235   
   5210000   0.065406598   -0.16409145     0             -0.11227716    -0.031672759  
   5220000   0.065970401   -0.14470743     0             -0.092446502   -0.035909165  
   5230000   0.067001065   -0.16229841     0             -0.109221      -0.097457146  
   5240000   0.072454447   -0.14650716     0             -0.089109654    0.0065087577 
   5250000   0.073512888   -0.14203071     0             -0.083794716    0.013205357  
   5260000   0.070022165   -0.14159178     0             -0.086121093   -0.018189625  
   5270000   0.067370093   -0.15256032     0             -0.099190572   -0.022648558  
   5280000   0.068852802   -0.14459704     0             -0.090052712   -0.046415311  
   5290000   0.070495783   -0.14312527     0             -0.087279389   -0.038336715  
   5300000   0.069895742   -0.13247029     0             -0.077099756   -0.01910717   
   5310000   0.064666138   -0.14569561     0             -0.094467907   -0.045095487  
   5320000   0.074589779   -0.13062962     0             -0.071540531   -0.074659822  
   5330000   0.068668723   -0.14855405     0             -0.094155542   -0.033395516  
   5340000   0.079101277   -0.12706047     0             -0.064397427   -0.0068031462 
   5350000   0.062747166   -0.14172826     0             -0.092020738   -0.065089137  
   5360000   0.068513047   -0.14041266     0             -0.086137477   -0.050304484  
   5370000   0.076656756   -0.1377429      0             -0.077016374    0.0023348493 
   5380000   0.068943101   -0.12616382     0             -0.071547961   -0.032956938  
   5390000   0.072826527   -0.13740901     0             -0.079716749   -0.069660128  
   5400000   0.062901183   -0.1528102      0             -0.10298067    -0.039471112  
   5410000   0.071834545   -0.16002977     0             -0.10312334    -0.032569109  
   5420000   0.071119489   -0.15250783     0             -0.096167858   -0.006386131  
   5430000   0.086978832   -0.15477212     0             -0.085868578   -0.0010703179 
   5440000   0.06755191    -0.13487292     0             -0.081359143   -0.025146651  
   5450000   0.067490146   -0.15329002     0             -0.099825172   -0.02153105   
   5460000   0.073323611   -0.1517609      0             -0.093674856   -0.0087011675 
   5470000   0.076329508   -0.15577331     0             -0.095306028    0.038600236  
   5480000   0.080306233   -0.14790085     0             -0.084283251   -0.032745096  
   5490000   0.074834911   -0.14610879     0             -0.086825512   -0.040836761  
   5500000   0.070298954   -0.1585829      0             -0.10289295    -0.056614355  
   5510000   0.076028587   -0.14874647     0             -0.088517576    0.015825333  
   5520000   0.080567547   -0.15596206     0             -0.092137453    0.017784949  
   5530000   0.077606485   -0.14372553     0             -0.082246647   -0.0032463235 
   5540000   0.076616817   -0.13444209     0             -0.073747205   -0.044158365  
   5550000   0.081285695   -0.15044795     0             -0.086054438   -0.11816266   
   5560000   0.07142756    -0.14941813     0             -0.092834112   -0.011812951  
   5570000   0.064549474   -0.13425178     0             -0.083116495   -0.061900862  
   5580000   0.07011461    -0.14343139     0             -0.087887476   -0.037507644  
   5590000   0.068249956   -0.1387082      0             -0.084641437   -0.056573437  
   5600000   0.072778538   -0.14948127     0             -0.091827023    0.048099816  
   5610000   0.071297091   -0.13446949     0             -0.07798883    -0.017653987  
   5620000   0.076374255   -0.13726732     0             -0.076764587    0.0024152447 
   5630000   0.077222572   -0.13960826     0             -0.078433499   -0.087919803  
   5640000   0.07079304    -0.12517583     0             -0.069094467    0.0008631833 
   5650000   0.079603522   -0.12268161     0             -0.059620694   -0.0046540793 
   5660000   0.069056783   -0.14353365     0             -0.088827733   -0.046782968  
   5670000   0.069718064   -0.1387665      0             -0.083536724   -0.020075714  
   5680000   0.072385102   -0.13322316     0             -0.075880589    0.04938088   
   5690000   0.071263341   -0.13361212     0             -0.077158189    0.012349417  
   5700000   0.073194412   -0.13473579     0             -0.076752089   -0.049325579  
   5710000   0.070161277   -0.14337654     0             -0.087795649   -4.0962197e-05
   5720000   0.063403933   -0.13784119     0             -0.087613384   -0.045222113  
   5730000   0.072528132   -0.13197543     0             -0.074519555   -0.038405558  
   5740000   0.069931724   -0.13790704     0             -0.082508006    0.0084200037 
   5750000   0.063710313   -0.15348106     0             -0.10301055    -0.011104847  
   5760000   0.065838727   -0.14324825     0             -0.091091636    0.036842136  
   5770000   0.077247146   -0.13070643     0             -0.069512207    0.080618019  
   5780000   0.077384984   -0.13403889     0             -0.07273547    -0.0076056706 
   5790000   0.073250666   -0.15849038     0             -0.10046212     0.099186063  
   5800000   0.073555569   -0.15239932     0             -0.094129514   -0.087402488  
   5810000   0.075011808   -0.15470426     0             -0.095280843    0.014291728  
   5820000   0.079744437   -0.15727679     0             -0.094104245   -0.14642474   
   5830000   0.066828675   -0.13223621     0             -0.079295368   -0.050629563  
   5840000   0.069764091   -0.15860896     0             -0.10334272    -0.046042561  
   5850000   0.077489028   -0.15457105     0             -0.093185213   -0.062336767  
   5860000   0.075839223   -0.14992506     0             -0.089846176   -0.053913855  
   5870000   0.068447231   -0.14793974     0             -0.093716703    0.033013503  
   5880000   0.078518882   -0.16163919     0             -0.099437509   -0.062603603  
   5890000   0.087425788   -0.12990862     0             -0.060651006   -0.13233558   
   5900000   0.07533435    -0.13197453     0             -0.072295597   -0.054866582  
   5910000   0.069845777   -0.15995725     0             -0.1046263      0.016470266  
   5920000   0.069302198   -0.14489542     0             -0.089995088    0.023815989  
   5930000   0.06560901    -0.14205783     0             -0.090083189   -0.088344133  
   5940000   0.073038602   -0.14293526     0             -0.085074994    0.069752524  
   5950000   0.075634697   -0.13958151     0             -0.079664648    0.024049579  
   5960000   0.078215782   -0.13892797     0             -0.076966401   -0.027927461  
   5970000   0.070942659   -0.1629222      0             -0.10672231    -0.047490349  
   5980000   0.072716243   -0.15974462     0             -0.10213972    -0.0021402226 
   5990000   0.068840055   -0.15834712     0             -0.10381289    -0.02540031   
   6000000   0.073448357   -0.14397112     0             -0.085786251   -0.0037680316 
   6010000   0.065277748   -0.15450472     0             -0.1027925      0.0023160105 
   6020000   0.075306534   -0.144026       0             -0.084369108   -0.037182221  
   6030000   0.07097891    -0.1316695      0             -0.075440894    0.055520062  
   6040000   0.072790674   -0.13765608     0             -0.079992218    0.089453506  
   6050000   0.072422007   -0.13366842     0             -0.076296612    0.070305122  
   6060000   0.067535482   -0.13892645     0             -0.085425686    0.13653661   
   6070000   0.072557949   -0.16191247     0             -0.10443297    -0.028449961  
   6080000   0.067598736   -0.1549026      0             -0.10135172    -0.098500163  
   6090000   0.068995444   -0.14769408     0             -0.093036752   -0.071787358  
   6100000   0.061046655   -0.14678957     0             -0.09842917     0.0036069011 
   6110000   0.071054311   -0.1474732      0             -0.091184867   -0.089228451  
   6120000   0.066517235   -0.15352172     0             -0.1008276      0.0085886679 
   6130000   0.068292138   -0.16068508     0             -0.10658491     0.0019635887 
   6140000   0.073444135   -0.16086318     0             -0.10268165    -0.02592453   
   6150000   0.070224706   -0.1611079      0             -0.10547676     0.018267699  
   6160000   0.075133241   -0.15575325     0             -0.096233634   -0.015781269  
   6170000   0.064811401   -0.1461813      0             -0.094838516    0.11819798   
   6180000   0.08372464    -0.14548766     0             -0.079162047   -0.049020013  
   6190000   0.079076251   -0.14315637     0             -0.080513157    0.065231681  
   6200000   0.077901772   -0.14081614     0             -0.07910333    -0.05131427   
   6210000   0.065359878   -0.14443651     0             -0.092659235    0.022212624  
   6220000   0.077246842   -0.15540764     0             -0.094213658   -0.021279589  
   6230000   0.074623159   -0.15992496     0             -0.10080943    -0.065423574  
   6240000   0.069478414   -0.13181369     0             -0.076773758   -0.052713215  
   6250000   0.075410378   -0.12348335     0             -0.063744191   -0.13152533   
   6260000   0.08042008    -0.14189239     0             -0.078184607   -0.024345321  
   6270000   0.079967582   -0.13065654     0             -0.067307218    0.0008962061 
   6280000   0.072540629   -0.13072981     0             -0.073264035   -0.042049995  
   6290000   0.07030454    -0.12368433     0             -0.067989951    0.053271661  
   6300000   0.075145352   -0.12892016     0             -0.069390954   -0.012856614  
   6310000   0.069148526   -0.14949793     0             -0.094719334   -0.067495765  
   6320000   0.06501634    -0.13714513     0             -0.085639997   -0.069292237  
   6330000   0.073245947   -0.13649116     0             -0.078466637   -0.042600051  
   6340000   0.073845068   -0.13575964     0             -0.077260505   -0.073524953  
   6350000   0.068679487   -0.13785113     0             -0.0834441      0.0043299853 
   6360000   0.069226693   -0.14423094     0             -0.089390417    0.056967651  
   6370000   0.067087726   -0.13557895     0             -0.082432892   -0.057753693  
   6380000   0.07252247    -0.14326409     0             -0.085812693   -0.093148786  
   6390000   0.067421735   -0.14699272     0             -0.093582063    0.023821549  
   6400000   0.07411791    -0.13304435     0             -0.074329072    0.089906757  
   6410000   0.065709486   -0.14447413     0             -0.092419898   -0.017084662  
   6420000   0.073768872   -0.15314012     0             -0.094701345    0.020596777  
   6430000   0.070070779   -0.15555626     0             -0.10004706    -0.0083057077 
   6440000   0.073541764   -0.14825196     0             -0.089993095    0.030949774  
   6450000   0.072036258   -0.13336589     0             -0.076299668   -0.038394617  
   6460000   0.069395172   -0.147767       0             -0.092793009   -0.024538233  
   6470000   0.070470235   -0.13540348     0             -0.079577838   -0.018988059  
   6480000   0.066595151   -0.13331724     0             -0.080561394    0.0081848882 
   6490000   0.07249656    -0.11488687     0             -0.057456004   -0.068624967  
   6500000   0.071475632   -0.13133204     0             -0.074709936   -0.11165515   
   6510000   0.065715327   -0.13487502     0             -0.082816162   -0.027569843  
   6520000   0.06430423    -0.13441719     0             -0.083476186   -0.012855577  
   6530000   0.064598425   -0.12655116     0             -0.075377099    0.0077181069 
   6540000   0.066418183   -0.1356767      0             -0.083061041    0.0093512183 
   6550000   0.077986703   -0.14091676     0             -0.079136666   -0.050043081  
   6560000   0.074691087   -0.14755252     0             -0.088383176   -0.043904949  
   6570000   0.068165562   -0.14731485     0             -0.093314946   -0.067850257  
   6580000   0.072276225   -0.13743817     0             -0.080181848    0.003704303  
   6590000   0.069205818   -0.13215268     0             -0.077328694   -0.076892661  
   6600000   0.071149762   -0.11920644     0             -0.062842486   -0.091907988  
   6610000   0.073614903   -0.12231504     0             -0.063998229   -0.062164348  
   6620000   0.06949752    -0.13589361     0             -0.080838542   -0.037110716  
   6630000   0.070046767   -0.12799643     0             -0.072506252   -0.0056110119 
   6640000   0.063386124   -0.13546192     0             -0.085248223    0.083736667  
   6650000   0.066946739   -0.13267937     0             -0.079645003    0.019304529  
   6660000   0.077651175   -0.15427352     0             -0.09275923    -0.025170667  
   6670000   0.067647016   -0.13402286     0             -0.080433743    0.048801917  
   6680000   0.065158767   -0.1387028      0             -0.087084843    0.052166718  
   6690000   0.074048257   -0.14197425     0             -0.083314151   -0.069891029  
   6700000   0.074264144   -0.13955015     0             -0.080719025   -0.040318707  
   6710000   0.064433663   -0.1444731      0             -0.093429557    0.00019895461
   6720000   0.067649757   -0.15590331     0             -0.10231202    -0.098957388  
   6730000   0.069204962   -0.14660902     0             -0.091785711   -0.013285209  
   6740000   0.071647868   -0.14404584     0             -0.087287295   -0.034016797  
   6750000   0.07299827    -0.14631784     0             -0.088489523    0.017930923  
   6760000   0.083279715   -0.15300161     0             -0.087028461   -0.014058394  
   6770000   0.065385802   -0.16792882     0             -0.11613101     0.0021905143 
   6780000   0.073079985   -0.14564002     0             -0.087746974   -0.094859091  
   6790000   0.077264107   -0.15124436     0             -0.090036701    0.053866246  
   6800000   0.079189981   -0.14478058     0             -0.082047268    0.070264078  
   6810000   0.070915296   -0.13684134     0             -0.080663126   -0.016942266  
   6820000   0.081172729   -0.14409841     0             -0.079794384   -0.092622378  
   6830000   0.069389667   -0.13483958     0             -0.079869949   -0.035086817  
   6840000   0.069977951   -0.126695       0             -0.071259345   -0.08162525   
   6850000   0.076889039   -0.13949211     0             -0.078581575   -0.051304796  
   6860000   0.07152672    -0.12497529     0             -0.068312721    0.06960768   
   6870000   0.07554876    -0.14533213     0             -0.085483343   -0.011201658  
   6880000   0.067461792   -0.13637979     0             -0.082937401   -0.075255257  
   6890000   0.070718881   -0.14899004     0             -0.09296743    -0.039916581  
   6900000   0.064216125   -0.1461424      0             -0.095271186   -0.026587546  
   6910000   0.073562076   -0.15231819     0             -0.094043237   -0.024289037  
   6920000   0.07749998    -0.14819643     0             -0.086801915   -0.090735219  
   6930000   0.063031642   -0.13468003     0             -0.084747155   -0.0037349727 
   6940000   0.074213744   -0.14928134     0             -0.090490143    0.029335132  
   6950000   0.067457894   -0.15893414     0             -0.10549483    -0.026116563  
   6960000   0.071771443   -0.15895308     0             -0.10209664    -0.045859374  
   6970000   0.085341687   -0.13006267     0             -0.062456052   -0.015397023  
   6980000   0.067392854   -0.14170508     0             -0.088317307   -0.0063740485 
   6990000   0.065239119   -0.15460624     0             -0.10292462     0.020406832  
   7000000   0.068077096   -0.15328535     0             -0.099355528   -0.036019411  
   7010000   0.065447545   -0.15433656     0             -0.10248983    -0.056730655  
   7020000   0.064437557   -0.15557965     0             -0.10453303     0.012955294  
   7030000   0.063502257   -0.14957365     0             -0.099267955   -0.034677388  
   7040000   0.062397991   -0.15663862     0             -0.10720771    -0.017635571  
   7050000   0.063430614   -0.14471935     0             -0.094470406    0.08219272   
   7060000   0.071882588   -0.14422946     0             -0.087284968    0.0088931178 
   7070000   0.064774398   -0.14820623     0             -0.096892763   -0.00012208223
   7080000   0.077765774   -0.15620661     0             -0.094601536    0.027920486  
   7090000   0.06945816    -0.15499603     0             -0.099972148   -0.035034448  
   7100000   0.073396331   -0.16233731     0             -0.10419365    -0.059116839  
   7110000   0.070116847   -0.14397141     0             -0.08842572     0.026984479  
   7120000   0.071290153   -0.1545259      0             -0.098050731    0.0050500925 
   7130000   0.079147245   -0.14064176     0             -0.077942302   -0.0074510376 
   7140000   0.071673645   -0.14517578     0             -0.088396811   -0.022927389  
   7150000   0.077330147   -0.14493663     0             -0.083676655   -0.074923027  
   7160000   0.064843207   -0.16159853     0             -0.11023056    -0.028115707  
   7170000   0.065953869   -0.13573871     0             -0.083490877   -0.028508312  
   7180000   0.071558212   -0.14475029     0             -0.088062765    0.098517117  
   7190000   0.07392276    -0.13763025     0             -0.079069568   -0.011695815  
   7200000   0.078515044   -0.13377708     0             -0.07157844     0.064273054  
   7210000   0.070262148   -0.13720383     0             -0.081543038    0.028357049  
   7220000   0.074501449   -0.1346442      0             -0.075625085   -0.055855429  
   7230000   0.075005486   -0.1385868      0             -0.079168393    0.046320606  
   7240000   0.068088193   -0.14528051     0             -0.09134189    -0.057988955  
   7250000   0.078521522   -0.14326954     0             -0.081065771   -0.021475489  
   7260000   0.07725629    -0.138118       0             -0.076916529   -0.04210856   
   7270000   0.072109046   -0.14519334     0             -0.088069456    0.037930827  
   7280000   0.070139256   -0.15450321     0             -0.098939768    0.023608064  
   7290000   0.073919      -0.14266127     0             -0.084103565    0.0095688574 
   7300000   0.068014483   -0.13011402     0             -0.076233799    0.029398188  
   7310000   0.073363006   -0.14436239     0             -0.086245135   -0.080003716  
   7320000   0.075850526   -0.14901517     0             -0.088927327    0.021314051  
   7330000   0.075834745   -0.15262774     0             -0.092552407    0.073874548  
   7340000   0.065050439   -0.15358151     0             -0.10204936     0.031869675  
   7350000   0.073975094   -0.14283097     0             -0.08422882    -0.03062266   
   7360000   0.066415388   -0.15146888     0             -0.098855439   -0.039737011  
   7370000   0.078261271   -0.1603375      0             -0.098339895   -0.010263394  
   7380000   0.065050062   -0.14212937     0             -0.090597526   -0.099027539  
   7390000   0.077256961   -0.13861176     0             -0.077409759   -0.013236334  
   7400000   0.075698982   -0.15286201     0             -0.092894222   -0.082686958  
   7410000   0.073322486   -0.16104957     0             -0.10296441    -0.0099444103 
   7420000   0.065264196   -0.16321207     0             -0.11151059    -0.018341186  
   7430000   0.074184443   -0.16403414     0             -0.10526615    -0.0010108339 
   7440000   0.071553983   -0.13861513     0             -0.081930963   -0.01771667   
   7450000   0.067329176   -0.15337844     0             -0.10004111    -0.041246154  
   7460000   0.071075075   -0.15694447     0             -0.10063969    -0.095459957  
   7470000   0.067113514   -0.15281902     0             -0.099652533    0.012124891  
   7480000   0.069540364   -0.15979125     0             -0.10470225    -0.035316687  
   7490000   0.072427016   -0.15055737     0             -0.093181594   -0.047104444  
   7500000   0.072644093   -0.15174489     0             -0.094197152   -0.064755585  
   7510000   0.066647506   -0.16200932     0             -0.109212      -0.10590053   
   7520000   0.071112765   -0.15531198     0             -0.098977333    0.0417105    
   7530000   0.07777205    -0.13297777     0             -0.071367723   -0.037382029  
   7540000   0.082963684   -0.13749525     0             -0.071772456    0.050119551  
   7550000   0.071492342   -0.16051852     0             -0.10388318    -0.0056390513 
   7560000   0.063465329   -0.1553334      0             -0.10505696     0.04081656   
   7570000   0.071814937   -0.14728015     0             -0.090389254   -0.057286093  
   7580000   0.062358054   -0.1468779      0             -0.097478629   -0.088944674  
   7590000   0.075115687   -0.14480771     0             -0.085301999   -0.038172134  
   7600000   0.071528234   -0.15917434     0             -0.10251057    -0.010319984  
   7610000   0.075033925   -0.14526529     0             -0.085824356   -0.0028894262 
   7620000   0.074517788   -0.16363302     0             -0.10460096    -0.051167712  
   7630000   0.075408218   -0.16130529     0             -0.10156785     0.018849217  
   7640000   0.074952841   -0.14796534     0             -0.08858864    -0.078640134  
   7650000   0.073311932   -0.14850508     0             -0.090428289    0.053559352  
   7660000   0.061884449   -0.15731351     0             -0.10828942     0.030805516  
   7670000   0.075096662   -0.15350539     0             -0.09401475    -0.041030883  
   7680000   0.072407765   -0.15936203     0             -0.1020015     -0.0097837157 
   7690000   0.069446051   -0.15633125     0             -0.10131695     0.041388055  
   7700000   0.070949923   -0.16143816     0             -0.10523252    -0.090210361  
   7710000   0.070368281   -0.14800642     0             -0.092261548    0.020175881  
   7720000   0.070273696   -0.16063174     0             -0.1049618      0.014704133  
   7730000   0.075756855   -0.16690807     0             -0.10689443    -0.0061959026 
   7740000   0.073574506   -0.13710858     0             -0.078823772    0.04256872   
   7750000   0.068769117   -0.15298895     0             -0.098510919   -0.029819083  
   7760000   0.065280647   -0.15691328     0             -0.10519876    -0.0025863777 
   7770000   0.067036645   -0.14200602     0             -0.088900429   -0.11010612   
   7780000   0.064491048   -0.15981496     0             -0.10872596     0.020854745  
   7790000   0.070786184   -0.15676935     0             -0.10069342    -0.053665011  
   7800000   0.069554928   -0.15860004     0             -0.10349949    -0.095012151  
   7810000   0.071688756   -0.15797287     0             -0.10118193    -0.048835058  
   7820000   0.063605734   -0.15583897     0             -0.1054513     -0.073194486  
   7830000   0.065028759   -0.16110274     0             -0.10958777    -0.036931827  
   7840000   0.068429786   -0.1505876      0             -0.09637838    -0.032322236  
   7850000   0.06221441    -0.15027977     0             -0.10099429    -0.0057817668 
   7860000   0.066858264   -0.14774064     0             -0.094776362    0.00065898892
   7870000   0.073012089   -0.14722814     0             -0.08938888    -0.0086677229 
   7880000   0.072838828   -0.15845129     0             -0.10074928     0.0057321807 
   7890000   0.075710979   -0.16387205     0             -0.10389476     0.0077097974 
   7900000   0.067497567   -0.14405662     0             -0.090585889   -0.023654471  
   7910000   0.068688189   -0.15465463     0             -0.1002407     -0.14274593   
   7920000   0.076256954   -0.15843101     0             -0.098021207   -0.13568539   
   7930000   0.074714453   -0.14188458     0             -0.082696725   -0.049277924  
   7940000   0.072284992   -0.14207345     0             -0.084810179    0.035417419  
   7950000   0.068928212   -0.15675338     0             -0.10214932     0.013765743  
   7960000   0.069983967   -0.15078978     0             -0.095349359    0.03119202   
   7970000   0.073452269   -0.13915305     0             -0.080965085   -0.049893397  
   7980000   0.076986589   -0.13937197     0             -0.078384156    0.043046228  
   7990000   0.073835761   -0.15265983     0             -0.09416806    -0.019401682  
   8000000   0.074950235   -0.15056559     0             -0.091190952   -0.036209485  
   8010000   0.075174137   -0.14605304     0             -0.086501026    0.087284928  
   8020000   0.071282582   -0.15169059     0             -0.095221418   -0.081910953  
   8030000   0.072619252   -0.16044475     0             -0.10291669    -0.0094666072 
   8040000   0.075534081   -0.15159885     0             -0.091761698    0.0039150666 
   8050000   0.072618824   -0.17379903     0             -0.11627131    -0.10112934   
   8060000   0.071865047   -0.15030242     0             -0.093371832   -0.06864005   
   8070000   0.074497254   -0.15634154     0             -0.097325746   -0.062821169  
   8080000   0.069992641   -0.15923063     0             -0.10378333     0.088799092  
   8090000   0.075960277   -0.16041714     0             -0.10024236    -0.070731996  
   8100000   0.069872049   -0.15467113     0             -0.099319362   -0.011680277  
   8110000   0.071801261   -0.14856947     0             -0.091689407    0.014130726  
   8120000   0.073316699   -0.15071471     0             -0.092634138   -0.05466485   
   8130000   0.071054916   -0.16140529     0             -0.10511647    -0.075951713  
   8140000   0.07650745    -0.14279994     0             -0.082191695   -0.062148187  
   8150000   0.073774614   -0.14434209     0             -0.085898759    0.019483519  
   8160000   0.072156346   -0.13912982     0             -0.081968467    0.0083253173 
   8170000   0.075292894   -0.13815236     0             -0.078506267   -0.054557988  
   8180000   0.07151672    -0.12500233     0             -0.068347676   -0.089365184  
   8190000   0.078639574   -0.12928893     0             -0.066991644   -0.1242273    
   8200000   0.080105603   -0.13875395     0             -0.075295288   -0.020903909  
   8210000   0.065773056   -0.12965991     0             -0.07755532    -0.10153869   
   8220000   0.074622274   -0.14596542     0             -0.086850588   -0.024276896  
   8230000   0.076289026   -0.1315543      0             -0.071119089   -0.061427414  
   8240000   0.072205416   -0.13685417     0             -0.079653941   -0.017437656  
   8250000   0.078262069   -0.13115756     0             -0.069159325   -0.039490742  
   8260000   0.071474175   -0.15229917     0             -0.095678225    0.025667553  
   8270000   0.070534721   -0.15118229     0             -0.095305567    0.05461059   
   8280000   0.066508861   -0.14786093     0             -0.095173438   -0.046293323  
   8290000   0.073764791   -0.15715655     0             -0.098721005    0.039977684  
   8300000   0.06285012    -0.15944154     0             -0.10965246    -0.089499366  
   8310000   0.069876029   -0.14642065     0             -0.091065733   -0.016123347  
   8320000   0.066640444   -0.16433731     0             -0.11154558     0.05255697   
   8330000   0.066814364   -0.14205093     0             -0.089121428    0.037653005  
   8340000   0.07468567    -0.16964423     0             -0.11047917    -0.060319803  
   8350000   0.070218143   -0.16296244     0             -0.10733651     0.011475037  
   8360000   0.075555018   -0.1662119      0             -0.10635815    -0.094299088  
   8370000   0.064708878   -0.16403918     0             -0.11277761    -0.061276707  
   8380000   0.064403363   -0.16190393     0             -0.11088439    -0.10737105   
   8390000   0.078195224   -0.15883781     0             -0.09689253     0.049532204  
   8400000   0.08271859    -0.16720691     0             -0.10167827     0.027382418  
   8410000   0.064653915   -0.16137895     0             -0.11016092    -0.098585673  
   8420000   0.067145979   -0.14795231     0             -0.094760102    0.00072659958
   8430000   0.073592912   -0.15091679     0             -0.092617405   -0.063615487  
   8440000   0.074684073   -0.15282972     0             -0.093665931    0.0084054218 
   8450000   0.074712375   -0.17535865     0             -0.11617244    -0.026252937  
   8460000   0.071409419   -0.16267398     0             -0.10610433    -0.090537955  
   8470000   0.068053928   -0.14073951     0             -0.086828042   -0.031075475  
   8480000   0.06926214    -0.16679026     0             -0.11192166     0.0012799626 
   8490000   0.08088048    -0.18235188     0             -0.11827937    -0.013505279  
   8500000   0.076788012   -0.16113644     0             -0.10030594     0.041123077  
   8510000   0.065161538   -0.15179313     0             -0.10017297    -0.01147417   
   8520000   0.070161987   -0.17146184     0             -0.11588039    -0.036593625  
   8530000   0.069816186   -0.16195509     0             -0.10664758    -0.066855816  
   8540000   0.073867894   -0.15295561     0             -0.094438388    0.055358053  
   8550000   0.071869217   -0.14593987     0             -0.089005977   -0.073644636  
   8560000   0.067849156   -0.13887852     0             -0.085129265    0.040784907  
   8570000   0.068565624   -0.15465044     0             -0.10033361    -0.026269296  
   8580000   0.073697342   -0.12840532     0             -0.070023207    0.0016254166 
   8590000   0.066593975   -0.13466231     0             -0.081907392    0.060869016  
   8600000   0.069464793   -0.15189207     0             -0.096862929   -0.10351577   
   8610000   0.075667571   -0.16448316     0             -0.10454025    -0.023174726  
   8620000   0.079218274   -0.15853406     0             -0.095778331   -0.034640287  
   8630000   0.07187081    -0.15945516     0             -0.10252001    -0.049402737  
   8640000   0.069081732   -0.16249682     0             -0.10777114    -0.038462052  
   8650000   0.063705213   -0.15797924     0             -0.10751277    -0.025682578  
   8660000   0.069571062   -0.14479306     0             -0.089679738   -0.011269711  
   8670000   0.078285635   -0.14113601     0             -0.079119108   -0.074248737  
   8680000   0.078786548   -0.13516649     0             -0.072752776    0.034788327  
   8690000   0.081972053   -0.13600085     0             -0.07106361    -0.050250354  
   8700000   0.065768496   -0.14133726     0             -0.089236279    0.015385251  
   8710000   0.077301328   -0.14104941     0             -0.079812266   -0.011432311  
   8720000   0.078429233   -0.13062762     0             -0.068496967   -0.059883399  
   8730000   0.069179881   -0.14903074     0             -0.094227304    0.035249204  
   8740000   0.074129003   -0.13639609     0             -0.077672024   -0.040356854  
   8750000   0.079696912   -0.12179022     0             -0.058655318    0.025492982  
   8760000   0.070486397   -0.13568441     0             -0.079845963   -0.014926128  
   8770000   0.067968954   -0.14784534     0             -0.094001188   -0.02434291   
   8780000   0.067416867   -0.14133986     0             -0.087933063    0.013928193  
   8790000   0.068314724   -0.15511943     0             -0.10100136     0.051176204  
   8800000   0.066140471   -0.16282725     0             -0.1104316      0.059044206  
   8810000   0.068311156   -0.14480211     0             -0.09068687    -0.061626569  
   8820000   0.079408819   -0.14549723     0             -0.082590552   -0.041740809  
   8830000   0.067316536   -0.16783275     0             -0.11450543    -0.017987978  
   8840000   0.066468804   -0.17081145     0             -0.11815569    -0.0010558378 
   8850000   0.066738976   -0.16187425     0             -0.10900447    -0.015817336  
   8860000   0.068911606   -0.15263951     0             -0.098048598   -0.00011652603
   8870000   0.078639454   -0.14963699     0             -0.0873398      0.069159242  
   8880000   0.072665452   -0.16331926     0             -0.1057546     -0.022039793  
   8890000   0.070775933   -0.16969466     0             -0.11362685    -0.051738082  
   8900000   0.076115169   -0.15602489     0             -0.095727401   -0.16226934   
   8910000   0.068659408   -0.15905228     0             -0.10466116    -0.024937181  
   8920000   0.073420269   -0.14706067     0             -0.088898053   -0.040149428  
   8930000   0.069999812   -0.13942773     0             -0.08397475    -0.0098066148 
   8940000   0.069775159   -0.13673139     0             -0.081456378   -0.041515064  
   8950000   0.076989083   -0.13949811     0             -0.078508321    0.025757546  
   8960000   0.075356419   -0.13596675     0             -0.076270332   -0.018778601  
   8970000   0.075355885   -0.14215137     0             -0.082455377    0.0059488    
   8980000   0.072464274   -0.13341741     0             -0.076012123   -0.0273894    
   8990000   0.07188813    -0.15663776     0             -0.099688886    0.03779537   
   9000000   0.072056793   -0.1411932      0             -0.084110713   -0.03302362   
   9010000   0.074131242   -0.14583808     0             -0.087112235   -0.05088383   
   9020000   0.068272906   -0.14544194     0             -0.091356994   -0.018503655  
   9030000   0.068326846   -0.16424505     0             -0.11011737     0.041217754  
   9040000   0.070137873   -0.15046832     0             -0.094905974    0.0028878025 
   9050000   0.078080853   -0.13802335     0             -0.076168671   -0.032570191  
   9060000   0.074194709   -0.16480011     0             -0.10602399     0.038027615  
   9070000   0.062131232   -0.16651934     0             -0.11729975    -0.029790792  
   9080000   0.069192877   -0.1618128      0             -0.10699906     0.071155606  
   9090000   0.080346669   -0.16520998     0             -0.10156035    -0.025588041  
   9100000   0.076498538   -0.16013107     0             -0.099529881    0.012008925  
   9110000   0.074677618   -0.16270084     0             -0.10354217    -0.06012058   
   9120000   0.074433725   -0.15249066     0             -0.093525189   -0.010909097  
   9130000   0.068389052   -0.14608794     0             -0.091910986    0.048037543  
   9140000   0.073405115   -0.14969585     0             -0.091545233   -0.13080094   
   9150000   0.088116746   -0.14947849     0             -0.079673504   -0.11411778   
   9160000   0.06545487    -0.15248797     0             -0.10063544    -0.038435384  
   9170000   0.068734543   -0.15459377     0             -0.10014312    -0.065816365  
   9180000   0.069553804   -0.14238831     0             -0.087288656   -0.057833811  
   9190000   0.071754328   -0.15114061     0             -0.094297725   -0.043538743  
   9200000   0.08104243    -0.13432778     0             -0.070126979   -0.12004597   
   9210000   0.066108702   -0.14775805     0             -0.095387566   -0.040669361  
   9220000   0.072922245   -0.15190698     0             -0.094138887   -0.086952558  
   9230000   0.076074443   -0.14279616     0             -0.082530938   -0.015990695  
   9240000   0.071928852   -0.12286381     0             -0.065882674   -0.018911507  
   9250000   0.067274851   -0.13867396     0             -0.08537966     0.064367551  
   9260000   0.07129153    -0.13295186     0             -0.076475603    0.068598649  
   9270000   0.071570065   -0.15894578     0             -0.10224887     0.030987869  
   9280000   0.073194349   -0.14492514     0             -0.086941493    0.033259984  
   9290000   0.074663444   -0.15259529     0             -0.093447848   -0.052869196  
   9300000   0.072023181   -0.14792368     0             -0.09086782     0.069191822  
   9310000   0.065093542   -0.13814433     0             -0.086578035   -0.022181854  
   9320000   0.067711717   -0.12982963     0             -0.076189257   -0.045813796  
   9330000   0.071228093   -0.13207709     0             -0.075651086    0.045432043  
   9340000   0.068367918   -0.1439106      0             -0.089750386    0.038826947  
   9350000   0.06740229    -0.14085608     0             -0.087460824    0.011742064  
   9360000   0.075392606   -0.1520283      0             -0.092303225   -0.045992237  
   9370000   0.071756712   -0.14764738     0             -0.090802608    0.038100197  
   9380000   0.073093805   -0.13775916     0             -0.079855162   -0.012720112  
   9390000   0.0783217     -0.14689891     0             -0.084853438   -0.03169449   
   9400000   0.069528306   -0.14423552     0             -0.089156067   -0.01885201   
   9410000   0.070493146   -0.16351862     0             -0.10767483     0.013480015  
   9420000   0.076151535   -0.17038174     0             -0.11005545    -0.074058711  
   9430000   0.071669458   -0.15690228     0             -0.10012663    -0.034127784  
   9440000   0.07411273    -0.15481639     0             -0.096105212    0.018996727  
   9450000   0.076276474   -0.15826125     0             -0.097835982    0.015799101  
   9460000   0.070018972   -0.14806494     0             -0.092596782   -0.05436708   
   9470000   0.07664259    -0.15577142     0             -0.095056122    0.015225883  
   9480000   0.072127443   -0.15331761     0             -0.09617915    -0.0087660724 
   9490000   0.073521107   -0.1670894      0             -0.1088469     -0.060302443  
   9500000   0.071361178   -0.15817817     0             -0.10164674     0.018738872  
   9510000   0.069401672   -0.15808858     0             -0.10310944     0.028125451  
   9520000   0.074579082   -0.17183        0             -0.11274938    -0.0039403232 
   9530000   0.071434354   -0.15143419     0             -0.094844789   -0.068886542  
   9540000   0.075222011   -0.15783481     0             -0.098244877   -0.0038377187 
   9550000   0.069870223   -0.14725551     0             -0.091905189   -0.11199725   
   9560000   0.072723123   -0.13325019     0             -0.075639843   -0.057150768  
   9570000   0.058820458   -0.14653683     0             -0.099939994    0.0362242    
   9580000   0.073438881   -0.13641361     0             -0.078236246    0.010085582  
   9590000   0.069230673   -0.14803604     0             -0.093192369   -0.048967642  
   9600000   0.08191227    -0.15862442     0             -0.093734544   -0.033003272  
   9610000   0.070529074   -0.1585056      0             -0.10263335     0.036612553  
   9620000   0.069471831   -0.15226856     0             -0.097233845    0.012836663  
   9630000   0.064317655   -0.16102359     0             -0.11007195     0.003642684  
   9640000   0.077309222   -0.14743213     0             -0.086188731    0.028504601  
   9650000   0.072940393   -0.14681714     0             -0.089034669    0.017613826  
   9660000   0.074909283   -0.15508215     0             -0.095739953   -0.041435582  
   9670000   0.077143501   -0.14507398     0             -0.083961861   -0.066102454  
   9680000   0.068310063   -0.13018514     0             -0.076070763   -0.041122161  
   9690000   0.073779498   -0.14248432     0             -0.084037128   -0.0010460663 
   9700000   0.074689957   -0.14537693     0             -0.086208478    0.021358815  
   9710000   0.072704151   -0.15143039     0             -0.093835075    0.0053240614 
   9720000   0.073512621   -0.16029064     0             -0.10205486    -0.020323284  
   9730000   0.07397068    -0.13517337     0             -0.076574727   -0.027557126  
   9740000   0.069070799   -0.13633845     0             -0.081621429    0.076421461  
   9750000   0.068612847   -0.14609108     0             -0.091736844   -0.045400963  
   9760000   0.073256944   -0.14557107     0             -0.087537836    0.048570903  
   9770000   0.06469604    -0.14721168     0             -0.095960287   -0.049911918  
   9780000   0.068324714   -0.15871804     0             -0.10459206    -0.03750011   
   9790000   0.07238093    -0.15476652     0             -0.09742725    -0.032390412  
   9800000   0.068704497   -0.14779838     0             -0.093371539   -0.032492391  
   9810000   0.061344598   -0.14891567     0             -0.10031925     0.0020238304 
   9820000   0.07367464    -0.14222138     0             -0.083857247    0.012804201  
   9830000   0.067481003   -0.12435049     0             -0.070892883   -0.020673515  
   9840000   0.080151457   -0.1286013      0             -0.065106322   -0.077066634  
   9850000   0.069993933   -0.12437685     0             -0.068928536    0.0075409393 
   9860000   0.061198251   -0.137377       0             -0.088896508   -0.063792437  
   9870000   0.076816739   -0.13675253     0             -0.075899267    0.087266682  
   9880000   0.071563868   -0.13782922     0             -0.081137215   -0.014435305  
   9890000   0.065845722   -0.14994491     0             -0.097782749   -0.069975487  
   9900000   0.061660101   -0.13542328     0             -0.08657692    -0.052441047  
   9910000   0.070474593   -0.13902747     0             -0.083198376    0.036683759  
   9920000   0.07555662    -0.15454107     0             -0.094686058    0.0030482233 
   9930000   0.072923858   -0.14486289     0             -0.087093524    0.011894297  
   9940000   0.07489668    -0.15306361     0             -0.0937314      0.013539235  
   9950000   0.076364009   -0.13606684     0             -0.075572228   -0.015494221  
   9960000   0.072962049   -0.13809312     0             -0.080293499   -0.024299793  
   9970000   0.071281747   -0.13375799     0             -0.077289477   -0.01307289   
   9980000   0.071103507   -0.13915938     0             -0.082832069   -0.053265056  
   9990000   0.072795323   -0.1333995      0             -0.075731959   -0.10391048   
  10000000   0.064693944   -0.13955868     0             -0.088308942    0.091908955  
  10010000   0.064134736   -0.13865748     0             -0.087850746   -0.033239685  
  10020000   0.066013451   -0.1660976      0             -0.11380257    -0.012678082  
  10030000   0.06770057    -0.16136999     0             -0.10773845    -0.062588031  
  10040000   0.068585923   -0.16960311     0             -0.1152702     -0.06431827   
  10050000   0.072296105   -0.15458085     0             -0.097308775    0.0012955447 
  10060000   0.069654202   -0.14851228     0             -0.093333093   -0.019550466  
  10070000   0.06930822    -0.13702755     0             -0.08212244    -0.064061445  
  10080000   0.065400045   -0.14304879     0             -0.091239693   -0.019178488  
  10090000   0.084944329   -0.17127478     0             -0.10398294    -0.053317913  
  10100000   0.064857487   -0.14166132     0             -0.090282025    0.010773434  
  10110000   0.075821414   -0.14601398     0             -0.085949207   -0.017106347  
  10120000   0.075408384   -0.14747387     0             -0.087736291   -0.006414922  
  10130000   0.078276554   -0.13589277     0             -0.073883065   -0.081125815  
  10140000   0.071978048   -0.12395896     0             -0.066938851   -0.09332349   
  10150000   0.073804721   -0.14010461     0             -0.081637435   -0.028286055  
  10160000   0.076628435   -0.1336823      0             -0.072978216   -0.064968954  
  10170000   0.070198694   -0.14069105     0             -0.085080522    0.012008688  
  10180000   0.068653882   -0.13779761     0             -0.083410863   -0.040742048  
  10190000   0.080220483   -0.14897123     0             -0.085421563    0.038533843  
  10200000   0.07952226    -0.17377258     0             -0.11077604    -0.058040744  
  10210000   0.068055117   -0.15683983     0             -0.10292742    -0.10090692   
  10220000   0.078358996   -0.15696609     0             -0.094891076   -0.073786198  
  10230000   0.072680468   -0.1559141      0             -0.09833754    -0.054129494  
  10240000   0.072971782   -0.14996589     0             -0.092158556   -0.091407439  
  10250000   0.072655078   -0.14505621     0             -0.087499767   -0.10611525   
  10260000   0.070758644   -0.16842298     0             -0.11236887    -0.070349462  
  10270000   0.07393357    -0.174706       0             -0.11613675    -0.11852977   
  10280000   0.06781283    -0.18097409     0             -0.12725361    -0.063982921  
  10290000   0.072973063   -0.16227747     0             -0.10446912    -0.029809756  
  10300000   0.068498097   -0.14959365     0             -0.095330314   -0.039926623  
  10310000   0.075661939   -0.15752261     0             -0.097584163   -0.034102001  
  10320000   0.071809469   -0.1586534      0             -0.10176684    -0.023123293  
  10330000   0.075236068   -0.1494914      0             -0.089890328   -0.022323712  
  10340000   0.073271885   -0.14206838     0             -0.084023313   -0.039403531  
  10350000   0.073069602   -0.14990647     0             -0.092021648   -0.059827412  
  10360000   0.072332367   -0.14672335     0             -0.089422549   -0.05997794   
  10370000   0.076423335   -0.14612708     0             -0.085585471    0.007334468  
  10380000   0.058594034   -0.14820988     0             -0.10179242    -0.021028773  
  10390000   0.079505667   -0.15276445     0             -0.089781054   -0.066443349  
  10400000   0.070321621   -0.15345072     0             -0.097742812   -0.030551591  
  10410000   0.075152813   -0.1591816      0             -0.09964648    -0.012721754  
  10420000   0.073678194   -0.15252182     0             -0.094154874    0.051055871  
  10430000   0.070876934   -0.13954128     0             -0.083393457   -0.025537813  
  10440000   0.071322371   -0.14717009     0             -0.090669399   -0.047701611  
  10450000   0.071871253   -0.14681732     0             -0.089881814   -0.035148064  
  10460000   0.077814072   -0.13253028     0             -0.070886947   -0.09780768   
  10470000   0.072330667   -0.14532718     0             -0.08802773    -0.040418331  
  10480000   0.073616714   -0.15763062     0             -0.099312374   -0.041529969  
  10490000   0.070081605   -0.14186455     0             -0.086346781   -0.041209021  
  10500000   0.069952866   -0.14627105     0             -0.090855262    0.022449218  
  10510000   0.073349798   -0.13219068     0             -0.074083886   -5.4547408e-05
  10520000   0.083265157   -0.12340715     0             -0.057445533    0.0092403063 
  10530000   0.063928514   -0.15601369     0             -0.10537032     0.0098366238 
  10540000   0.071865855   -0.14618945     0             -0.08925822     0.012612715  
  10550000   0.075391491   -0.14512492     0             -0.085400727   -0.027701492  
  10560000   0.074950321   -0.14956616     0             -0.090191455    0.07536967   
  10570000   0.076299191   -0.14296688     0             -0.082523613   -0.01666547   
  10580000   0.070960389   -0.14774867     0             -0.091534739    0.039582392  
  10590000   0.075938577   -0.13882629     0             -0.078668694   -0.05539095   
  10600000   0.068146254   -0.13997175     0             -0.085987142   -0.057534584  
  10610000   0.067825108   -0.15021151     0             -0.09648131    -0.036845969  
  10620000   0.070906644   -0.14986919     0             -0.093697831   -0.11043488   
  10630000   0.077715931   -0.15850876     0             -0.096943175   -0.042038062  
  10640000   0.076256699   -0.14574881     0             -0.085339205   -0.048170311  
  10650000   0.076144094   -0.15075362     0             -0.090433223   -0.046458516  
  10660000   0.068166874   -0.1480394      0             -0.094038454   -0.08766556   
  10670000   0.067488811   -0.14134774     0             -0.087883948   -0.077291227  
  10680000   0.062898466   -0.15265079     0             -0.10282341    -0.053071726  
  10690000   0.073528118   -0.14659135     0             -0.088343291   -0.05363355   
  10700000   0.069466896   -0.14807685     0             -0.093046048    0.013780795  
  10710000   0.070272768   -0.15724514     0             -0.10157594    -0.00034825888
  10720000   0.075142118   -0.14043119     0             -0.080904545    0.01910351   
  10730000   0.084992709   -0.14169181     0             -0.074361647    0.047206369  
  10740000   0.076248755   -0.14774718     0             -0.087343865   -0.019981821  
  10750000   0.0613172     -0.1445438      0             -0.095969078    0.01892995   
  10760000   0.070847128   -0.15760243     0             -0.10147822     0.029165664  
  10770000   0.069939224   -0.1665707      0             -0.11116572    -0.01219955   
  10780000   0.069609186   -0.15959654     0             -0.10445301    -0.00014199045
  10790000   0.073411791   -0.17391411     0             -0.11575821    -0.032769009  
  10800000   0.072780333   -0.14068074     0             -0.083025068    0.0036214421 
  10810000   0.068249823   -0.13903381     0             -0.084967156   -0.035035901  
  10820000   0.069656625   -0.13525501     0             -0.0800739      0.044658612  
  10830000   0.083105586   -0.15799408     0             -0.092158874    0.03312662   
  10840000   0.067661652   -0.15918819     0             -0.10558748    -0.0048727444 
  10850000   0.06374018    -0.15960846     0             -0.10911429     0.012567521  
  10860000   0.076302971   -0.15957876     0             -0.0991325      0.0030363237 
  10870000   0.072040308   -0.16007511     0             -0.10300568    -0.023800106  
  10880000   0.075770832   -0.15528217     0             -0.095257461    0.0095379829 
  10890000   0.08208884    -0.14476342     0             -0.079733664    0.06127825   
  10900000   0.073597977   -0.15370565     0             -0.095402257   -0.027363467  
  10910000   0.075236699   -0.15030967     0             -0.090708093    0.00030739183
  10920000   0.067130531   -0.13966845     0             -0.086488483    0.037031575  
  10930000   0.073151949   -0.14370799     0             -0.085757928   -0.076028231  
  10940000   0.076028324   -0.14419235     0             -0.08396366     0.041639434  
  10950000   0.062901865   -0.13716776     0             -0.087337694    0.0053020657 
  10960000   0.078046392   -0.13765432     0             -0.07582694    -0.037098509  
  10970000   0.070065583   -0.1536622      0             -0.098157116   -0.012153297  
  10980000   0.082108631   -0.12671294     0             -0.061667513    0.017720224  
  10990000   0.06764395    -0.14431763     0             -0.09073094     0.006527828  
  11000000   0.07610851    -0.13068085     0             -0.070388643    0.016383096  
  11010000   0.072002518   -0.13889589     0             -0.081856398   -0.018496365  
  11020000   0.065858489   -0.14883574     0             -0.09666347    -0.0019223389 
  11030000   0.073803881   -0.13280719     0             -0.074340674   -0.045626153  
  11040000   0.065650528   -0.14655212     0             -0.094544596   -0.027032062  
  11050000   0.074437565   -0.14898315     0             -0.090014637   -0.07469063   
  11060000   0.072357023   -0.15315492     0             -0.095834594   -0.06394876   
  11070000   0.068348567   -0.13521993     0             -0.081075046   -0.043699442  
  11080000   0.079845736   -0.13641263     0             -0.073159832    0.0006380644 
  11090000   0.068689566   -0.15423595     0             -0.099820931   -0.0070801682 
  11100000   0.068247539   -0.14616523     0             -0.092100387    0.031923761  
  11110000   0.067344679   -0.14964578     0             -0.096296167    0.032611429  
  11120000   0.075789167   -0.16043514     0             -0.10039591     0.00030742254
  11130000   0.072439822   -0.16613707     0             -0.10875115    -0.018801827  
  11140000   0.066937269   -0.17065019     0             -0.11762332    -0.086857839  
  11150000   0.073165419   -0.1594042      0             -0.10144347    -0.051962585  
  11160000   0.074025088   -0.15469095     0             -0.096049204   -0.01553187   
  11170000   0.07643138    -0.14167754     0             -0.08112956     0.09067082   
  11180000   0.068334785   -0.14564467     0             -0.091510711   -0.020267233  
  11190000   0.067383684   -0.16351762     0             -0.11013711    -0.04705171   
  11200000   0.076865529   -0.14353644     0             -0.082644528    0.019151439  
  11210000   0.066326452   -0.14264317     0             -0.090100181   -0.020499743  
  11220000   0.067211312   -0.1421332      0             -0.088889243    0.021640112  
  11230000   0.061666689   -0.14877105     0             -0.099919468   -0.035774932  
  11240000   0.068158297   -0.14583994     0             -0.091845786   -0.0048739437 
  11250000   0.071046236   -0.15213004     0             -0.095848102    0.023356736  
  11260000   0.078218827   -0.13561322     0             -0.073649243    0.017339879  
  11270000   0.072541887   -0.1448993      0             -0.087432521    0.0056642292 
  11280000   0.074572651   -0.1402985      0             -0.081222979   -0.067077152  
  11290000   0.072264499   -0.15925567     0             -0.10200864    -0.041159029  
  11300000   0.068867794   -0.16018953     0             -0.10563332    -0.029039623  
  11310000   0.061948474   -0.1691092      0             -0.12003439    -0.0094132018 
  11320000   0.062996447   -0.16346321     0             -0.11355821    -0.017018118  
  11330000   0.077973882   -0.16907291     0             -0.10730298     0.0030090125 
  11340000   0.068459021   -0.17097401     0             -0.11674163    -0.076515433  
  11350000   0.067896514   -0.1581806      0             -0.10439383     0.027253866  
  11360000   0.062379756   -0.17163936     0             -0.1222229     -0.041868849  
  11370000   0.070622397   -0.18507607     0             -0.12912989    -0.048970194  
  11380000   0.078539363   -0.170505       0             -0.1082871      0.019156329  
  11390000   0.065978416   -0.15169146     0             -0.099424182    0.0095715186 
  11400000   0.064691707   -0.16234435     0             -0.11109639    -0.042162091  
  11410000   0.072897631   -0.16294819     0             -0.10519959     0.024349179  
  11420000   0.071338025   -0.14891156     0             -0.092398471   -0.064216752  
  11430000   0.069073101   -0.1443255      0             -0.089606649    0.013884619  
  11440000   0.072144659   -0.14175528     0             -0.084603187   -0.049768472  
  11450000   0.074721213   -0.13821538     0             -0.079022172   -0.077206943  
  11460000   0.071818143   -0.13828339     0             -0.081389959    0.0027844467 
  11470000   0.069322734   -0.13350597     0             -0.078589362    0.017162428  
  11480000   0.072653217   -0.14667266     0             -0.089117689   -0.016987433  
  11490000   0.075297664   -0.15163982     0             -0.091989949   -0.018945879  
  11500000   0.068350608   -0.15432541     0             -0.10017891    -0.071230928  
  11510000   0.073814173   -0.15550302     0             -0.09702835    -0.065732129  
  11520000   0.071062509   -0.15802156     0             -0.10172673     0.043266535  
  11530000   0.065852062   -0.14321104     0             -0.091043857   -0.015790116  
  11540000   0.071072546   -0.15334042     0             -0.097037633   -0.0161042    
  11550000   0.075707551   -0.14490385     0             -0.084929276   -0.0048051393 
  11560000   0.064309962   -0.14807483     0             -0.097129283    0.055815336  
  11570000   0.071504518   -0.14134189     0             -0.084696902   -0.012469727  
  11580000   0.075873667   -0.15093542     0             -0.090829254   -0.031607927  
  11590000   0.07947803    -0.14288721     0             -0.079925704   -0.12781434   
  11600000   0.073526517   -0.14750963     0             -0.089262838   -0.051692805  
  11610000   0.07226057    -0.16881304     0             -0.11156912    -0.072772919  
  11620000   0.070283008   -0.14927475     0             -0.093597433    0.057306793  
  11630000   0.075258241   -0.1662515      0             -0.10663286     0.011159714  
  11640000   0.071551927   -0.15156528     0             -0.094882742   -0.11140196   
  11650000   0.063140594   -0.15111478     0             -0.10109559     0.024734604  
  11660000   0.079543306   -0.14670861     0             -0.083695396    0.0099133121 
  11670000   0.074057171   -0.14102368     0             -0.082356517    0.050887925  
  11680000   0.072409049   -0.1379618      0             -0.08060026    -0.012482816  
  11690000   0.068711868   -0.16775725     0             -0.11332456    -0.06829175   
  11700000   0.07490101    -0.14544223     0             -0.086106583   -0.049420227  
  11710000   0.068581394   -0.15244037     0             -0.098111051   -0.063459519  
  11720000   0.078399633   -0.14616602     0             -0.084058813   -0.013142437  
  11730000   0.068375236   -0.14704344     0             -0.092877432   -0.10593714   
  11740000   0.067513587   -0.12783033     0             -0.074346914   -0.0098359256 
  11750000   0.06587518    -0.13756248     0             -0.085376982   -0.010387894  
  11760000   0.08128983    -0.14308001     0             -0.07868322     0.015490753  
  11770000   0.066313478   -0.14956902     0             -0.097036316    0.026902831  
  11780000   0.075299211   -0.1267153      0             -0.067064202    0.039249447  
  11790000   0.072889975   -0.14826172     0             -0.090519189   -0.048486001  
  11800000   0.063719649   -0.14813535     0             -0.097657442   -0.061449264  
  11810000   0.064388941   -0.14863133     0             -0.097623213   -0.0886272    
  11820000   0.07439308    -0.14273342     0             -0.083800151    0.0060518171 
  11830000   0.065266824   -0.15332195     0             -0.10161838    -0.06218968   
  11840000   0.070559056   -0.15118984     0             -0.095293835    0.0022837886 
  11850000   0.064182918   -0.1534512      0             -0.1026063     -0.049077488  
  11860000   0.067251579   -0.15197562     0             -0.098699759   -0.066389206  
  11870000   0.074660986   -0.13953174     0             -0.080386239   -0.0062622531 
  11880000   0.075123425   -0.16006261     0             -0.10055077    -0.050300066  
  11890000   0.072007233   -0.15746534     0             -0.10042211     0.00035198021
  11900000   0.072234676   -0.14709883     0             -0.089875418   -0.080144572  
  11910000   0.071689369   -0.13613331     0             -0.079341891   -0.074070101  
  11920000   0.0764499     -0.1415736      0             -0.081010948    0.019430496  
  11930000   0.072535162   -0.13651583     0             -0.079054377   -0.094929578  
  11940000   0.069981273   -0.13753991     0             -0.082101617   -0.042523038  
  11950000   0.061254674   -0.14908093     0             -0.10055574     0.07981301   
  11960000   0.068926533   -0.16162294     0             -0.1070202     -0.038065305  
  11970000   0.074683358   -0.15356111     0             -0.094397888   -0.17334962   
  11980000   0.06595485    -0.1450065      0             -0.09275789    -0.028525825  
  11990000   0.07965742    -0.14229734     0             -0.079193723   -0.070356922  
  12000000   0.077258723   -0.13090973     0             -0.069706333    0.0049910884 
  12010000   0.07084679    -0.13738943     0             -0.08126549    -0.069283954  
  12020000   0.066913527   -0.15213593     0             -0.099127866   -0.038537255  
  12030000   0.076398671   -0.15483127     0             -0.094309195    0.047687833  
  12040000   0.072667818   -0.15263927     0             -0.095072737   -0.028917692  
  12050000   0.072579071   -0.15429327     0             -0.096797033    0.018053175  
  12060000   0.070900167   -0.14504938     0             -0.088883154   -0.027816426  
  12070000   0.066751255   -0.14505749     0             -0.092177977    0.067064928  
  12080000   0.07196276    -0.14816439     0             -0.091156396    0.0020410216 
  12090000   0.075529269   -0.13787212     0             -0.078038777   -0.058421305  
  12100000   0.06036272    -0.14538337     0             -0.097564773    0.00263348   
  12110000   0.066765347   -0.12884435     0             -0.075953674   -0.041561214  
  12120000   0.081164773   -0.13870292     0             -0.074405198   -0.061209548  
  12130000   0.065774351   -0.14062819     0             -0.088522568   -0.045228312  
  12140000   0.063883996   -0.1398075      0             -0.089199402   -0.053302765  
  12150000   0.079810606   -0.1387057      0             -0.075480735   -0.057627519  
  12160000   0.07489636    -0.16279167     0             -0.10345971    -0.042325715  
  12170000   0.075554428   -0.16287282     0             -0.10301954     0.024708811  
  12180000   0.070571117   -0.15531567     0             -0.099410113    0.084638547  
  12190000   0.06440817    -0.14353573     0             -0.092512384   -0.059256358  
  12200000   0.072251293   -0.15336499     0             -0.096128416    0.043492323  
  12210000   0.078249207   -0.13392769     0             -0.071939646   -0.0040885382 
  12220000   0.07979228    -0.13942153     0             -0.07621108     0.061595902  
  12230000   0.068421934   -0.13941634     0             -0.08521334    -0.076330585  
  12240000   0.075872573   -0.14446834     0             -0.084363032   -0.0045247918 
  12250000   0.073183819   -0.14905197     0             -0.091076661    0.010709334  
  12260000   0.06825395    -0.13332239     0             -0.07925246    -0.022129547  
  12270000   0.065247495   -0.14536107     0             -0.093672824    0.0048585152 
  12280000   0.063358267   -0.15282304     0             -0.10263142     0.034909037  
  12290000   0.073990962   -0.15089392     0             -0.092279204   -0.020168068  
  12300000   0.068591368   -0.1513429      0             -0.097005672   -0.046477651  
  12310000   0.077433165   -0.16534869     0             -0.10400711     0.065289603  
  12320000   0.063230709   -0.14796419     0             -0.097873615    0.039489115  
  12330000   0.075560091   -0.14535189     0             -0.085494133   -0.099020236  
  12340000   0.064181231   -0.14423438     0             -0.093390811   -0.07434893   
  12350000   0.067239092   -0.15135967     0             -0.098093705   -0.0087575292 
  12360000   0.06486599    -0.15598923     0             -0.1046032     -0.065989263  
  12370000   0.069867738   -0.1495824      0             -0.094234049   -0.13678035   
  12380000   0.077930344   -0.1557981      0             -0.094062658   -0.096713682  
  12390000   0.074458866   -0.14827303     0             -0.089287646   -0.040109456  
  12400000   0.06919514    -0.15287558     0             -0.098060053    0.037280298  
  12410000   0.077139421   -0.14763922     0             -0.086530339    0.02788293   
  12420000   0.083073101   -0.14065495     0             -0.074845479    0.043895689  
  12430000   0.084501192   -0.1497563      0             -0.082815516   -0.00090015389
  12440000   0.076115171   -0.15775804     0             -0.097460554    0.005673905  
  12450000   0.073874646   -0.14651043     0             -0.087987858   -0.041193429  
  12460000   0.079007244   -0.14401626     0             -0.081427709    0.026334855  
  12470000   0.071040387   -0.13482463     0             -0.078547325    0.035765244  
  12480000   0.073239432   -0.13890007     0             -0.080880708    0.0099663494 
  12490000   0.066867724   -0.1464158      0             -0.093444023    0.025452904  
  12500000   0.077114828   -0.14805288     0             -0.086963475   -0.040449082  
  12510000   0.070965717   -0.15494452     0             -0.098726368   -0.014878063  
  12520000   0.064597648   -0.14146643     0             -0.090292982    0.099406757  
  12530000   0.07191845    -0.13470511     0             -0.077732212    0.0090807657 
  12540000   0.066431631   -0.13838655     0             -0.085760242   -0.014105777  
  12550000   0.062353103   -0.14962194     0             -0.10022659    -0.025589468  
  12560000   0.059990833   -0.14584959     0             -0.098325599   -0.10861213   
  12570000   0.070062307   -0.15126166     0             -0.095759181   -0.076190211  
  12580000   0.074357558   -0.14857934     0             -0.089674208    0.0088505492 
  12590000   0.06999429    -0.14548585     0             -0.090037247   -0.022160496  
  12600000   0.069012332   -0.15605097     0             -0.10138026     0.039599974  
  12610000   0.064268046   -0.17420752     0             -0.12329518    -0.10182507   
  12620000   0.078113188   -0.14498329     0             -0.083102994    0.01622319   
  12630000   0.066898617   -0.14809351     0             -0.095097262   -0.005765899  
  12640000   0.0636154     -0.15877573     0             -0.1083804      0.05067536   
  12650000   0.079049087   -0.1535358      0             -0.090914103    0.080218032  
  12660000   0.070055288   -0.1421837      0             -0.086686779    0.015591707  
  12670000   0.067823096   -0.15460916     0             -0.10088055     0.015779547  
  12680000   0.076347528   -0.16190855     0             -0.10142699    -0.046473973  
  12690000   0.07991785    -0.16306924     0             -0.099759315   -0.032031659  
  12700000   0.074757189   -0.14232316     0             -0.083101446   -0.057058253  
  12710000   0.072627896   -0.1513916      0             -0.093856686   -0.060670444  
  12720000   0.064506759   -0.14619413     0             -0.095092686    0.027694784  
  12730000   0.079357431   -0.15942466     0             -0.096558692    0.071780357  
  12740000   0.075569739   -0.14260422     0             -0.082738817   -0.019615675  
  12750000   0.069339552   -0.15355268     0             -0.098622755   -0.13433306   
  12760000   0.071000148   -0.14830308     0             -0.092057649    0.014339863  
  12770000   0.060224538   -0.13645847     0             -0.08874934     0.076019248  
  12780000   0.064557663   -0.14559782     0             -0.094456046   -0.0098849377 
  12790000   0.073694674   -0.16322958     0             -0.10484958    -0.011339311  
  12800000   0.069931478   -0.17384035     0             -0.11844151    -0.052631464  
  12810000   0.066887315   -0.16541918     0             -0.11243189    -0.061706133  
  12820000   0.070150139   -0.15892457     0             -0.1033525     -0.062013531  
  12830000   0.062030455   -0.16096661     0             -0.11182686     0.012895016  
  12840000   0.084693805   -0.15746658     0             -0.090373204    0.0052226955 
  12850000   0.07612608    -0.13637475     0             -0.076068625    0.017190025  
  12860000   0.081131266   -0.143256       0             -0.078984825   -0.019562822  
  12870000   0.080690185   -0.14524635     0             -0.081324599    0.012243487  
  12880000   0.068805904   -0.16513783     0             -0.11063065    -0.074438995  
  12890000   0.069934655   -0.14970342     0             -0.094302059   -0.00028202445
  12900000   0.074987038   -0.14854709     0             -0.089143296   -0.01951758   
  12910000   0.071436248   -0.14774371     0             -0.091152803   -0.025343509  
  12920000   0.072721456   -0.13053894     0             -0.072929913   -0.015031103  
  12930000   0.08075012    -0.1269029      0             -0.062933667   -0.084926256  
  12940000   0.069182673   -0.11823117     0             -0.063425519    0.0019801447 
  12950000   0.081765609   -0.13589591     0             -0.07112222    -0.049511997  
  12960000   0.069016546   -0.14139357     0             -0.086719527   -0.045765488  
  12970000   0.071374373   -0.1530494      0             -0.096507513   -0.035102165  
  12980000   0.067210101   -0.14261814     0             -0.089375135   -0.033680762  
  12990000   0.066127192   -0.13476039     0             -0.082375256    0.071025555  
  13000000   0.070259685   -0.16682811     0             -0.11116926    -0.087561237  
  13010000   0.063897581   -0.15191675     0             -0.10129788     0.014042009  
  13020000   0.076079503   -0.13141178     0             -0.071142549   -0.084333602  
  13030000   0.063980603   -0.14201903     0             -0.091334392   -0.0054775926 
  13040000   0.065141465   -0.14782615     0             -0.096221899   -0.057280182  
  13050000   0.065784777   -0.13776582     0             -0.085651939    0.083242978  
  13060000   0.074746225   -0.13597469     0             -0.07676166    -0.030376714  
  13070000   0.067943645   -0.13589263     0             -0.082068528    0.034592984  
  13080000   0.069206003   -0.14175555     0             -0.086931423   -0.031928883  
  13090000   0.071847438   -0.14524295     0             -0.088326312   -0.0077578421 
  13100000   0.082198717   -0.15187362     0             -0.086756822    0.01202796   
  13110000   0.064757381   -0.12717331     0             -0.075873319   -0.023310124  
  13120000   0.081490769   -0.13308996     0             -0.068533988    0.069998384  
  13130000   0.073361127   -0.14357532     0             -0.085459556   -0.040718778  
  13140000   0.0821874     -0.15051043     0             -0.085402603    0.020365935  
  13150000   0.066696528   -0.13542601     0             -0.082589852    0.070749711  
  13160000   0.070255405   -0.12756214     0             -0.071906687   -0.049491325  
  13170000   0.071353339   -0.13579625     0             -0.079271031   -0.0054654299 
  13180000   0.075909901   -0.1444741      0             -0.084339223    0.070372668  
  13190000   0.07385493    -0.13894851     0             -0.080441556   -0.062029463  
  13200000   0.069053318   -0.12747767     0             -0.072774499    0.005864229  
  13210000   0.078778912   -0.14374032     0             -0.081332653   -0.0074388952 
  13220000   0.069418454   -0.14161159     0             -0.086619157   -0.069495737  
  13230000   0.064913339   -0.13976014     0             -0.088336609   -0.018029484  
  13240000   0.07500309    -0.12330921     0             -0.063892702    0.011812109  
  13250000   0.072984823   -0.1266518      0             -0.068834134   -0.0304825    
  13260000   0.073317846   -0.13697267     0             -0.078891187    0.017423332  
  13270000   0.0688319     -0.14407586     0             -0.089548086    0.059177967  
  13280000   0.073624187   -0.13245656     0             -0.074132398    0.039353903  
  13290000   0.070573298   -0.14877168     0             -0.092864393   -0.012562281  
  13300000   0.078218093   -0.15242487     0             -0.090461475    0.018671595  
  13310000   0.061767275   -0.15905638     0             -0.11012512    -0.063652934  
  13320000   0.077256764   -0.14234057     0             -0.081138729   -0.033850781  
  13330000   0.074438355   -0.14874937     0             -0.089780239   -0.026126214  
  13340000   0.06401431    -0.15148453     0             -0.1007732     -0.044307171  
  13350000   0.066242585   -0.16050625     0             -0.10802971    -0.039679278  
  13360000   0.075414728   -0.14271174     0             -0.082969136   -0.013277401  
  13370000   0.06553509    -0.13611561     0             -0.084199532   -0.068561917  
  13380000   0.081639415   -0.15699225     0             -0.092318521   -0.020060274  
  13390000   0.072667859   -0.15852792     0             -0.10096136    -0.052983525  
  13400000   0.070834931   -0.15130291     0             -0.095188361   -0.01845327   
  13410000   0.063012764   -0.15462936     0             -0.10471144     0.029441869  
  13420000   0.065617671   -0.15832812     0             -0.10634662     0.005818555  
  13430000   0.070394784   -0.14673732     0             -0.090971451   -0.02522327   
  13440000   0.066747017   -0.14454337     0             -0.091667217   -0.051064876  
  13450000   0.068735331   -0.14907062     0             -0.094619349    0.0463346    
  13460000   0.066281984   -0.14117716     0             -0.088669402    0.01563399   
  13470000   0.068517287   -0.15428756     0             -0.10000903    -0.049754047  
  13480000   0.073350644   -0.13694089     0             -0.078833422   -0.04505331   
  13490000   0.068853165   -0.15898337     0             -0.10443875     0.039941735  
  13500000   0.070403346   -0.13902405     0             -0.083251399   -0.031175093  
  13510000   0.072705355   -0.14770779     0             -0.09011152     0.01561795   
  13520000   0.079299463   -0.13875797     0             -0.075937925   -0.041216002  
  13530000   0.074987383   -0.1346973      0             -0.075293232    0.012708702  
  13540000   0.071556939   -0.14307792     0             -0.086391403   -0.014976058  
  13550000   0.077776555   -0.14102218     0             -0.07940857    -0.028966588  
  13560000   0.075396682   -0.14331814     0             -0.083589832    0.045799215  
  13570000   0.076578495   -0.12895815     0             -0.068293623   -0.013405196  
  13580000   0.081800909   -0.12214687     0             -0.057345217   -0.0067767947 
  13590000   0.074062538   -0.13816465     0             -0.079493234   -0.0017929661 
  13600000   0.076512238   -0.13009256     0             -0.069480518   -0.059000319  
  13610000   0.071207721   -0.14875679     0             -0.092346923    0.014767643  
  13620000   0.074389703   -0.13649146     0             -0.077560872   -0.03148718   
  13630000   0.076986673   -0.14054554     0             -0.079557664    0.0014226849 
  13640000   0.070514841   -0.13751616     0             -0.081655185    0.02070693   
  13650000   0.075103327   -0.15571771     0             -0.09622179     0.058049783  
  13660000   0.073718419   -0.14957115     0             -0.091172342   -0.067267785  
  13670000   0.071542404   -0.13911134     0             -0.082436346   -0.032172571  
  13680000   0.07592408    -0.14080503     0             -0.080658926    0.014428749  
  13690000   0.068220945   -0.1547216      0             -0.10067782    -0.019111228  
  13700000   0.076483891   -0.14968671     0             -0.089097133   -0.051544287  
  13710000   0.0650793     -0.14576594     0             -0.094210937   -0.047899648  
  13720000   0.072017676   -0.13817319     0             -0.081121686   -0.099968933  
  13730000   0.073325296   -0.14298319     0             -0.084895808   -0.048104866  
  13740000   0.075591864   -0.13972782     0             -0.079844888   -0.014882597  
  13750000   0.070085055   -0.1475902      0             -0.0920697      0.010858402  
  13760000   0.074786345   -0.13911373     0             -0.079868918    0.037078403  
  13770000   0.07090368    -0.15562335     0             -0.099454338   -0.014499935  
  13780000   0.077456477   -0.15812756     0             -0.096767511   -0.10621216   
  13790000   0.070386982   -0.14513239     0             -0.0893727     -0.071252967  
  13800000   0.066680147   -0.14347612     0             -0.090652938   -0.02591031   
  13810000   0.071991169   -0.14342883     0             -0.086398328    0.012321978  
  13820000   0.069903312   -0.14215956     0             -0.086783027   -0.079287305  
  13830000   0.067593712   -0.1499467      0             -0.09639981    -0.064800169  
  13840000   0.073445345   -0.15223955     0             -0.09405707    -0.071896364  
  13850000   0.070874044   -0.15809556     0             -0.10195003    -0.11881294   
  13860000   0.069754901   -0.15062169     0             -0.095362733    0.014509942  
  13870000   0.07253001    -0.13303643     0             -0.075579065   -0.044822775  
  13880000   0.07464462    -0.14430084     0             -0.085168304   -0.067401772  
  13890000   0.072328552   -0.16053688     0             -0.10323911    -0.033152015  
  13900000   0.074919027   -0.16036838     0             -0.10101847    -0.060119137  
  13910000   0.074228898   -0.15764376     0             -0.098840553   -0.083687821  
  13920000   0.077179922   -0.14409987     0             -0.082958898    0.057352976  
  13930000   0.063546999   -0.15734379     0             -0.10700265    -0.038760912  
  13940000   0.06883899    -0.16185902     0             -0.10732563    -0.05476229   
  13950000   0.070120515   -0.15252572     0             -0.096977125    0.03393344   
  13960000   0.069701774   -0.15539941     0             -0.10018254     0.068171708  
  13970000   0.072405234   -0.14875019     0             -0.091391664   -0.080432437  
  13980000   0.070609595   -0.14457964     0             -0.088643604    0.057701227  
  13990000   0.069612082   -0.15664883     0             -0.10150301    -0.077240833  
  14000000   0.060342055   -0.14282399     0             -0.09502177    -0.05094745   
  14010000   0.070310793   -0.15767328     0             -0.10197395     0.044527572  
  14020000   0.079882793   -0.15413941     0             -0.090857262    0.020182161  
  14030000   0.069393481   -0.16851941     0             -0.11354676     0.055820294  
  14040000   0.068596994   -0.16315378     0             -0.1088121      0.034827627  
  14050000   0.068243151   -0.15088014     0             -0.096818764   -0.10969468   
  14060000   0.062273272   -0.16102059     0             -0.11168848    -0.0084370092 
  14070000   0.084400975   -0.15017046     0             -0.08330906    -0.015956887  
  14080000   0.066462193   -0.15901462     0             -0.1063641     -0.0068038876 
  14090000   0.059946295   -0.15358756     0             -0.10609885     0.046270612  
  14100000   0.081570913   -0.16970054     0             -0.10508108    -0.0889975    
  14110000   0.06488799    -0.15562453     0             -0.10422108     0.049511956  
  14120000   0.071807333   -0.16080484     0             -0.10391996     0.055309714  
  14130000   0.077767509   -0.13916187     0             -0.077555426    0.024468152  
  14140000   0.069010584   -0.15614936     0             -0.10148003    -0.032429953  
  14150000   0.066118885   -0.15160033     0             -0.099221775   -0.039227868  
  14160000   0.078609203   -0.13703069     0             -0.074757459    0.078680251  
  14170000   0.065929781   -0.12922721     0             -0.076998464   -0.00042818999
  14180000   0.06021733    -0.13219271     0             -0.08448929    -0.0034439627 
  14190000   0.080179115   -0.12947241     0             -0.065955517    0.002530347  
  14200000   0.06499026    -0.13502479     0             -0.083540323   -0.028747359  
  14210000   0.072256476   -0.13641447     0             -0.079173791   -0.067408105  
  14220000   0.081228447   -0.14482591     0             -0.080477748    0.018451174  
  14230000   0.076811436   -0.14394892     0             -0.08309986     0.008269374  
  14240000   0.071020895   -0.15443374     0             -0.098171876   -0.046074027  
  14250000   0.074441866   -0.13846272     0             -0.079490801   -0.028402647  
  14260000   0.076088681   -0.14824446     0             -0.087967954    0.046770389  
  14270000   0.063243977   -0.13476718     0             -0.084666089    0.030024707  
  14280000   0.065628418   -0.1174393      0             -0.06544929    -0.03378555   
  14290000   0.074647211   -0.14720859     0             -0.088073999   -0.060924715  
  14300000   0.079067801   -0.13650946     0             -0.073872939   -0.028313746  
  14310000   0.079816595   -0.15014983     0             -0.086920119   -0.07690066   
  14320000   0.081876065   -0.14662623     0             -0.08176503    -0.033800743  
  14330000   0.073956862   -0.14294837     0             -0.084360672   -0.050085578  
  14340000   0.07430656    -0.13965174     0             -0.080787016   -0.030697334  
  14350000   0.081341405   -0.14638459     0             -0.081946943    0.028126253  
  14360000   0.068097855   -0.14795829     0             -0.094012024    0.012546026  
  14370000   0.066659644   -0.14233635     0             -0.089529412   -0.055866861  
  14380000   0.070211878   -0.13689344     0             -0.081272467    0.001959943  
  14390000   0.073255276   -0.15499008     0             -0.096958171    0.020993697  
  14400000   0.076800443   -0.14438751     0             -0.083547155    0.034191191  
  14410000   0.066994819   -0.15948948     0             -0.10641702    -0.01604945   
  14420000   0.070713511   -0.16225782     0             -0.10623946    -0.011708723  
  14430000   0.070216222   -0.14721433     0             -0.091589918    0.025311583  
  14440000   0.074711392   -0.16120049     0             -0.10201506    -0.11232506   
  14450000   0.076267568   -0.14414735     0             -0.083729136   -0.058924663  
  14460000   0.0755106     -0.12523896     0             -0.06542041     0.021741992  
  14470000   0.08001567    -0.15031923     0             -0.086931812    0.085554538  
  14480000   0.068747487   -0.15609362     0             -0.10163272    -0.063324118  
  14490000   0.075131184   -0.14923061     0             -0.089712621   -0.094514615  
  14500000   0.071793712   -0.1356581      0             -0.078784017    0.0052584289 
  14510000   0.079478749   -0.15008624     0             -0.087124166   -0.0024714556 
  14520000   0.078842275   -0.14851044     0             -0.086052578   -0.025936528  
  14530000   0.073515726   -0.13161261     0             -0.073374367   -0.044235448  
  14540000   0.072139714   -0.14281989     0             -0.08567171    -0.04637177   
  14550000   0.072971664   -0.16170095     0             -0.10389371    -0.059197032  
  14560000   0.067846536   -0.14099732     0             -0.087250143   -0.021842029  
  14570000   0.070690937   -0.13901732     0             -0.08301684     0.019949819  
  14580000   0.067265811   -0.13367282     0             -0.080385683   -0.013898959  
  14590000   0.065685386   -0.13112654     0             -0.079091395    0.023604191  
  14600000   0.068744507   -0.14405413     0             -0.08959559     0.047894902  
  14610000   0.071373714   -0.14746504     0             -0.090923672   -0.060555364  
  14620000   0.071623974   -0.15587892     0             -0.099139303   -0.073247161  
  14630000   0.06707271    -0.14264463     0             -0.089510467   -0.011056876  
  14640000   0.077842683   -0.15256166     0             -0.090895661   -0.08857308   
  14650000   0.06269775    -0.15106471     0             -0.10139634     0.010988512  
  14660000   0.072561368   -0.13959087     0             -0.082108658   -0.056420806  
  14670000   0.068347094   -0.15223132     0             -0.098087604   -0.008925771  
  14680000   0.07138582    -0.17783166     0             -0.12128071     0.042549763  
  14690000   0.075387972   -0.13752623     0             -0.077804818    0.0090507981 
  14700000   0.068173164   -0.15204914     0             -0.098043216    0.013623381  
  14710000   0.077410521   -0.1511565      0             -0.089832849   -0.072671048  
  14720000   0.069829575   -0.15793599     0             -0.10261787    -0.076939071  
  14730000   0.069647926   -0.15057107     0             -0.095396854   -0.06689374   
  14740000   0.067120884   -0.17980806     0             -0.12663574     0.02130482   
  14750000   0.073588719   -0.16136441     0             -0.10306835    -0.051336124  
  14760000   0.074106284   -0.1476597      0             -0.088953627   -0.04999712   
  14770000   0.072448953   -0.153956       0             -0.096562844   -0.048932063  
  14780000   0.067435252   -0.15423227     0             -0.1008109      0.026420849  
  14790000   0.073315127   -0.15635151     0             -0.098272181   -0.051809135  
  14800000   0.072762007   -0.15517761     0             -0.097536458    0.020943585  
  14810000   0.068974701   -0.15281999     0             -0.098179096   -0.06095939   
  14820000   0.063428692   -0.15138578     0             -0.10113836     0.025252304  
  14830000   0.068888991   -0.15668726     0             -0.10211426    -0.012702771  
  14840000   0.074087574   -0.15303782     0             -0.094346572   -0.014684179  
  14850000   0.065997267   -0.14627341     0             -0.093991205   -0.056045011  
  14860000   0.069143437   -0.15471874     0             -0.099944176   -0.057143756  
  14870000   0.071157415   -0.14720896     0             -0.09083895     0.019939136  
  14880000   0.066764337   -0.14337197     0             -0.090482101    0.046563372  
  14890000   0.079864699   -0.14501841     0             -0.081750595    0.04364901   
  14900000   0.071164689   -0.14160962     0             -0.085233846    0.0015795888 
  14910000   0.063777406   -0.15607837     0             -0.10555471    -0.020938425  
  14920000   0.062642096   -0.16964352     0             -0.12001924    -0.068646206  
  14930000   0.069191615   -0.13988649     0             -0.085073762   -0.0041849728 
  14940000   0.066927108   -0.141375       0             -0.088356179    0.0069889732 
  14950000   0.062888978   -0.14228617     0             -0.092466312   -0.058643632  
  14960000   0.078397405   -0.16028707     0             -0.098181629    0.029928693  
  14970000   0.066022602   -0.14949909     0             -0.097196813   -0.046651468  
  14980000   0.065060888   -0.14244524     0             -0.090904823   -0.039856955  
  14990000   0.069994562   -0.13102685     0             -0.075578029   -0.019089356  
  15000000   0.071329379   -0.14078454     0             -0.084278299    0.11841815   
  15010000   0.073869259   -0.14774292     0             -0.089224617   -0.064584163  
  15020000   0.074867872   -0.17113612     0             -0.11182673     0.0069853907 
  15030000   0.067537741   -0.15574728     0             -0.10224473    -0.034448254  
  15040000   0.066398333   -0.1462011      0             -0.093601175   -0.016939024  
  15050000   0.066239243   -0.14166456     0             -0.089190657   -0.0067011295 
  15060000   0.08143011    -0.14051352     0             -0.076005606   -0.071882235  
  15070000   0.069166367   -0.14853268     0             -0.093739948    0.0086610992 
  15080000   0.075338985   -0.13640547     0             -0.076722871   -0.058176038  
  15090000   0.067843117   -0.14596529     0             -0.092220823   -0.0037340296 
  15100000   0.074704174   -0.14521327     0             -0.08603356     0.045309012  
  15110000   0.067122417   -0.15501048     0             -0.10183694    -0.016640968  
  15120000   0.074441472   -0.13623115     0             -0.077259546   -0.01519715   
  15130000   0.070895173   -0.14984513     0             -0.093682862    0.062364679  
  15140000   0.06671405    -0.16887443     0             -0.11602439    -0.011840224  
  15150000   0.072384444   -0.16322638     0             -0.10588433     0.0069589761 
  15160000   0.072526205   -0.14785207     0             -0.090397714    0.012908502  
  15170000   0.063676844   -0.14428378     0             -0.093839782   -0.017118383  
  15180000   0.079808438   -0.1492455      0             -0.086022255   -0.057748379  
  15190000   0.080487898   -0.15414059     0             -0.090379079    0.039479667  
  15200000   0.068099369   -0.14351965     0             -0.08957218     0.00025686197
  15210000   0.071356381   -0.14569743     0             -0.089169794   -0.015070888  
  15220000   0.068756881   -0.14452846     0             -0.090060122    0.041699056  
  15230000   0.069182606   -0.14119425     0             -0.08638865     0.00028271917
  15240000   0.06734926    -0.16205725     0             -0.10870401    -0.012579474  
  15250000   0.065238261   -0.14160844     0             -0.089927501   -0.02040797   
  15260000   0.077986615   -0.15199626     0             -0.090216234   -0.079541188  
  15270000   0.075125058   -0.15109498     0             -0.091581851    0.0092255634 
  15280000   0.068977698   -0.146112       0             -0.091468729    0.0045535164 
  15290000   0.071967951   -0.14174862     0             -0.084736511    0.0045473687 
  15300000   0.077172762   -0.14710069     0             -0.085965391    0.00076587571
  15310000   0.075982443   -0.14533585     0             -0.085143505   -0.036328409  
  15320000   0.070699009   -0.1433685      0             -0.087361633   -0.0009616386 
  15330000   0.065958676   -0.14512826     0             -0.092876618   -0.050024572  
  15340000   0.077611495   -0.14653359     0             -0.085050737   -0.016447982  
  15350000   0.068204512   -0.14992002     0             -0.095889255   -0.10176862   
  15360000   0.071116629   -0.15115107     0             -0.094813361   -0.050298069  
  15370000   0.073328464   -0.13390098     0             -0.07581109    -0.047143128  
  15380000   0.070740294   -0.13893007     0             -0.082890497   -0.029134802  
  15390000   0.071862521   -0.14822994     0             -0.091301345   -0.013187219  
  15400000   0.07565059    -0.1659374      0             -0.10600795    -0.031451544  
  15410000   0.064060493   -0.14115822     0             -0.090410295    0.022510898  
  15420000   0.070142577   -0.15276834     0             -0.097202267   -0.039948931  
  15430000   0.070234539   -0.15833563     0             -0.10269671    -0.0021710037 
  15440000   0.066285101   -0.15076924     0             -0.098259007   -0.03510205   
  15450000   0.065086362   -0.16444168     0             -0.11288107    -0.11640267   
  15460000   0.068661418   -0.14436695     0             -0.089974234   -0.0712765    
  15470000   0.07345178    -0.15456129     0             -0.096373708   -0.0022985129 
  15480000   0.063809123   -0.16603058     0             -0.11548179     0.0079517096 
  15490000   0.07674038    -0.16820531     0             -0.10741254    -0.072349168  
  15500000   0.070094799   -0.14233828     0             -0.086810054    0.0079038956 
  15510000   0.069249019   -0.14548513     0             -0.090626927    0.037050049  
  15520000   0.0704834     -0.1512595      0             -0.095423432   -0.044682759  
  15530000   0.068638057   -0.13514787     0             -0.080773664   -0.016063403  
  15540000   0.068375222   -0.14968771     0             -0.095521718    0.0320651    
  15550000   0.074400177   -0.14354081     0             -0.084601922    0.059441227  
  15560000   0.07390538    -0.15982779     0             -0.10128087    -0.089839326  
  15570000   0.066272576   -0.14393235     0             -0.09143204     0.049181978  
  15580000   0.077082693   -0.14779765     0             -0.086733708   -0.058043465  
  15590000   0.067154203   -0.15400984     0             -0.10081112     0.068561633  
  15600000   0.078251306   -0.1526843      0             -0.090694598   -0.028965396  
  15610000   0.071713443   -0.14739819     0             -0.0905877      0.053845747  
  15620000   0.07023412    -0.13435377     0             -0.078715178   -0.087091634  
  15630000   0.072763239   -0.14061127     0             -0.082969141    0.042943682  
  15640000   0.070843921   -0.15395384     0             -0.097832174   -0.016584384  
  15650000   0.071463043   -0.14998572     0             -0.09337359    -0.045493223  
  15660000   0.07142896    -0.15330346     0             -0.096718333   -0.026893604  
  15670000   0.071071203   -0.15818009     0             -0.10187837    -0.01485915   
  15680000   0.071743659   -0.14411814     0             -0.087283713   -0.021332558  
  15690000   0.072302362   -0.14824438     0             -0.09096735    -0.075947042  
  15700000   0.06867667    -0.16506534     0             -0.11066054     0.010139343  
  15710000   0.071463858   -0.17380903     0             -0.11719626     0.079771852  
  15720000   0.074719242   -0.15414162     0             -0.094949975   -0.098290061  
  15730000   0.066267416   -0.13007711     0             -0.077580888   -0.0092473704 
  15740000   0.072852007   -0.16842405     0             -0.1107116      0.01984515   
  15750000   0.08018067    -0.13629179     0             -0.07277367    -0.030556632  
  15760000   0.066069234   -0.14989383     0             -0.097554608    0.032145261  
  15770000   0.079796968   -0.14556412     0             -0.082349956   -0.062297506  
  15780000   0.072027358   -0.15695424     0             -0.099895071   -0.034272646  
  15790000   0.074246059   -0.15496927     0             -0.096152466   -0.021150598  
  15800000   0.074189203   -0.15053453     0             -0.091762773   -0.022185355  
  15810000   0.075657459   -0.13927        0             -0.079335108   -0.022987945  
  15820000   0.075216434   -0.14116141     0             -0.081575891   -0.0017576194 
  15830000   0.073042948   -0.14302991     0             -0.085166196   -0.019338355  
  15840000   0.074251829   -0.15266603     0             -0.093844659   -0.028645801  
  15850000   0.081893327   -0.12564092     0             -0.060766047   -0.091686343  
  15860000   0.06873624    -0.14873264     0             -0.094280646   -0.0075444578 
  15870000   0.070263706   -0.14226208     0             -0.086600046   -0.069757174  
  15880000   0.080356257   -0.11669745     0             -0.053040227    0.044696863  
  15890000   0.074042496   -0.13380609     0             -0.075150547   -0.050075639  
  15900000   0.069697541   -0.14003955     0             -0.084826027   -0.078305267  
  15910000   0.073972227   -0.13078669     0             -0.072186821   -0.098688142  
  15920000   0.073148207   -0.15047196     0             -0.092524868   -0.064094456  
  15930000   0.075808975   -0.14762614     0             -0.087571213   -0.020740479  
  15940000   0.072586653   -0.15184911     0             -0.094346871   -0.042784789  
  15950000   0.076039549   -0.15192501     0             -0.091687433    0.045414376  
  15960000   0.071164862   -0.15327048     0             -0.096894568   -0.022032143  
  15970000   0.071143866   -0.15211872     0             -0.095759437   -0.10642246   
  15980000   0.072381021   -0.14265217     0             -0.085312827   -0.0012348843 
  15990000   0.065305739   -0.15513623     0             -0.10340184    -0.031685784  
  16000000   0.084565669   -0.1515106      0             -0.084518732   -0.14272097   
  16010000   0.073611596   -0.15549931     0             -0.097185123   -0.0384176    
  16020000   0.070642038   -0.1559074      0             -0.099945662   -0.088100505  
  16030000   0.066306185   -0.15147357     0             -0.098946642   -0.011300618  
  16040000   0.070793803   -0.16020757     0             -0.1041256     -0.065728311  
  16050000   0.066790914   -0.15038376     0             -0.09747283    -0.1028608    
  16060000   0.068896474   -0.13862883     0             -0.084049905   -0.020380881  
  16070000   0.066591941   -0.13656799     0             -0.083814683    0.02813784   
  16080000   0.074460153   -0.14402077     0             -0.085034366   -0.034214467  
  16090000   0.071103135   -0.14131773     0             -0.084990713    0.040090614  
  16100000   0.075524226   -0.14671172     0             -0.08688237     0.0020399642 
  16110000   0.071231192   -0.14435106     0             -0.087922599    0.022386958  
  16120000   0.073706875   -0.14586383     0             -0.087474167   -0.061157568  
  16130000   0.067482785   -0.14482417     0             -0.09136515     0.0029312681 
  16140000   0.075774208   -0.13676374     0             -0.07673636    -0.042248112  
  16150000   0.063792471   -0.14481399     0             -0.094278389   -0.018606642  
  16160000   0.074437277   -0.13884599     0             -0.079877707   -0.020059431  
  16170000   0.065940696   -0.138808       0             -0.086570602   -0.071561063  
  16180000   0.065307414   -0.15160507     0             -0.099869351    0.068781829  
  16190000   0.074490668   -0.16275527     0             -0.10374469    -0.064571984  
  16200000   0.075099866   -0.1546611      0             -0.095167926   -0.014743736  
  16210000   0.077563193   -0.15204787     0             -0.090603274   -0.098286089  
  16220000   0.074985587   -0.15445588     0             -0.095053238   -0.045180802  
  16230000   0.074692656   -0.16036557     0             -0.10119498    -0.054675539  
  16240000   0.073836066   -0.17497835     0             -0.11648634     0.070396142  
  16250000   0.072386256   -0.14716883     0             -0.089825347   -0.080484823  
  16260000   0.069462598   -0.15294958     0             -0.097922177   -0.057593816  
  16270000   0.062557834   -0.16504773     0             -0.11549019    -0.044510209  
  16280000   0.070672773   -0.16179582     0             -0.10580973     0.0040432278 
  16290000   0.068382542   -0.15543867     0             -0.10126688     0.020162046  
  16300000   0.072202983   -0.14860869     0             -0.091410386   -0.02363673   
  16310000   0.069439275   -0.16495116     0             -0.10994223     0.051933975  
  16320000   0.073365226   -0.15815672     0             -0.1000377     -0.065262514  
  16330000   0.069719995   -0.15954919     0             -0.10431788     0.065615109  
  16340000   0.079988809   -0.17132839     0             -0.10796225    -0.064402449  
  16350000   0.074862115   -0.16722847     0             -0.10792363    -0.0043348502 
  16360000   0.066274538   -0.16254454     0             -0.11004268    -0.055899374  
  16370000   0.067297022   -0.14768426     0             -0.094372402    0.017827077  
  16380000   0.07991556    -0.13506882     0             -0.07176071    -0.06887599   
  16390000   0.079693278   -0.14926741     0             -0.086135393    0.0049921968 
  16400000   0.06772511    -0.14904635     0             -0.095395362   -0.022652604  
  16410000   0.072452396   -0.14698895     0             -0.089593067   -0.0078313209 
  16420000   0.069754908   -0.15588246     0             -0.10062349     0.019053914  
  16430000   0.067007853   -0.15265547     0             -0.099572686    0.012946379  
  16440000   0.063628421   -0.14417901     0             -0.093773367   -0.039377664  
  16450000   0.060696273   -0.1408216      0             -0.092738774    0.075257896  
  16460000   0.075943978   -0.13779941     0             -0.077637535   -0.015431906  
  16470000   0.071785454   -0.15461439     0             -0.097746848   -0.073315294  
  16480000   0.064687094   -0.16879359     0             -0.11754928    -0.071052523  
  16490000   0.065907566   -0.17571552     0             -0.12350437    -0.059160012  
  16500000   0.071826426   -0.16131195     0             -0.10441195     0.060528797  
  16510000   0.064143137   -0.1482396      0             -0.097426204   -0.030795761  
  16520000   0.069542403   -0.15506829     0             -0.09997767    -0.031098022  
  16530000   0.072792231   -0.16663467     0             -0.10896957    -0.0069969718 
  16540000   0.073324546   -0.17160912     0             -0.11352233     0.0060463527 
  16550000   0.074593807   -0.16358502     0             -0.10449274    -0.040559101  
  16560000   0.072463221   -0.14982292     0             -0.092418458    0.017708739  
  16570000   0.063826083   -0.16503161     0             -0.11446938     0.00052682556
  16580000   0.073089355   -0.15452651     0             -0.096626035   -0.055327473  
  16590000   0.075246404   -0.16691114     0             -0.10730188     0.083132497  
  16600000   0.068796042   -0.16066215     0             -0.10616278    -0.13705567   
  16610000   0.078184348   -0.15145759     0             -0.089520928   -0.017856546  
  16620000   0.068011332   -0.16308661     0             -0.10920888    -0.052278917  
  16630000   0.070306182   -0.14928426     0             -0.093588581    0.0088509043 
  16640000   0.065421056   -0.14819201     0             -0.096366268   -0.045038954  
  16650000   0.070870345   -0.16001083     0             -0.10386823     0.082861894  
  16660000   0.066905675   -0.12995112     0             -0.076949281    0.0067668623 
  16670000   0.069558942   -0.12856682     0             -0.073463096    0.059309939  
  16680000   0.063985879   -0.14973771     0             -0.099048898   -0.057611701  
  16690000   0.073620514   -0.14702259     0             -0.088701335    0.030770299  
  16700000   0.067880039   -0.14521729     0             -0.091443576   -0.038581291  
  16710000   0.069381457   -0.14929102     0             -0.0943279     -0.003140881  
  16720000   0.06611977    -0.14615077     0             -0.093771511   -0.1004956    
  16730000   0.073826254   -0.15790782     0             -0.099423588   -0.015058181  
  16740000   0.066419862   -0.14596977     0             -0.093352783   -0.035196514  
  16750000   0.067525326   -0.15718295     0             -0.10369024     0.019020318  
  16760000   0.065651336   -0.167497       0             -0.11548884    -0.0020370487 
  16770000   0.075303726   -0.14949752     0             -0.089842851    0.058983028  
  16780000   0.064286637   -0.16981495     0             -0.11888788     0.030776302  
  16790000   0.070317352   -0.15687472     0             -0.10117019    -0.013214511  
  16800000   0.068271439   -0.15878942     0             -0.10470564     0.058697128  
  16810000   0.066658363   -0.14912703     0             -0.09632111    -0.0010057459 
  16820000   0.073718846   -0.14968641     0             -0.091287263    0.034951975  
  16830000   0.070048566   -0.14354581     0             -0.08805421    -0.017496644  
  16840000   0.079340694   -0.15134472     0             -0.08849201    -0.045768305  
  16850000   0.063268933   -0.14861404     0             -0.098493184   -0.084184023  
  16860000   0.074899505   -0.16143723     0             -0.10210278     0.066447566  
  16870000   0.077621461   -0.1543226      0             -0.09283185    -0.0069600597 
  16880000   0.073193102   -0.14273533     0             -0.084752674    0.072660525  
  16890000   0.069866957   -0.14628419     0             -0.090936459   -0.015356526  
  16900000   0.066094702   -0.15175112     0             -0.099391721   -0.090136955  
  16910000   0.065180972   -0.15943757     0             -0.10780202     0.0070425713 
  16920000   0.069777473   -0.16361984     0             -0.108343      -0.0032765318 
  16930000   0.066691207   -0.17309698     0             -0.12026504    -0.015974536  
  16940000   0.076127198   -0.15495901     0             -0.09465199    -0.093659559  
  16950000   0.08772796    -0.15570552     0             -0.086208528   -0.044400838  
  16960000   0.070402319   -0.15838918     0             -0.10261735    -0.012956252  
  16970000   0.06804303    -0.16971159     0             -0.11580876    -0.028003539  
  16980000   0.068815579   -0.17321252     0             -0.11869767    -0.036754007  
  16990000   0.062147395   -0.15370629     0             -0.1044739      0.0058866336 
  17000000   0.073588326   -0.16471964     0             -0.10642389     0.047260226  
  17010000   0.069846874   -0.15744831     0             -0.10211649    -0.035251929  
  17020000   0.072430706   -0.15767705     0             -0.10029835    -0.090114103  
  17030000   0.080721677   -0.14403102     0             -0.080084317   -0.1012124    
  17040000   0.07446834    -0.14502307     0             -0.086030178    0.075406866  
  17050000   0.072610097   -0.15083428     0             -0.093313473   -0.027016961  
  17060000   0.069649851   -0.15653247     0             -0.10135673     0.0018244468 
  17070000   0.070477517   -0.14332909     0             -0.087497683   -0.071734436  
  17080000   0.073647377   -0.14671092     0             -0.088368391    0.041777329  
  17090000   0.069287662   -0.12520718     0             -0.07031836     0.01616473   
  17100000   0.066032308   -0.15674438     0             -0.10443441    -0.00093481886
  17110000   0.06733939    -0.14248391     0             -0.089138486   -0.029522885  
  17120000   0.076785888   -0.13565048     0             -0.074821656    0.040404843  
  17130000   0.081440811   -0.13622921     0             -0.071712814   -0.072955953  
  17140000   0.078077081   -0.1185926      0             -0.056740915    0.0070433715 
  17150000   0.078982434   -0.13494556     0             -0.072376662   -0.030333354  
  17160000   0.081313459   -0.14015313     0             -0.075737626   -0.0065006046 
  17170000   0.068783731   -0.14771158     0             -0.093221973   -0.019940022  
  17180000   0.06435609    -0.12544782     0             -0.074465726   -0.021263382  
  17190000   0.074729045   -0.14092551     0             -0.081726095   -0.07802706   
  17200000   0.075719662   -0.1431508      0             -0.083166635    0.014769277  
  17210000   0.073687559   -0.14295293     0             -0.084578569    0.027738542  
  17220000   0.070862271   -0.13294606     0             -0.076809852    0.034189588  
  17230000   0.070130032   -0.1432182      0             -0.087662062    0.007699207  
  17240000   0.067633083   -0.14805855     0             -0.094480472    0.012022635  
  17250000   0.06953764    -0.1488182      0             -0.093731354   -0.057938731  
  17260000   0.074995408   -0.14408234     0             -0.084671917   -0.021976658  
  17270000   0.065459965   -0.14989596     0             -0.098039397   -0.022907669  
  17280000   0.065835543   -0.15014092     0             -0.09798683    -0.052040607  
  17290000   0.067575188   -0.14969973     0             -0.096167511    0.020840191  
  17300000   0.061113924   -0.14974103     0             -0.10132735    -0.0026303646 
  17310000   0.067475652   -0.16557063     0             -0.11211726    -0.0074453519 
  17320000   0.060677896   -0.14303411     0             -0.094965835    0.021761186  
  17330000   0.07294363    -0.14163384     0             -0.08384881     0.010695009  
  17340000   0.066439122   -0.13763839     0             -0.085006144   -0.010269273  
  17350000   0.069450034   -0.1366746      0             -0.081657149    0.02798639   
  17360000   0.082999269   -0.1451632      0             -0.079412214    0.019988886  
  17370000   0.073184183   -0.12657698     0             -0.068601387   -0.094236545  
  17380000   0.066557126   -0.12827963     0             -0.075553903   -0.061918039  
  17390000   0.073375399   -0.13138308     0             -0.073256006   -0.021857534  
  17400000   0.074779363   -0.14615048     0             -0.086911204    0.024776743  
  17410000   0.06780957    -0.14389061     0             -0.090172721    0.0012130097 
  17420000   0.072456045   -0.15494297     0             -0.097544192   -0.032206863  
  17430000   0.063048333   -0.14221358     0             -0.092267477    0.0057475239 
  17440000   0.07272946    -0.15093644     0             -0.093321069   -0.013412143  
  17450000   0.062068171   -0.16363603     0             -0.1144664     -0.012804032  
  17460000   0.060964767   -0.15372275     0             -0.10542722     0.027041346  
  17470000   0.072151749   -0.14670847     0             -0.089550752    0.0050565247 
  17480000   0.079734291   -0.12753121     0             -0.0643667      0.014395991  
  17490000   0.075211189   -0.15712992     0             -0.097548554    0.060390779  
  17500000   0.065290418   -0.14514539     0             -0.093423139   -0.0037337353 
  17510000   0.07109652    -0.15090439     0             -0.094582614    0.017835292  
  17520000   0.066551051   -0.13460683     0             -0.081885916   -0.026618398  
  17530000   0.073951682   -0.15386664     0             -0.095283045   -0.072059453  
  17540000   0.074882236   -0.15937689     0             -0.10005612    -0.037487693  
  17550000   0.073089578   -0.15661873     0             -0.098718079    0.00069036178
  17560000   0.076081257   -0.1536101      0             -0.093339482   -0.028600457  
  17570000   0.075937846   -0.14834506     0             -0.088188043   -0.068319845  
  17580000   0.072124556   -0.15007778     0             -0.092941604    0.029470658  
  17590000   0.077580347   -0.15607581     0             -0.094617632    0.069418473  
  17600000   0.072202257   -0.1431794      0             -0.085981676   -0.022786767  
  17610000   0.073344643   -0.16161776     0             -0.10351505    -0.0085193436 
  17620000   0.075024563   -0.15137307     0             -0.091939548    0.055657954  
  17630000   0.076144264   -0.15944114     0             -0.099120609    0.021642077  
  17640000   0.068612049   -0.17706152     0             -0.12270791    -0.055138656  
  17650000   0.073342229   -0.15947686     0             -0.10137606    -0.012214673  
  17660000   0.084565902   -0.15313331     0             -0.086141263   -0.10835928   
  17670000   0.066590182   -0.14284748     0             -0.09009557    -0.034235899  
  17680000   0.071908754   -0.13387019     0             -0.076904974    0.017153028  
  17690000   0.067770955   -0.15197876     0             -0.09829146    -0.002656761  
  17700000   0.079406186   -0.15603543     0             -0.093130844    0.018436574  
  17710000   0.076469973   -0.16999046     0             -0.1094119     -0.044514926  
  17720000   0.071994791   -0.16555197     0             -0.1085186     -0.051002884  
  17730000   0.073501233   -0.14691017     0             -0.088683413    0.058036106  
  17740000   0.073569236   -0.15203686     0             -0.093756232    0.079554812  
  17750000   0.074416233   -0.14724743     0             -0.088295824    0.0010743309 
  17760000   0.067428265   -0.14946707     0             -0.09605124     0.0060512925 
  17770000   0.070931783   -0.13589792     0             -0.079706651    0.045606206  
  17780000   0.066052569   -0.14339905     0             -0.091073029   -0.014213142  
  17790000   0.069614076   -0.13741161     0             -0.082264205   -0.014020669  
  17800000   0.062753702   -0.14169114     0             -0.091978442   -0.010454583  
  17810000   0.069679217   -0.13421259     0             -0.079013589   -0.03952371   
  17820000   0.082088849   -0.12453183     0             -0.059502071    0.0076492365 
  17830000   0.067872875   -0.14241279     0             -0.088644745   -0.053872595  
  17840000   0.075884364   -0.13732061     0             -0.077205967   -0.051308806  
  17850000   0.069017319   -0.14458698     0             -0.089912325   -0.021519117  
  17860000   0.067073699   -0.15303825     0             -0.099903302    0.016067376  
  17870000   0.07431489    -0.13698805     0             -0.078116726    0.015059105  
  17880000   0.058662156   -0.14548352     0             -0.099012095   -0.011015511  
  17890000   0.065997899   -0.13541067     0             -0.08312796     0.04265726   
  17900000   0.076776661   -0.1434021      0             -0.082580594   -0.10211778   
  17910000   0.072686867   -0.13488159     0             -0.077299964   -0.0015030717 
  17920000   0.078694919   -0.12387035     0             -0.06152922    -0.045245031  
  17930000   0.071941443   -0.12626363     0             -0.069272519   -0.075618412  
  17940000   0.066587342   -0.13139738     0             -0.078647719   -0.052765858  
  17950000   0.075265361   -0.15736051     0             -0.09773623    -0.028631089  
  17960000   0.071890986   -0.16006849     0             -0.10311735    -0.0054998783 
  17970000   0.076923644   -0.14181272     0             -0.080874767   -0.038093311  
  17980000   0.074698911   -0.13363113     0             -0.074455591   -0.042815105  
  17990000   0.065142191   -0.12523115     0             -0.073626322   -0.0016298599 
  18000000   0.069165028   -0.14288818     0             -0.088096513   -0.02580436   
  18010000   0.065444416   -0.14684303     0             -0.094998779   -0.11298337   
  18020000   0.073576471   -0.15341574     0             -0.095129378   -0.095506033  
  18030000   0.075806455   -0.15429108     0             -0.094238156   -0.12152121   
  18040000   0.073412818   -0.14253878     0             -0.084382061   -0.052428537  
  18050000   0.070402213   -0.14660413     0             -0.090832382    0.013724686  
  18060000   0.075722472   -0.14776386     0             -0.087777459   -0.11989159   
  18070000   0.069775425   -0.1397185      0             -0.084443277   -0.037084552  
  18080000   0.06703952    -0.14666022     0             -0.093552351   -0.048742024  
  18090000   0.074622148   -0.15651571     0             -0.09740098    -0.062958552  
  18100000   0.070790822   -0.15298225     0             -0.09690265    -0.026417363  
  18110000   0.072736597   -0.14072362     0             -0.083102597    0.052620755  
  18120000   0.068278397   -0.14785023     0             -0.093760933   -0.039509853  
  18130000   0.071311968   -0.15039193     0             -0.093899484   -0.038634883  
  18140000   0.065230391   -0.14470043     0             -0.09302573    -0.10221043   
  18150000   0.07159631    -0.13929061     0             -0.082572904   -0.039224538  
  18160000   0.074534969   -0.13549401     0             -0.076448342   -0.036861719  
  18170000   0.072765494   -0.13958478     0             -0.081940863   -0.04041679   
  18180000   0.06432323    -0.15406765     0             -0.10311159    -0.029044711  
  18190000   0.071654663   -0.15051112     0             -0.093747188   -0.063236673  
  18200000   0.075085583   -0.14015673     0             -0.080674871    0.01998436   
  18210000   0.073824572   -0.14980477     0             -0.091321868   -0.039420487  
  18220000   0.077972531   -0.15400641     0             -0.092237546   -0.036383289  
  18230000   0.064866946   -0.14324481     0             -0.091858028   -0.041825365  
  18240000   0.074692126   -0.13419783     0             -0.075027659    0.013419566  
  18250000   0.063323917   -0.14120597     0             -0.09104155    -0.030364576  
  18260000   0.073561315   -0.13991259     0             -0.081638237    0.014357225  
  18270000   0.082011097   -0.13720559     0             -0.07223742     0.041052973  
  18280000   0.082934533   -0.13983878     0             -0.074139084    0.0094316188 
  18290000   0.06607929    -0.12628514     0             -0.073937948    0.01996913   
  18300000   0.063573385   -0.14080828     0             -0.090446235   -0.050998133  
  18310000   0.07169344    -0.13640754     0             -0.079612889   -0.019898016  
  18320000   0.069041847   -0.15000518     0             -0.095311095    0.019612068  
  18330000   0.073078125   -0.1408481      0             -0.082956526   -0.099310701  
  18340000   0.070586899   -0.15296296     0             -0.097044902   -0.051164344  
  18350000   0.068526131   -0.15863785     0             -0.10435231     0.051563311  
  18360000   0.065125882   -0.15994959     0             -0.10835768    -0.021149858  
  18370000   0.071488537   -0.15992801     0             -0.10329569    -0.094376094  
  18380000   0.06618216    -0.16322088     0             -0.1107922      0.025929609  
  18390000   0.072907906   -0.15623074     0             -0.09847401    -0.015780189  
  18400000   0.069504991   -0.1582337      0             -0.10317271     0.051323877  
  18410000   0.067350434   -0.12708688     0             -0.073732712    0.050651414  
  18420000   0.069526      -0.14180395     0             -0.086726321   -0.064526013  
  18430000   0.076670753   -0.13706252     0             -0.076324908    0.0062459217 
  18440000   0.067858809   -0.13500271     0             -0.081245812   -0.12308993   
  18450000   0.071578418   -0.13995729     0             -0.083253758    0.0089945846 
  18460000   0.070308821   -0.14306751     0             -0.087369737    0.014269411  
  18470000   0.068945681   -0.14354988     0             -0.088931969    0.029572955  
  18480000   0.068244397   -0.15229176     0             -0.098229397   -0.093491889  
  18490000   0.074863162   -0.15023612     0             -0.090930461   -0.079112002  
  18500000   0.070512011   -0.14046662     0             -0.084607889   -0.0073980945 
  18510000   0.074279053   -0.14227618     0             -0.083433246    0.03028989   
  18520000   0.062608815   -0.14566879     0             -0.096070872   -0.0073746693 
  18530000   0.072242602   -0.16272439     0             -0.1054947      0.041667322  
  18540000   0.070740248   -0.14611811     0             -0.090078574   -0.082598983  
  18550000   0.072485046   -0.14041963     0             -0.082997885   -0.083339679  
  18560000   0.068612376   -0.15165093     0             -0.097297065    0.0066580389 
  18570000   0.06510808    -0.13420554     0             -0.082627733    0.039141747  
  18580000   0.072540043   -0.14528345     0             -0.087818132   -0.033137885  
  18590000   0.070959633   -0.13190752     0             -0.075694186   -0.00042560781
  18600000   0.079431552   -0.13534583     0             -0.072421145   -0.02369971   
  18610000   0.068300347   -0.14870233     0             -0.094595648   -0.022325691  
  18620000   0.081227043   -0.13532021     0             -0.070973165    0.004581279  
  18630000   0.065542526   -0.12574987     0             -0.073827902   -0.083885595  
  18640000   0.065675266   -0.13440873     0             -0.082381601   -0.10020714   
  18650000   0.066212233   -0.14223526     0             -0.089782755    0.047499246  
  18660000   0.071422703   -0.15136578     0             -0.094785607    0.010424842  
  18670000   0.066364043   -0.16009951     0             -0.10752674    -0.009932162  
  18680000   0.072823487   -0.17160209     0             -0.11391224    -0.095653597  
  18690000   0.073321322   -0.15185943     0             -0.093775192   -0.0092225156 
  18700000   0.074817775   -0.15013731     0             -0.090867602    0.049733801  
  18710000   0.067849448   -0.13492509     0             -0.081175605   -0.090851985  
  18720000   0.075364896   -0.16363021     0             -0.10392708    -0.038169107  
  18730000   0.068165556   -0.153238       0             -0.099238099   -0.011864498  
  18740000   0.065733245   -0.1404381      0             -0.088365047   -0.010453616  
  18750000   0.072740661   -0.15119546     0             -0.093571216   -0.015440088  
  18760000   0.072482948   -0.15782246     0             -0.10040237    -0.0038827856 
  18770000   0.07585385    -0.14898321     0             -0.088892735    0.020446951  
  18780000   0.074219827   -0.1341367      0             -0.075340681   -0.044581737  
  18790000   0.071623705   -0.15267922     0             -0.095939821    0.048703303  
  18800000   0.066625281   -0.17296056     0             -0.12018084     0.03404926   
  18810000   0.068652834   -0.17730277     0             -0.12291685    -0.061757526  
  18820000   0.057565493   -0.16815198     0             -0.12254932    -0.041755699  
  18830000   0.074525334   -0.15677119     0             -0.097733155    0.051493441  
  18840000   0.070007378   -0.15684583     0             -0.10138686     0.0055865333 
  18850000   0.073770421   -0.15986824     0             -0.10142823    -0.0046913474 
  18860000   0.067606954   -0.14270434     0             -0.08914696    -0.0079696738 
  18870000   0.07368961    -0.13519088     0             -0.076814896   -0.045959531  
  18880000   0.071913636   -0.12424378     0             -0.067274693   -0.088690572  
  18890000   0.069978353   -0.11926141     0             -0.063825432   -0.040079487  
  18900000   0.06729371    -0.12092451     0             -0.067615278    0.00024161352
  18910000   0.071075513   -0.13748456     0             -0.081179424   -0.014178606  
  18920000   0.067415941   -0.13709284     0             -0.083686774   -0.04491645   
  18930000   0.066636515   -0.13436793     0             -0.081579316   -0.072150496  
  18940000   0.069568798   -0.16326467     0             -0.10815313    -0.012584633  
  18950000   0.071653505   -0.14256364     0             -0.085800625   -0.069782001  
  18960000   0.062117319   -0.14173398     0             -0.092525416   -0.075573689  
  18970000   0.063981254   -0.14538682     0             -0.094701669   -0.028064113  
  18980000   0.074108054   -0.15934576     0             -0.10063829    -0.015883076  
  18990000   0.067164538   -0.15631141     0             -0.1031045     -0.045453868  
  19000000   0.067021858   -0.14536942     0             -0.092275538   -0.038177656  
  19010000   0.068846237   -0.15247905     0             -0.097939922   -0.11612913   
  19020000   0.068091605   -0.1683087      0             -0.11436738    -0.031638931  
  19030000   0.064571441   -0.17595758     0             -0.12480489    -0.064361001  
  19040000   0.077213402   -0.15823047     0             -0.097062979   -0.022361582  
  19050000   0.078314835   -0.14848216     0             -0.086442125   -0.060328506  
  19060000   0.068882389   -0.1441841      0             -0.089616335   -0.03124613   
  19070000   0.072191357   -0.15396921     0             -0.096780115    0.010305568  
  19080000   0.066946965   -0.15486289     0             -0.10182834    -0.073453943  
  19090000   0.06278338    -0.14504229     0             -0.095306083    0.016567546  
  19100000   0.075172581   -0.15673167     0             -0.097180893   -0.044565411  
  19110000   0.069822247   -0.14071299     0             -0.085400676   -0.057747816  
  19120000   0.074796629   -0.1393888      0             -0.080135841   -0.044656379  
  19130000   0.077591311   -0.14330926     0             -0.081842396   -0.016658345  
  19140000   0.071201179   -0.15322145     0             -0.096816766   -0.0091183396 
  19150000   0.075638479   -0.15010629     0             -0.090186429   -0.016352017  
  19160000   0.065986719   -0.14745759     0             -0.095183739   -0.044419182  
  19170000   0.068580212   -0.14170546     0             -0.087377073   -0.015471556  
  19180000   0.065617729   -0.13948411     0             -0.087502562   -0.014406418  
  19190000   0.072081687   -0.13576711     0             -0.078664901    0.049443154  
  19200000   0.06643537    -0.1592578      0             -0.10662853    -0.019990756  
  19210000   0.074805155   -0.1458032      0             -0.086543495   -0.080831441  
  19220000   0.071338704   -0.15247782     0             -0.095964194    0.02448545   
  19230000   0.070603003   -0.15752983     0             -0.10159901     0.085405729  
  19240000   0.070930752   -0.15040094     0             -0.094210485   -0.033162079  
  19250000   0.071121502   -0.16040763     0             -0.10406606    -0.047733117  
  19260000   0.078233388   -0.15644979     0             -0.094474273   -0.097313829  
  19270000   0.071597305   -0.15036772     0             -0.09364923     0.021151242  
  19280000   0.070964446   -0.14718635     0             -0.090969206   -0.0012090375 
  19290000   0.090527341   -0.15206769     0             -0.080353065   -0.022563113  
  19300000   0.068551195   -0.12665015     0             -0.072344749   -0.021529699  
  19310000   0.073000585   -0.12951866     0             -0.071688509   -0.032717426  
  19320000   0.072665373   -0.12758694     0             -0.07002234    -0.024738427  
  19330000   0.07503072    -0.13492091     0             -0.075482515   -0.083351861  
  19340000   0.074381333   -0.13397048     0             -0.075046522   -0.055079565  
  19350000   0.073283228   -0.12852094     0             -0.070466879   -0.0060865248 
  19360000   0.070989358   -0.14902367     0             -0.092786791    0.033986443  
  19370000   0.069286706   -0.16277396     0             -0.1078859     -0.055832826  
  19380000   0.069340328   -0.17392754     0             -0.118997      -0.02714724   
  19390000   0.0666491     -0.15847765     0             -0.10567906    -0.0046317163 
  19400000   0.066282283   -0.15112518     0             -0.098617186   -0.020900752  
  19410000   0.071496866   -0.15013117     0             -0.093492243    0.062517034  
  19420000   0.067762105   -0.14448536     0             -0.090805068   -0.016839602  
  19430000   0.067146998   -0.14170745     0             -0.088514437   -0.043751905  
  19440000   0.067847275   -0.14831774     0             -0.094569978    0.03720043   
  19450000   0.071845092   -0.15005042     0             -0.093135638   -0.080271686  
  19460000   0.065441974   -0.15173799     0             -0.099895675   -0.024388191  
  19470000   0.068470475   -0.14889447     0             -0.09465302    -0.053144791  
  19480000   0.06017681    -0.15127931     0             -0.10360799     0.055427977  
  19490000   0.073458906   -0.16378024     0             -0.10558701     0.0014610529 
  19500000   0.071317273   -0.13362802     0             -0.077131371    0.029622081  
  19510000   0.069779691   -0.13420397     0             -0.078925371   -0.01715653   
  19520000   0.072082867   -0.14710244     0             -0.089999295   -0.043415754  
  19530000   0.071826024   -0.14327354     0             -0.086373865   -0.032583491  
  19540000   0.064267293   -0.14510922     0             -0.094197476    0.038856112  
  19550000   0.071772227   -0.15038584     0             -0.09352878     0.017251218  
  19560000   0.070956806   -0.14085335     0             -0.084642254    0.033332721  
  19570000   0.069795442   -0.13794454     0             -0.082653466    0.0011908932 
  19580000   0.069491659   -0.1594864      0             -0.10443598     0.023329917  
  19590000   0.065208804   -0.16483243     0             -0.11317483    -0.02508075   
  19600000   0.076693486   -0.15656116     0             -0.095805541   -0.057169552  
  19610000   0.065696921   -0.16244933     0             -0.11040505     0.012797966  
  19620000   0.070218093   -0.1591228      0             -0.1034969      0.022997737  
  19630000   0.069822698   -0.15335561     0             -0.098042938   -0.1223099    
  19640000   0.074593997   -0.15470818     0             -0.095615746    0.028891878  
  19650000   0.071540416   -0.15109215     0             -0.094418725    0.079613897  
  19660000   0.072980859   -0.16110042     0             -0.1032859     -0.029359183  
  19670000   0.065228347   -0.15600341     0             -0.10433033    -0.030848481  
  19680000   0.067906066   -0.15557259     0             -0.10177825    -0.039927057  
  19690000   0.06425628    -0.15467483     0             -0.10377181    -0.023622432  
  19700000   0.077309251   -0.13675179     0             -0.07550837    -0.0086045288 
  19710000   0.071883284   -0.13761105     0             -0.080666007    0.0023311513 
  19720000   0.072963088   -0.13865543     0             -0.08085498     0.016529029  
  19730000   0.070336431   -0.12992368     0             -0.074204034   -0.0078781752 
  19740000   0.08120529    -0.14058663     0             -0.076256815    0.032890298  
  19750000   0.072422975   -0.16267967     0             -0.10530709     0.010355351  
  19760000   0.084732689   -0.16198743     0             -0.094863249   -0.041746073  
  19770000   0.075020369   -0.17320476     0             -0.11377456    -0.064819315  
  19780000   0.060225082   -0.16120309     0             -0.11349353     0.019036715  
  19790000   0.067472162   -0.15690097     0             -0.10345037    -0.019375702  
  19800000   0.075151226   -0.1684645      0             -0.10893063    -0.052752689  
  19810000   0.072046194   -0.15731085     0             -0.10023676    -0.035902369  
  19820000   0.067599931   -0.15409572     0             -0.1005439      0.05867008   
  19830000   0.072392292   -0.15488502     0             -0.097536751   -0.051150403  
  19840000   0.064770279   -0.16178705     0             -0.11047684     0.018200518  
  19850000   0.061874818   -0.17265985     0             -0.1236434     -0.012119812  
  19860000   0.057743604   -0.15251131     0             -0.10676755    -0.013878238  
  19870000   0.066997455   -0.14741072     0             -0.094336173    0.023294069  
  19880000   0.070166678   -0.15403772     0             -0.098452559    0.0063435519 
  19890000   0.07009499    -0.148879       0             -0.093350626   -0.067992858  
  19900000   0.070553284   -0.15665299     0             -0.10076156     0.026593095  
  19910000   0.072377869   -0.155851       0             -0.098514158   -0.061550012  
  19920000   0.075450036   -0.1591892      0             -0.099418626    0.012419113  
  19930000   0.069096874   -0.14972154     0             -0.094983864    0.0075604413 
  19940000   0.069398321   -0.14576312     0             -0.090786638   -0.092261249  
  19950000   0.078965996   -0.16314121     0             -0.10058534     0.0092991186 
  19960000   0.067939029   -0.15322556     0             -0.099405106   -0.093583158  
  19970000   0.0728983     -0.15298666     0             -0.095237534   -0.022727588  
  19980000   0.070059564   -0.15129558     0             -0.095795271   -0.003822716  
  19990000   0.07121759    -0.14602222     0             -0.089604536   -0.0085276127 
  20000000   0.072489774   -0.13810176     0             -0.080676267    0.060836641  
  20010000   0.071110257   -0.1340208      0             -0.077688139   -0.026041121  
  20020000   0.07314533    -0.1360612      0             -0.078116384   -0.053056786  
  20030000   0.073932323   -0.1264304      0             -0.067862141   -0.034154655  
  20040000   0.070060228   -0.13515171     0             -0.079650873   -0.094139889  
  20050000   0.068240493   -0.13918086     0             -0.085121598    0.04096338   
  20060000   0.069343519   -0.15497061     0             -0.10003754    -0.070639142  
  20070000   0.077834126   -0.15314495     0             -0.091485725   -0.055220231  
  20080000   0.062617861   -0.14818394     0             -0.098578848    0.071120994  
  20090000   0.074467447   -0.15055602     0             -0.09156384    -0.10058341   
  20100000   0.072808111   -0.15197974     0             -0.094302068   -0.039466541  
  20110000   0.073532988   -0.14343473     0             -0.085182814    0.034725456  
  20120000   0.078861464   -0.14989567     0             -0.0874226     -0.088562336  
  20130000   0.074932678   -0.16297695     0             -0.10361622    -0.061534836  
  20140000   0.072145938   -0.13642854     0             -0.079275433    0.062256626  
  20150000   0.074533348   -0.12731325     0             -0.068268867   -0.085227704  
  20160000   0.071981164   -0.14360896     0             -0.086586385   -0.010516889  
  20170000   0.069407455   -0.15555579     0             -0.10057207    -0.044973866  
  20180000   0.079408343   -0.15314306     0             -0.090236762   -0.045103401  
  20190000   0.078028259   -0.14910081     0             -0.087287799    0.10178602   
  20200000   0.073937823   -0.14852616     0             -0.089953537    0.015061146  
  20210000   0.070313652   -0.14466351     0             -0.088961919   -0.064798184  
  20220000   0.070889023   -0.1598426      0             -0.1036852      0.055183869  
  20230000   0.069816093   -0.15651323     0             -0.1012058     -0.03768838   
  20240000   0.071150273   -0.14892817     0             -0.092563814    0.024347337  
  20250000   0.082428809   -0.14627914     0             -0.080980064    0.019273628  
  20260000   0.078240515   -0.15105116     0             -0.089070006   -0.0011367189 
  20270000   0.072209414   -0.15435206     0             -0.097148666    0.016077142  
  20280000   0.067467611   -0.14684366     0             -0.093396659   -0.003961658  
  20290000   0.073613148   -0.15967429     0             -0.10135888    -0.054517233  
  20300000   0.069181044   -0.13876573     0             -0.083961371   -0.041378023  
  20310000   0.076076903   -0.13991672     0             -0.079649549    0.039254115  
  20320000   0.067171646   -0.15376766     0             -0.10055512     0.011740447  
  20330000   0.066286323   -0.15151073     0             -0.098999534   -0.069098625  
  20340000   0.063257058   -0.14524932     0             -0.095137868   -0.12641297   
  20350000   0.074145249   -0.14787041     0             -0.089133471   -0.018614469  
  20360000   0.074728984   -0.14660807     0             -0.087408708   -0.055948434  
  20370000   0.071906876   -0.14921929     0             -0.09225556    -0.047297578  
  20380000   0.06849774    -0.15028438     0             -0.096021329    0.055745275  
  20390000   0.072003428   -0.15785981     0             -0.1008196     -0.010547916  
  20400000   0.070990243   -0.15228034     0             -0.096042759   -0.028824326  
  20410000   0.071199766   -0.14214658     0             -0.08574302    -0.00053144011
  20420000   0.074769578   -0.16485126     0             -0.10561973    -0.068623202  
  20430000   0.070815584   -0.15021575     0             -0.094116529    0.029796139  
  20440000   0.078048649   -0.15684416     0             -0.095014996   -0.035904266  
  20450000   0.073262997   -0.1494542      0             -0.091416171    0.057337899  
  20460000   0.068433483   -0.14813456     0             -0.093922406   -0.036234494  
  20470000   0.070037053   -0.15219326     0             -0.096710778   -0.010378048  
  20480000   0.067172127   -0.157028       0             -0.10381508    -0.033875588  
  20490000   0.076558913   -0.14786214     0             -0.087213124   -0.0069353782 
  20500000   0.079084221   -0.14631551     0             -0.083665975    0.0019031129 
  20510000   0.073491581   -0.14111352     0             -0.082894408    0.053040177  
  20520000   0.067403854   -0.14291354     0             -0.089517047   -0.055123559  
  20530000   0.0721985     -0.14303008     0             -0.085835331   -0.0015398162 
  20540000   0.075205386   -0.12759848     0             -0.068021718    0.078701198  
  20550000   0.071359439   -0.14756564     0             -0.091035585   -0.067861055  
  20560000   0.071512337   -0.15888466     0             -0.10223348    -0.01701849   
  20570000   0.063947749   -0.15173127     0             -0.10107266     0.032763175  
  20580000   0.061884977   -0.15282268     0             -0.10379817    -0.039838774  
  20590000   0.066403539   -0.13938636     0             -0.086782304    0.012169049  
  20600000   0.068073132   -0.14369564     0             -0.089768952    0.0060613664 
  20610000   0.070496706   -0.14386435     0             -0.088017739   -0.061976899  
  20620000   0.066595183   -0.1476173      0             -0.094861433   -0.0097757258 
  20630000   0.06221571    -0.15813787     0             -0.10885136    -0.0018291199 
  20640000   0.069511081   -0.15607104     0             -0.10100523     0.031160768  
  20650000   0.067220619   -0.17205451     0             -0.11880318     0.011511531  
  20660000   0.073577153   -0.16919405     0             -0.11090715    -0.082652929  
  20670000   0.075187476   -0.16103228     0             -0.10146971    -0.057005792  
  20680000   0.076583939   -0.15149062     0             -0.090821781    0.046147862  
  20690000   0.06521894    -0.13781106     0             -0.086145429    0.059051914  
  20700000   0.076776444   -0.14080756     0             -0.079986219   -0.074535904  
  20710000   0.075397911   -0.14320523     0             -0.083475947    0.074090279  
  20720000   0.07026529    -0.14254287     0             -0.086879588    0.034211094  
  20730000   0.071089667   -0.14921053     0             -0.092894182    0.0043817023 
  20740000   0.066614425   -0.14915362     0             -0.096382508   -0.011339836  
  20750000   0.071375696   -0.15496579     0             -0.098422861   -0.0051738828 
  20760000   0.065067934   -0.14763685     0             -0.096090848   -0.0023225451 
  20770000   0.074079573   -0.15840114     0             -0.099716228   -0.063031935  
  20780000   0.069253534   -0.14025529     0             -0.085393506    0.025627487  
  20790000   0.068026276   -0.12823054     0             -0.074340973   -0.054525379  
  20800000   0.069088409   -0.14307404     0             -0.088343069   -0.046862441  
  20810000   0.06824066    -0.15465423     0             -0.10059483    -0.038812966  
  20820000   0.080639176   -0.14198525     0             -0.078103906   -0.013812098  
  20830000   0.076931521   -0.15824648     0             -0.097302295    0.004117996  
  20840000   0.0677472     -0.15210591     0             -0.098437425   -0.030928859  
  20850000   0.071950185   -0.14766019     0             -0.090662151   -0.073127354  
  20860000   0.071907871   -0.14591369     0             -0.088949172    0.039098549  
  20870000   0.074286517   -0.16060555     0             -0.1017567     -0.03701268   
  20880000   0.064758054   -0.14764077     0             -0.096340247   -0.00093763373
  20890000   0.069298869   -0.12697043     0             -0.072072729   -0.048746167  
  20900000   0.086376426   -0.14429579     0             -0.075869468   -0.03008133   
  20910000   0.067460801   -0.14701252     0             -0.093570921   -0.0020734541 
  20920000   0.07391287    -0.12929769     0             -0.070744835   -0.029212666  
  20930000   0.081976188   -0.1352844      0             -0.070343889   -0.0066462978 
  20940000   0.064371263   -0.1514573      0             -0.10046319    -0.092104005  
  20950000   0.066584531   -0.14451695     0             -0.091769514   -0.021179909  
  20960000   0.069902644   -0.13729732     0             -0.081921321   -0.074805869  
  20970000   0.081584122   -0.15181454     0             -0.087184616   -0.01006597   
  20980000   0.070062691   -0.14993274     0             -0.094429952   -0.079034729  
  20990000   0.066098271   -0.16109954     0             -0.10873731     0.020385647  
  21000000   0.072346394   -0.14240379     0             -0.085091879   -0.016472396  
  21010000   0.063745117   -0.13923919     0             -0.088741102   -0.024235763  
  21020000   0.067385384   -0.13013874     0             -0.076756879    0.0024602806 
  21030000   0.072443262   -0.1443952      0             -0.087006557   -0.021705452  
  21040000   0.07172449    -0.1445799      0             -0.087760661    0.024304639  
  21050000   0.065997984   -0.12240975     0             -0.07012697    -0.023226673  
  21060000   0.063599731   -0.15488586     0             -0.10450295     0.028127489  
  21070000   0.070956833   -0.15886783     0             -0.10265671    -0.02095468   
  21080000   0.071455017   -0.14584234     0             -0.089236571   -0.020555862  
  21090000   0.070646328   -0.14728884     0             -0.091323704   -0.10853858   
  21100000   0.071123316   -0.14530169     0             -0.088958685   -0.024165104  
  21110000   0.065286047   -0.14007516     0             -0.088356368    0.028022409  
  21120000   0.081536681   -0.14489508     0             -0.080302737   -0.071887818  
  21130000   0.07013323    -0.15000124     0             -0.094442568   -0.034693616  
  21140000   0.067100446   -0.14667465     0             -0.093518514   -0.064697341  
  21150000   0.069390532   -0.14079342     0             -0.085823109   -0.043400619  
  21160000   0.075554575   -0.13713819     0             -0.077284801   -0.03196977   
  21170000   0.066052641   -0.13950857     0             -0.087182488    0.01593787   
  21180000   0.069360732   -0.14492174     0             -0.089975034   -0.054862243  
  21190000   0.067347849   -0.14992871     0             -0.096576587    0.00071404304
  21200000   0.073015875   -0.16585795     0             -0.10801569     0.0056125228 
  21210000   0.069935722   -0.16156659     0             -0.10616439    -0.014377046  
  21220000   0.059773168   -0.1560528      0             -0.10870124    -0.018752185  
  21230000   0.078212298   -0.15221609     0             -0.090257287    0.07027764   
  21240000   0.075107962   -0.14752909     0             -0.088029497   -0.0037949263 
  21250000   0.066587362   -0.13694663     0             -0.084196958   -0.074266814  
  21260000   0.072364897   -0.15058712     0             -0.093260548   -0.032720085  
  21270000   0.068953103   -0.15166778     0             -0.097043998   -0.073905556  
  21280000   0.069241214   -0.16553053     0             -0.11067851     0.080002223  
  21290000   0.07157317    -0.1493058      0             -0.092606427    0.010151863  
  21300000   0.063686603   -0.14244007     0             -0.09198834     0.01418627   
  21310000   0.073149699   -0.16964734     0             -0.11169907    -0.058434602  
  21320000   0.075738029   -0.13630174     0             -0.076303025    0.016215748  
  21330000   0.076932656   -0.14843927     0             -0.087494177   -0.039169473  
  21340000   0.084990453   -0.15517384     0             -0.087845461   -0.033795745  
  21350000   0.061168795   -0.16257082     0             -0.11411366    -0.033700658  
  21360000   0.073006176   -0.14966926     0             -0.091834677   -0.0053286924 
  21370000   0.068162114   -0.14370485     0             -0.089707675   -0.065944037  
  21380000   0.068144614   -0.13383684     0             -0.079853526    0.0052089003 
  21390000   0.072801056   -0.13608524     0             -0.078413157   -0.032343449  
  21400000   0.073811858   -0.12490059     0             -0.066427754   -0.0054228669 
  21410000   0.066903009   -0.13162212     0             -0.078622395   -0.0054025142 
  21420000   0.070827461   -0.13154798     0             -0.075439348   -0.0061523961 
  21430000   0.07074864    -0.13439938     0             -0.078353187    0.0090280485 
  21440000   0.075519682   -0.13934531     0             -0.07951956     0.022348116  
  21450000   0.078573678   -0.13201461     0             -0.069769529   -0.026540851  
  21460000   0.065364819   -0.12628124     0             -0.074500051   -0.045830674  
  21470000   0.073677229   -0.14572869     0             -0.087362507    0.026337884  
  21480000   0.069951418   -0.15031526     0             -0.094900622   -0.017106647  
  21490000   0.07495509    -0.15274833     0             -0.093369846    0.11995539   
  21500000   0.077163936   -0.1366084      0             -0.075480098    0.024099276  
  21510000   0.062485079   -0.15316264     0             -0.10366274    -0.016063867  
  21520000   0.077584358   -0.15513406     0             -0.093672704   -0.05341781   
  21530000   0.075306065   -0.15632397     0             -0.096667443   -0.095223253  
  21540000   0.068673168   -0.17643134     0             -0.12202931     0.0014453899 
  21550000   0.070190889   -0.16187793     0             -0.10627358    -0.095014029  
  21560000   0.076905007   -0.15077296     0             -0.089849775    0.052897177  
  21570000   0.068815449   -0.14042494     0             -0.085910197    0.062865644  
  21580000   0.069625293   -0.14451912     0             -0.08936283     0.0016568999 
  21590000   0.07330078    -0.14536073     0             -0.087292767   -0.069332112  
  21600000   0.068667452   -0.14608205     0             -0.091684553    0.040726004  
  21610000   0.076508135   -0.14326557     0             -0.082656783   -0.01078716   
  21620000   0.073825544   -0.14610524     0             -0.087621571    0.01956986   
  21630000   0.070724063   -0.12764619     0             -0.07161947    -0.070688742  
  21640000   0.067996368   -0.12420291     0             -0.07033704     0.062180468  
  21650000   0.069875624   -0.12599049     0             -0.070635895    0.04069084   
  21660000   0.065866152   -0.13652077     0             -0.084342427   -0.053897402  
  21670000   0.06412891    -0.14496254     0             -0.094160418    0.016250924  
  21680000   0.068691058   -0.16434985     0             -0.10993365    -0.02077664   
  21690000   0.076277469   -0.16391249     0             -0.10348643     0.029561691  
  21700000   0.061553466   -0.1518588      0             -0.10309691    -0.06620609   
  21710000   0.067986147   -0.16546696     0             -0.11160919    -0.063816368  
  21720000   0.067733359   -0.16448738     0             -0.11082986    -0.031932116  
  21730000   0.072327518   -0.14698173     0             -0.08968477     0.014834945  
  21740000   0.06917634    -0.15531066     0             -0.10051003    -0.032680543  
  21750000   0.077181271   -0.14189492     0             -0.080752884   -0.046392662  
  21760000   0.067732014   -0.12994471     0             -0.076288256   -0.0067402834 
  21770000   0.072220909   -0.13811587     0             -0.080903367   -0.045716132  
  21780000   0.066581638   -0.15509291     0             -0.10234777    -0.0090716114 
  21790000   0.074783495   -0.15824995     0             -0.099007396   -0.042093941  
  21800000   0.068957813   -0.15644105     0             -0.10181353     0.090151405  
  21810000   0.069613786   -0.15574255     0             -0.10059538    -0.027297644  
  21820000   0.073073423   -0.14731891     0             -0.089431062    0.037944855  
  21830000   0.078916192   -0.13808031     0             -0.075563893   -0.042948732  
  21840000   0.074805012   -0.12604096     0             -0.066781369   -0.053422504  
  21850000   0.073385485   -0.14175019     0             -0.083615124    0.0016482268 
  21860000   0.073693939   -0.15059478     0             -0.092215367   -0.010428796  
  21870000   0.069875742   -0.14386926     0             -0.088514575    0.0082232425 
  21880000   0.068926235   -0.13350144     0             -0.07889894     0.0080254047 
  21890000   0.073921963   -0.15445338     0             -0.095893325   -0.10114493   
  21900000   0.067865007   -0.15828211     0             -0.1045203      0.014720246  
  21910000   0.064011833   -0.16040001     0             -0.10969063    -0.060986394  
  21920000   0.06415425    -0.15466814     0             -0.10384594    -0.059433128  
  21930000   0.077092442   -0.14691278     0             -0.085841111   -0.0086527584 
  21940000   0.058455141   -0.14069289     0             -0.094385456   -0.035514108  
  21950000   0.076450107   -0.15434765     0             -0.093784834    0.011452857  
  21960000   0.067741147   -0.15981771     0             -0.10615402     0.0039047342 
  21970000   0.071185631   -0.15084293     0             -0.094450563   -0.068670834  
  21980000   0.071094276   -0.1523061      0             -0.095986107   -0.041210966  
  21990000   0.07854139    -0.13654024     0             -0.074320734    0.038994444  
  22000000   0.083250415   -0.14657082     0             -0.080620885   -0.030697373  
  22010000   0.077566237   -0.16052417     0             -0.099077162   -0.067588812  
  22020000   0.062423387   -0.14639204     0             -0.096941015   -0.091549806  
  22030000   0.068484389   -0.14544852     0             -0.091196042    0.050980306  
  22040000   0.073750829   -0.13585378     0             -0.077429297    0.012519618  
  22050000   0.069973139   -0.13125951     0             -0.075827662    0.013328629  
  22060000   0.066406482   -0.13295909     0             -0.080352709   -0.051530203  
  22070000   0.073726719   -0.14091233     0             -0.082506947    0.079537054  
  22080000   0.064959848   -0.15190666     0             -0.10044628     0.030828006  
  22090000   0.063450826   -0.15482182     0             -0.10455687     0.03393791   
  22100000   0.064157966   -0.14559769     0             -0.094772549    0.00034757745
  22110000   0.070019907   -0.16559627     0             -0.11012737     0.019181994  
  22120000   0.072070955   -0.16547964     0             -0.10838593     0.043630522  
  22130000   0.071490711   -0.16182769     0             -0.10519364    -0.03592482   
  22140000   0.067109815   -0.12984511     0             -0.076681551    0.0096682429 
  22150000   0.06441172    -0.13918764     0             -0.088161476   -0.026566945  
  22160000   0.061963553   -0.14539531     0             -0.096308561   -0.063859879  
  22170000   0.065973929   -0.15509858     0             -0.10283486    -0.033890106  
  22180000   0.070291164   -0.16555024     0             -0.10986646     0.025523149  
  22190000   0.066136588   -0.15161913     0             -0.099226548   -0.080059044  
  22200000   0.068182565   -0.1578611      0             -0.10384772     0.031198141  
  22210000   0.073896162   -0.16149372     0             -0.10295411    -0.0150488    
  22220000   0.077161392   -0.15030408     0             -0.089177787    0.049224043  
  22230000   0.066021232   -0.15697077     0             -0.10466958    -0.056990788  
  22240000   0.080852764   -0.13616643     0             -0.072115877    0.0076422923 
  22250000   0.069309615   -0.13110724     0             -0.076201034   -0.00074711519
  22260000   0.06943526    -0.13955455     0             -0.084548808    0.043239103  
  22270000   0.073549302   -0.14111688     0             -0.082852043   -0.041416918  
  22280000   0.078627947   -0.16134084     0             -0.099052764   -0.089190376  
  22290000   0.083363333   -0.14973134     0             -0.083691952   -0.041012338  
  22300000   0.069581376   -0.13955684     0             -0.084435339   -0.08397702   
  22310000   0.06889293    -0.16356653     0             -0.10899041    -0.15030064   
  22320000   0.072020069   -0.15336487     0             -0.096311474   -0.043919314  
  22330000   0.073942554   -0.1482373      0             -0.089660936    0.003367178  
  22340000   0.077023575   -0.1483299      0             -0.08731279     0.01530332   
  22350000   0.072862297   -0.14517632     0             -0.087455718    0.014531631  
  22360000   0.067953109   -0.13543684     0             -0.08160524     0.046159251  
  22370000   0.075676043   -0.15654413     0             -0.096594518   -0.043551333  
  22380000   0.077373479   -0.16057919     0             -0.099284884   -0.046230508  
  22390000   0.075403057   -0.140098       0             -0.080364638   -0.030602236  
  22400000   0.07633899    -0.14430339     0             -0.083828596   -0.014233829  
  22410000   0.076514182   -0.14255491     0             -0.081941335   -0.075437634  
  22420000   0.067752532   -0.15660362     0             -0.10293091     0.070595661  
  22430000   0.079417833   -0.14928833     0             -0.086374513    0.0018789612 
  22440000   0.070194471   -0.16427979     0             -0.1086726     -0.077056826  
  22450000   0.068255177   -0.16731284     0             -0.11324194    -0.039151809  
  22460000   0.07786406    -0.15973999     0             -0.098057053   -0.034215031  
  22470000   0.066069167   -0.15551495     0             -0.10317578     0.042822956  
  22480000   0.075774958   -0.13275238     0             -0.072724403   -0.053421106  
  22490000   0.067784129   -0.12687062     0             -0.073172878   -0.092647967  
  22500000   0.068317552   -0.1434866      0             -0.089366289    0.051440768  
  22510000   0.073416048   -0.15261014     0             -0.094450866   -0.023698509  
  22520000   0.076900436   -0.15255759     0             -0.091638021   -0.022983381  
  22530000   0.076204956   -0.14742494     0             -0.08705633    -0.050206727  
  22540000   0.068003101   -0.11893162     0             -0.065060418    0.085980002  
  22550000   0.071746818   -0.14487508     0             -0.088038152   -0.013818217  
  22560000   0.070104692   -0.13747997     0             -0.081943905   -0.047150506  
  22570000   0.067839047   -0.14879107     0             -0.09504982    -0.035085422  
  22580000   0.066352247   -0.158227       0             -0.10566358    -0.072436657  
  22590000   0.07229504    -0.1700381      0             -0.11276687     0.0086655782 
  22600000   0.067992441   -0.17278919     0             -0.11892642    -0.038769734  
  22610000   0.066034069   -0.17543519     0             -0.12312383    -0.050410574  
  22620000   0.071728656   -0.17426032     0             -0.11743777    -0.12568634   
  22630000   0.072102382   -0.16248992     0             -0.10537132     0.024989496  
  22640000   0.068436068   -0.15251329     0             -0.098299094   -0.011014934  
  22650000   0.070574338   -0.14702537     0             -0.091117266   -0.012343388  
  22660000   0.076553963   -0.16306599     0             -0.1024209     -0.058812277  
  22670000   0.074626856   -0.15130481     0             -0.092186349    0.053102364  
  22680000   0.06916297    -0.15358709     0             -0.09879705    -0.018750998  
  22690000   0.078964466   -0.15360391     0             -0.091049244    0.021902851  
  22700000   0.071380793   -0.15784886     0             -0.10130189     0.049096757  
  22710000   0.076976394   -0.15474751     0             -0.093767772    0.015308136  
  22720000   0.077107622   -0.14904737     0             -0.08796368    -0.019107699  
  22730000   0.060149644   -0.1650417      0             -0.1173919     -0.04825103   
  22740000   0.064559247   -0.16586454     0             -0.11472152     0.047149291  
  22750000   0.066231914   -0.15367481     0             -0.10120672     0.030125408  
  22760000   0.065920776   -0.16314987     0             -0.11092825    -0.0093420019 
  22770000   0.066618298   -0.15598006     0             -0.10320588    -0.056034504  
  22780000   0.065258242   -0.15451179     0             -0.10281503    -0.0084686553 
  22790000   0.067419555   -0.16356758     0             -0.11015865     0.019200361  
  22800000   0.078989971   -0.14045122     0             -0.077876354   -0.069086616  
  22810000   0.06805724    -0.15900666     0             -0.10509256    -0.018274856  
  22820000   0.069941657   -0.14555368     0             -0.090146773   -0.039719957  
  22830000   0.077879126   -0.14293333     0             -0.08123846    -0.0065417799 
  22840000   0.07165996    -0.1488594      0             -0.092091271   -0.082532183  
  22850000   0.073404262   -0.14209397     0             -0.083944035    0.080871149  
  22860000   0.073753615   -0.14632413     0             -0.087897435   -0.143796     
  22870000   0.067107446   -0.15193038     0             -0.098768703   -0.021173859  
  22880000   0.070352726   -0.14605067     0             -0.090318117   -0.016902452  
  22890000   0.063364336   -0.15170698     0             -0.10151054     0.028844884  
  22900000   0.06870108    -0.14210972     0             -0.087685579   -0.066640176  
  22910000   0.074671823   -0.149849       0             -0.090694919   -0.011782809  
  22920000   0.071244958   -0.14117894     0             -0.084739576    0.03105439   
  22930000   0.073768029   -0.15313924     0             -0.094701134    0.078077339  
  22940000   0.076545978   -0.13585218     0             -0.075213411   -0.059854087  
  22950000   0.064802372   -0.13633677     0             -0.08500114    -0.025517831  
  22960000   0.072148421   -0.13337931     0             -0.076224232    0.0056643709 
  22970000   0.075410598   -0.14103573     0             -0.081296395    0.028062646  
  22980000   0.078214928   -0.14554944     0             -0.083588548    0.007734831  
  22990000   0.070439113   -0.16135051     0             -0.10554953    -0.028666491  
  23000000   0.064589525   -0.14820847     0             -0.097041453   -0.014314656  
  23010000   0.067739425   -0.1540333      0             -0.10037097     0.010847882  
  23020000   0.072861358   -0.14904247     0             -0.09132261    -0.022076842  
  23030000   0.06860777    -0.1462022      0             -0.091851986   -0.056604136  
  23040000   0.080294812   -0.16353542     0             -0.099926874    0.032191468  
  23050000   0.074037027   -0.15506816     0             -0.096416954    0.058958078  
  23060000   0.072084375   -0.15385729     0             -0.096752945   -0.069659328  
  23070000   0.074574688   -0.14616679     0             -0.087089655   -0.030402706  
  23080000   0.07742428    -0.1368865      0             -0.075551951    0.101841     
  23090000   0.061055064   -0.13903096     0             -0.090663898   -0.040412588  
  23100000   0.070383423   -0.15154506     0             -0.095788195    0.010928085  
  23110000   0.075626187   -0.16169408     0             -0.10178396    -0.010747351  
  23120000   0.073307684   -0.16465748     0             -0.10658405    -0.078335176  
  23130000   0.061356016   -0.15112548     0             -0.10252001    -0.0062193379 
  23140000   0.073187178   -0.14747621     0             -0.089498241   -0.03809705   
  23150000   0.069645443   -0.16266185     0             -0.1074896     -0.031942965  
  23160000   0.064673813   -0.14962507     0             -0.098391284    0.021145957  
  23170000   0.073149754   -0.12436754     0             -0.066419223    0.036392541  
  23180000   0.077385817   -0.14371859     0             -0.08241451    -0.12196539   
  23190000   0.061217432   -0.13407369     0             -0.085578003    0.064182248  
  23200000   0.060526747   -0.14199576     0             -0.094047224   -0.067741837  
  23210000   0.062549189   -0.14847244     0             -0.098921757   -0.036719097  
  23220000   0.07453368    -0.13506768     0             -0.076023031    0.019548988  
  23230000   0.073090165   -0.1304886      0             -0.072587486    0.044110249  
  23240000   0.062680645   -0.14236336     0             -0.09270854    -0.067541016  
  23250000   0.077899207   -0.15963555     0             -0.097924769   -0.052969297  
  23260000   0.072736102   -0.14614083     0             -0.088520199    0.012666842  
  23270000   0.071378817   -0.14600465     0             -0.089459247   -0.083063245  
  23280000   0.065290367   -0.14605084     0             -0.094328625    0.061358266  
  23290000   0.07611189    -0.14196864     0             -0.081673748   -0.038042421  
  23300000   0.072847254   -0.15440068     0             -0.096691996   -0.062032185  
  23310000   0.077394986   -0.15411996     0             -0.092808621   -0.009950181  
  23320000   0.073608388   -0.15764908     0             -0.099337439   -0.046967805  
  23330000   0.079433877   -0.15754693     0             -0.094620403   -0.073980688  
  23340000   0.073351523   -0.1346293      0             -0.076521142   -0.0014772468 
  23350000   0.079965255   -0.15674688     0             -0.093399404    0.051515183  
  23360000   0.072426308   -0.16703143     0             -0.10965621    -0.083442145  
  23370000   0.072560643   -0.16354603     0             -0.10606439     0.067743651  
  23380000   0.064560657   -0.16527578     0             -0.11413163    -0.046614264  
  23390000   0.061860522   -0.16823764     0             -0.1192325      0.00052313031
  23400000   0.078918983   -0.17324471     0             -0.11072608    -0.0717428    
  23410000   0.071037478   -0.15830581     0             -0.10203081    -0.030856748  
  23420000   0.071487924   -0.16703236     0             -0.11040052    -0.03570256   
  23430000   0.072669787   -0.16047189     0             -0.10290379    -0.052114128  
  23440000   0.065676434   -0.15411038     0             -0.10208233    -0.0029551148 
  23450000   0.069388096   -0.14425392     0             -0.089285534   -0.10697328   
  23460000   0.071996734   -0.15436654     0             -0.097331629   -0.014654759  
  23470000   0.073551632   -0.16685185     0             -0.10858516     0.02136724   
  23480000   0.069510263   -0.14850815     0             -0.093442991    0.014675245  
  23490000   0.065982163   -0.15396729     0             -0.10169705    -0.014176451  
  23500000   0.076775019   -0.15729797     0             -0.096477763    0.0030751871 
  23510000   0.072626494   -0.14668545     0             -0.089151646   -0.01664011   
  23520000   0.069476189   -0.140798       0             -0.085759833    0.013738098  
  23530000   0.068290036   -0.13950132     0             -0.085402809   -0.020313723  
  23540000   0.072994973   -0.13033789     0             -0.072512187    0.02087012   
  23550000   0.068243585   -0.14778033     0             -0.093718614    0.015128908  
  23560000   0.068878706   -0.14670293     0             -0.092138075   -0.078657299  
  23570000   0.070826567   -0.135398       0             -0.079290074    0.00063900143
  23580000   0.082894128   -0.14386387     0             -0.078196175    0.03479034   
  23590000   0.077397743   -0.14630183     0             -0.084988302   -0.036678648  
  23600000   0.064507961   -0.14550478     0             -0.094402375   -0.00068767382
  23610000   0.074256472   -0.14908824     0             -0.090263189    0.022346169  
  23620000   0.062716434   -0.14243516     0             -0.09275198    -0.0059693233 
  23630000   0.069928705   -0.15381043     0             -0.098413788   -0.044287747  
  23640000   0.072154714   -0.16458465     0             -0.10742459    -0.054715139  
  23650000   0.067530587   -0.15188942     0             -0.098392535   -0.065254082  
  23660000   0.079668262   -0.1461838      0             -0.083071598   -0.00873006   
  23670000   0.068236659   -0.15674375     0             -0.10268752    -0.1092017    
  23680000   0.069437227   -0.15328719     0             -0.098279891   -0.02758454   
  23690000   0.068224388   -0.147002       0             -0.092955488   -0.0009931352 
  23700000   0.075910971   -0.1583382      0             -0.09820248    -0.091300937  
  23710000   0.062919737   -0.14718862     0             -0.097344387   -0.061014409  
  23720000   0.069713401   -0.13742443     0             -0.082198348   -0.025209507  
  23730000   0.070526289   -0.14589782     0             -0.090027779   -0.06835058   
  23740000   0.076912712   -0.14635496     0             -0.085425667   -0.096950588  
  23750000   0.070507186   -0.15483822     0             -0.098983304    0.0021716738 
  23760000   0.070268005   -0.15489724     0             -0.099231806    0.021563846  
  23770000   0.069274856   -0.16240776     0             -0.10752909    -0.10535951   
  23780000   0.075038102   -0.15462198     0             -0.095177735   -0.020421337  
  23790000   0.07004818    -0.13765603     0             -0.082164735    0.05316725   
  23800000   0.086170587   -0.15178344     0             -0.083520176   -0.052451153  
  23810000   0.072143155   -0.14522427     0             -0.088073362   -0.098693422  
  23820000   0.076277339   -0.16574895     0             -0.105323      -0.088694706  
  23830000   0.07099342    -0.1600096      0             -0.1037695     -0.064161001  
  23840000   0.072469894   -0.15134576     0             -0.093936019   -0.10681099   
  23850000   0.082054397   -0.15744741     0             -0.092444944    0.0095267144 
  23860000   0.070321666   -0.16074417     0             -0.10503622    -0.019618892  
  23870000   0.07043838    -0.14732418     0             -0.091523774   -0.028841909  
  23880000   0.074100358   -0.14787702     0             -0.089175644   -0.069702021  
  23890000   0.069579283   -0.13648733     0             -0.08136749    -0.048902825  
  23900000   0.075617844   -0.14143027     0             -0.081526755    0.042274621  
  23910000   0.072371395   -0.15255129     0             -0.09521957    -0.07582273   
  23920000   0.068286683   -0.16090428     0             -0.10680842    -0.027750261  
  23930000   0.076642761   -0.15450677     0             -0.093791334    0.01817755   
  23940000   0.068231493   -0.1429572      0             -0.088905068    0.018762937  
  23950000   0.064339195   -0.14350393     0             -0.092535225   -0.005143672  
  23960000   0.066563349   -0.15852355     0             -0.1057929      0.0093943919 
  23970000   0.075501427   -0.15250075     0             -0.092689462   -0.034113996  
  23980000   0.07277272    -0.16030722     0             -0.10265759     0.0008732092 
  23990000   0.070286541   -0.16027724     0             -0.10459712     0.009958802  
  24000000   0.068047752   -0.16370503     0             -0.10979846    -0.024973004  
  24010000   0.060069454   -0.15712605     0             -0.10953978     0.0023036661 
  24020000   0.073797078   -0.17952352     0             -0.1210624     -0.065145122  
  24030000   0.070848789   -0.17291965     0             -0.11679412    -0.0571156    
  24040000   0.072748588   -0.14560931     0             -0.087978784    0.075162032  
  24050000   0.06786357    -0.15126975     0             -0.097509081    0.099738186  
  24060000   0.068845258   -0.15985531     0             -0.10531696     0.021170306  
  24070000   0.069843399   -0.17115623     0             -0.11582716    -0.046873532  
  24080000   0.072351085   -0.1663968      0             -0.10908118    -0.012916917  
  24090000   0.063223828   -0.16030934     0             -0.11022421    -0.0074750317 
  24100000   0.077246382   -0.13700016     0             -0.075806543    0.028217508  
  24110000   0.071602784   -0.14977066     0             -0.093047825    0.0062829977 
  24120000   0.077893381   -0.16291818     0             -0.10121202    -0.083321589  
  24130000   0.071142182   -0.14657444     0             -0.090216496   -0.032171397  
  24140000   0.072862467   -0.14754317     0             -0.089822432   -0.0067232922 
  24150000   0.076732357   -0.16485149     0             -0.10406507    -0.061289942  
  24160000   0.07616633    -0.14337503     0             -0.083037017    0.01971954   
  24170000   0.069248244   -0.17471751     0             -0.11985991    -0.0086573265 
  24180000   0.074623284   -0.15586356     0             -0.09674793     0.026546309  
  24190000   0.078689145   -0.15223916     0             -0.089902603   -0.022551142  
  24200000   0.075461392   -0.15122486     0             -0.091445289   -0.037796966  
  24210000   0.073542678   -0.15855778     0             -0.10029819     0.003181686  
  24220000   0.075092007   -0.15583603     0             -0.096349081    0.034592159  
  24230000   0.075976832   -0.15381854     0             -0.093630645   -0.039808703  
  24240000   0.070420301   -0.15869177     0             -0.10290568    -0.025107232  
  24250000   0.077092614   -0.13450618     0             -0.073434378    0.038354905  
  24260000   0.070277875   -0.15439673     0             -0.098723475   -0.078255738  
  24270000   0.076498651   -0.13655686     0             -0.075955587    0.054393775  
  24280000   0.08724761    -0.14953413     0             -0.080417665   -0.11561886   
  24290000   0.076709843   -0.14595051     0             -0.085181934   -0.044517732  
  24300000   0.074837318   -0.15530016     0             -0.096014968   -0.1094052    
  24310000   0.065918912   -0.15377095     0             -0.10155082    -0.015162844  
  24320000   0.065613479   -0.14530832     0             -0.093330144    0.091124165  
  24330000   0.07509116    -0.14196923     0             -0.082482948   -0.085539268  
  24340000   0.06974988    -0.1446964      0             -0.089441413   -0.07571987   
  24350000   0.075382903   -0.13785646     0             -0.07813907    -0.001050036  
  24360000   0.070744035   -0.13113187     0             -0.075089325   -0.0083266125 
  24370000   0.079245618   -0.12143179     0             -0.058654398    0.01694962   
  24380000   0.059083912   -0.13412086     0             -0.087315326   -0.0010619858 
  24390000   0.075144707   -0.12791171     0             -0.068383009    0.0038268948 
  24400000   0.069222313   -0.14065937     0             -0.085822316    0.048648743  
  24410000   0.061395322   -0.1527418      0             -0.10410519    -0.010038236  
  24420000   0.073330402   -0.14429322     0             -0.086201793   -0.047976973  
  24430000   0.074804905   -0.14929475     0             -0.090035241    0.024735459  
  24440000   0.071830572   -0.1578573      0             -0.10095402    -0.12560665   
  24450000   0.068972769   -0.14598108     0             -0.09134171    -0.036470427  
  24460000   0.062988883   -0.15629603     0             -0.10639702    -0.0018054908 
  24470000   0.075143847   -0.14835554     0             -0.088827522   -0.011849659  
  24480000   0.06488146    -0.13815545     0             -0.086757168   -0.071416505  
  24490000   0.073715144   -0.1310818      0             -0.072685583   -0.025190962  
  24500000   0.07805587    -0.13724228     0             -0.075407393    0.048235824  
  24510000   0.085328909   -0.12512971     0             -0.057533213    0.016738638  
  24520000   0.081492304   -0.14514469     0             -0.080587505    0.0040544846 
  24530000   0.070122547   -0.13575814     0             -0.080207939   -0.045576193  
  24540000   0.070070353   -0.14765789     0             -0.092149036    0.039557749  
  24550000   0.067381401   -0.15928025     0             -0.10590155    -0.091423624  
  24560000   0.071787568   -0.15025386     0             -0.093384647   -0.042328848  
  24570000   0.07214251    -0.14814326     0             -0.090992866   -0.1022266    
  24580000   0.07523819    -0.13572982     0             -0.076127065   -0.011129036  
  24590000   0.074365059   -0.1503355      0             -0.091424428   -0.047835993  
  24600000   0.065970629   -0.15117982     0             -0.09891871     0.018342636  
  24610000   0.078042811   -0.15718524     0             -0.095360698   -0.0085305599 
  24620000   0.077300737   -0.15856923     0             -0.09733255    -0.035058808  
  24630000   0.073152702   -0.15274012     0             -0.094789461    0.035796773  
  24640000   0.074563823   -0.13350474     0             -0.074436207    0.055515116  
  24650000   0.067358703   -0.14551008     0             -0.09214936     0.019559903  
  24660000   0.069498069   -0.15071738     0             -0.095661875   -0.029140703  
  24670000   0.069344534   -0.1592606      0             -0.10432673     0.0565824    
  24680000   0.065138705   -0.1603992      0             -0.10879713    -0.11171883   
  24690000   0.065843394   -0.15694091     0             -0.10478059    -0.052132204  
  24700000   0.062146926   -0.18391582     0             -0.1346838     -0.015319862  
  24710000   0.078449476   -0.1802627      0             -0.11811601    -0.0019734959 
  24720000   0.068041906   -0.15472811     0             -0.10082616     0.027303466  
  24730000   0.072247469   -0.14682254     0             -0.089589002   -0.12939721   
  24740000   0.076418077   -0.14237122     0             -0.081833771    0.046529856  
  24750000   0.070265829   -0.14035113     0             -0.084687418    0.017934441  
  24760000   0.062354811   -0.15899701     0             -0.10960031     0.009461712  
  24770000   0.066924302   -0.14835965     0             -0.095343054   -0.0018678157 
  24780000   0.063086952   -0.14151761     0             -0.091540919    0.038940629  
  24790000   0.073767632   -0.13774968     0             -0.079311888   -0.042863572  
  24800000   0.070690302   -0.14640766     0             -0.090407691   -0.11530768   
  24810000   0.06646753    -0.14233042     0             -0.089675674   -0.0052367641 
  24820000   0.072762058   -0.15793543     0             -0.10029424     0.064762045  
  24830000   0.070777039   -0.15878109     0             -0.1027124     -0.053482168  
  24840000   0.070282799   -0.15499178     0             -0.099314623    0.016897037  
  24850000   0.071738816   -0.15789222     0             -0.10106162    -0.11800508   
  24860000   0.068229896   -0.14492444     0             -0.090873574   -0.076152885  
  24870000   0.070159397   -0.14904671     0             -0.093467314   -0.092122587  
  24880000   0.078176608   -0.14731534     0             -0.085384809   -0.090704279  
  24890000   0.076561473   -0.14404493     0             -0.083393887   -0.018135961  
  24900000   0.07368162    -0.14222288     0             -0.083853218   -0.013180871  
  24910000   0.069800554   -0.1467768      0             -0.091481677   -0.039261441  
  24920000   0.0703122     -0.14916771     0             -0.093467265    0.0063956614 
  24930000   0.079775391   -0.14289041     0             -0.079693343   -0.051915359  
  24940000   0.082510254   -0.1402935      0             -0.074929905    0.0081764431 
  24950000   0.069397686   -0.15888414     0             -0.10390816    -0.0092297225 
  24960000   0.062410506   -0.1464454      0             -0.097004577   -0.0084189438 
  24970000   0.067920364   -0.13924969     0             -0.085444022   -0.095778682  
  24980000   0.084630608   -0.11881772     0             -0.051774414   -0.036977655  
  24990000   0.073491401   -0.12920568     0             -0.070986707   -0.01203431   
  25000000   0.0849937     -0.13559247     0             -0.068261521   -0.018045935  
  25010000   0.071318276   -0.14254524     0             -0.08604779     0.0069062823 
  25020000   0.076530613   -0.14287659     0             -0.082249993    0.11421759   
  25030000   0.070867284   -0.1426869      0             -0.086546726    0.0022952484 
  25040000   0.073929398   -0.1465376      0             -0.087971654    0.0082891142 
  25050000   0.075372253   -0.14880659     0             -0.089097635   -0.093117118  
  25060000   0.073778605   -0.12661362     0             -0.068167133    0.038081456  
  25070000   0.066362707   -0.15415456     0             -0.10158285     0.039839889  
  25080000   0.081695736   -0.15040372     0             -0.085685382    0.042226999  
  25090000   0.071834881   -0.15464271     0             -0.097736012    0.0046082733 
  25100000   0.072624979   -0.14583944     0             -0.088306842   -0.046707311  
  25110000   0.0751788     -0.15778414     0             -0.098228432    0.043216211  
  25120000   0.069500379   -0.15241373     0             -0.097356396   -0.0043237268 
  25130000   0.067158228   -0.15139706     0             -0.098195149    0.014226676  
  25140000   0.080118282   -0.1422529      0             -0.078784203   -0.13759585   
  25150000   0.073387132   -0.14877213     0             -0.090635757   -0.058765785  
  25160000   0.071623104   -0.15929072     0             -0.10255179     0.039132538  
  25170000   0.072129867   -0.15507279     0             -0.097932407   -0.066378584  
  25180000   0.064918476   -0.14630032     0             -0.09487272    -0.065288476  
  25190000   0.081617765   -0.14964928     0             -0.084992708   -0.05241525   
  25200000   0.074849792   -0.14645153     0             -0.087156459   -0.087259859  
  25210000   0.082788891   -0.16699555     0             -0.10141123    -0.12442774   
  25220000   0.072966297   -0.14840142     0             -0.090598427   -0.13865104   
  25230000   0.074045316   -0.15369039     0             -0.095032619    0.024336287  
  25240000   0.064352052   -0.15557465     0             -0.10459576     0.03574406   
  25250000   0.068168731   -0.15377753     0             -0.09977511    -0.0542228    
  25260000   0.073948612   -0.14782408     0             -0.089242913   -0.062311027  
  25270000   0.069177941   -0.15127669     0             -0.096474787   -0.030525319  
  25280000   0.080332548   -0.13385578     0             -0.070217343   -0.069936814  
  25290000   0.065714625   -0.12121667     0             -0.069158369   -0.0091163972 
  25300000   0.076407039   -0.14053487     0             -0.080006171    0.014445426  
  25310000   0.070592542   -0.15163538     0             -0.09571285    -0.041269027  
  25320000   0.065529568   -0.14653005     0             -0.094618342   -0.025944168  
  25330000   0.068665329   -0.14479736     0             -0.090401541   -0.046451902  
  25340000   0.077162512   -0.14185178     0             -0.080724608    0.016993131  
  25350000   0.072337586   -0.14037493     0             -0.083069994    0.08418134   
  25360000   0.073630002   -0.13815055     0             -0.079821786   -0.042088713  
  25370000   0.067803172   -0.15162397     0             -0.097911144   -0.066774277  
  25380000   0.064170178   -0.16073432     0             -0.1098995      0.013173987  
  25390000   0.076898796   -0.15778432     0             -0.09686606    -0.080454678  
  25400000   0.072692708   -0.1343761      0             -0.076789847   -0.052736618  
  25410000   0.078170408   -0.13598947     0             -0.074063852   -0.033007051  
  25420000   0.073774558   -0.14021569     0             -0.081772409    0.031017005  
  25430000   0.069215103   -0.1447292      0             -0.089897858   -0.020307349  
  25440000   0.064562963   -0.17436733     0             -0.12322136    -0.0040792338 
  25450000   0.072541275   -0.1563339      0             -0.098867606   -0.0046042307 
  25460000   0.071242478   -0.16700126     0             -0.11056386    -0.068113879  
  25470000   0.070514808   -0.15870505     0             -0.1028441     -0.14765899   
  25480000   0.076873828   -0.14941115     0             -0.088512668   -0.014289689  
  25490000   0.071021333   -0.14986342     0             -0.093601206   -0.012498374  
  25500000   0.076451721   -0.15270229     0             -0.092138196   -0.086145176  
  25510000   0.076850377   -0.14817648     0             -0.087296572   -0.044370655  
  25520000   0.073568037   -0.13354088     0             -0.075261204    0.034181105  
  25530000   0.069748963   -0.13854941     0             -0.083295157   -0.077971975  
  25540000   0.067533802   -0.13985559     0             -0.086356159   -0.029601402  
  25550000   0.075858245   -0.1524181      0             -0.092324145    0.004009531  
  25560000   0.066620267   -0.13502029     0             -0.082244544   -0.035733973  
  25570000   0.074095561   -0.14153238     0             -0.0828348      0.0040004014 
  25580000   0.074687512   -0.15236408     0             -0.093197569   -0.052083674  
  25590000   0.080306428   -0.14831187     0             -0.084694117   -0.14356715   
  25600000   0.074511365   -0.13627428     0             -0.077247311   -0.088161393  
  25610000   0.083238306   -0.1459117      0             -0.079971353   -0.066725283  
  25620000   0.072463671   -0.14490348     0             -0.087498665    0.016196878  
  25630000   0.068408899   -0.15222956     0             -0.098036882    0.022840562  
  25640000   0.063986969   -0.13818375     0             -0.087494068   -0.013268808  
  25650000   0.064876179   -0.1560033      0             -0.1046092     -0.0072943398 
  25660000   0.068265327   -0.14417835     0             -0.090099413   -0.058563772  
  25670000   0.065604622   -0.15551428     0             -0.10354312    -0.049698478  
  25680000   0.070980445   -0.14738929     0             -0.091159473    0.069868289  
  25690000   0.070518012   -0.14541743     0             -0.089553939   -0.037037642  
  25700000   0.073051554   -0.1428856      0             -0.085015069   -0.012524075  
  25710000   0.063928594   -0.1503933      0             -0.099749866    0.0055631864 
  25720000   0.068672161   -0.14418147     0             -0.08978024    -0.043983503  
  25730000   0.066054988   -0.15311394     0             -0.100786      -0.023393865  
  25740000   0.071378958   -0.15754096     0             -0.10099545    -0.028282432  
  25750000   0.069370146   -0.16653447     0             -0.11158031     0.029173578  
  25760000   0.071308127   -0.14927916     0             -0.092789749   -0.011932357  
  25770000   0.067639571   -0.15069937     0             -0.097116151   -0.085193612  
  25780000   0.069976454   -0.14677597     0             -0.091341501   -0.0099952859 
  25790000   0.07247603    -0.13362816     0             -0.076213557   -0.028154389  
  25800000   0.077806577   -0.16124682     0             -0.099609421    0.0094532995 
  25810000   0.06929344    -0.16648502     0             -0.11159162    -0.074421613  
  25820000   0.074183319   -0.14735836     0             -0.088591259   -0.0699718    
  25830000   0.075413946   -0.15391261     0             -0.094170627    0.0093346593 
  25840000   0.074462395   -0.15193176     0             -0.092943583   -0.019393834  
  25850000   0.077819695   -0.16063401     0             -0.098986222   -0.059076866  
  25860000   0.068446985   -0.14820587     0             -0.093983019    0.017700528  
  25870000   0.068528228   -0.1467063      0             -0.092419099   -0.02589258   
  25880000   0.065355284   -0.14240992     0             -0.090636277    0.024748249  
  25890000   0.066464227   -0.14737155     0             -0.094719416   -0.022172024  
  25900000   0.071333289   -0.14495278     0             -0.088443443   -0.0084030228 
  25910000   0.061040697   -0.13366965     0             -0.085313974   -0.044188779  
  25920000   0.073963808   -0.13814956     0             -0.079556358    0.057145421  
  25930000   0.073396379   -0.14180918     0             -0.083665486   -0.04940672   
  25940000   0.073810753   -0.1339791      0             -0.075507145   -0.0581403    
  25950000   0.068588476   -0.14291963     0             -0.088584694   -0.042070628  
  25960000   0.06986691    -0.14816436     0             -0.092816671    0.055250211  
  25970000   0.076844295   -0.14025062     0             -0.079375533   -0.03666814   
  25980000   0.072301319   -0.13420686     0             -0.07693066     0.0076986685 
  25990000   0.080385894   -0.15170899     0             -0.088028293    0.0089925477 
  26000000   0.064241097   -0.15522964     0             -0.10433865    -0.0054051567 
  26010000   0.075192669   -0.13078085     0             -0.07121416    -0.015590227  
  26020000   0.071603437   -0.1246192      0             -0.067895849    0.091982602  
  26030000   0.074458695   -0.12173978     0             -0.062754537    0.053325967  
  26040000   0.062900726   -0.15235274     0             -0.10252357    -0.035198381  
  26050000   0.071500976   -0.1627725      0             -0.10613032    -0.012106947  
  26060000   0.072157781   -0.14342801     0             -0.086265518    0.077029466  
  26070000   0.069502458   -0.16326046     0             -0.10820148    -0.070005242  
  26080000   0.076819526   -0.15599054     0             -0.095135072    0.04399825   
  26090000   0.070357293   -0.15434237     0             -0.098606203    0.0038447992 
  26100000   0.061570087   -0.14150879     0             -0.092733732    0.014030963  
  26110000   0.07040382    -0.15313881     0             -0.097365788    0.0049192294 
  26120000   0.073766371   -0.15362527     0             -0.095188469   -0.051199234  
  26130000   0.074714773   -0.14192075     0             -0.082732643    0.02047447   
  26140000   0.070796693   -0.14523124     0             -0.089146989   -0.033158392  
  26150000   0.081438288   -0.14674273     0             -0.082228335   -0.10998836   
  26160000   0.068926494   -0.15939458     0             -0.10479187    -0.00098903564
  26170000   0.076783219   -0.16263454     0             -0.10180784     0.06648025   
  26180000   0.077484601   -0.15486884     0             -0.093486505   -0.059210261  
  26190000   0.066672328   -0.15280728     0             -0.099990296   -0.010322271  
  26200000   0.076541317   -0.15600168     0             -0.095366607    0.03918464   
  26210000   0.063361978   -0.13929209     0             -0.089097523    0.033131899  
  26220000   0.072980738   -0.13598709     0             -0.078172658   -0.020766826  
  26230000   0.066198522   -0.13264556     0             -0.080203916    0.085466333  
  26240000   0.062334188   -0.15053773     0             -0.10115736    -0.011472005  
  26250000   0.07017976    -0.13101721     0             -0.075421683   -0.026553012  
  26260000   0.074545348   -0.14788106     0             -0.088827167    0.01251243   
  26270000   0.067040704   -0.15834318     0             -0.10523438     0.0029464139 
  26280000   0.070836909   -0.13554855     0             -0.079432432    0.034576898  
  26290000   0.070539767   -0.14950663     0             -0.093625908   -0.04278244   
  26300000   0.077522732   -0.1460296      0             -0.084617061    0.021575489  
  26310000   0.070448577   -0.13938721     0             -0.083578724    0.011075501  
  26320000   0.066392996   -0.12687973     0             -0.074284028   -0.0091167934 
  26330000   0.077161243   -0.1374865      0             -0.076360331   -0.067074167  
  26340000   0.072098903   -0.14013801     0             -0.083022163   -0.050663189  
  26350000   0.068139606   -0.15006918     0             -0.096089834   -0.0031852901 
  26360000   0.064745804   -0.14799257     0             -0.096701753   -0.10441116   
  26370000   0.073454888   -0.14661103     0             -0.088420991    0.026057947  
  26380000   0.068764713   -0.15177487     0             -0.09730032     0.022226166  
  26390000   0.065547823   -0.13464874     0             -0.082722571    0.03373326   
  26400000   0.068049856   -0.13299623     0             -0.079087987   -0.01951063   
  26410000   0.07217667    -0.13908553     0             -0.081908072   -0.01611217   
  26420000   0.071321812   -0.14850732     0             -0.092007072    0.012616388  
  26430000   0.068663001   -0.13701747     0             -0.0826235     -0.0165694    
  26440000   0.074880516   -0.14162886     0             -0.082309452    0.036233918  
  26450000   0.076521453   -0.13168627     0             -0.071066935   -0.084639402  
  26460000   0.071967682   -0.15929502     0             -0.10228312    -0.0099798582 
  26470000   0.068367013   -0.14843471     0             -0.094275213   -0.04981759   
  26480000   0.078575864   -0.16200002     0             -0.099753206   -0.049094596  
  26490000   0.064461812   -0.156325       0             -0.10525916     0.00098164887
  26500000   0.07017054    -0.15668101     0             -0.10109279    -0.10542815   
  26510000   0.076789999   -0.13142608     0             -0.070594007   -0.097885946  
  26520000   0.075925018   -0.13238302     0             -0.072236166    0.0022241256 
  26530000   0.079202887   -0.16039464     0             -0.0976511     -0.089557367  
  26540000   0.070348239   -0.13641691     0             -0.080687916   -0.023861238  
  26550000   0.069095049   -0.13812741     0             -0.083391172    0.070889813  
  26560000   0.072171339   -0.13990768     0             -0.082734448    0.012418494  
  26570000   0.071667851   -0.1345214      0             -0.077747023   -0.026162794  
  26580000   0.079040628   -0.12937004     0             -0.066755041    0.047368915  
  26590000   0.075078842   -0.1271905      0             -0.067713976    0.034536896  
  26600000   0.068642595   -0.14489349     0             -0.090515689   -0.022549872  
  26610000   0.069137526   -0.14424362     0             -0.089473739   -0.03318933   
  26620000   0.070820481   -0.14094224     0             -0.084839137    0.020596402  
  26630000   0.075408608   -0.14456204     0             -0.084824281   -0.035158326  
  26640000   0.07240056    -0.14232427     0             -0.084969447   -0.062122378  
  26650000   0.079051392   -0.13762388     0             -0.075000352    0.027324206  
  26660000   0.068212224   -0.15069887     0             -0.096661998   -0.041858951  
  26670000   0.067579579   -0.15135967     0             -0.097823975   -0.0097866963 
  26680000   0.07322176    -0.14732565     0             -0.089320289   -0.0087626106 
  26690000   0.069235031   -0.14974283     0             -0.094895706   -0.0012526957 
  26700000   0.066862703   -0.15167628     0             -0.098708487   -0.02001525   
  26710000   0.070540168   -0.1573145      0             -0.10143346    -0.02841093   
  26720000   0.072615946   -0.15375114     0             -0.096225696   -0.072722328  
  26730000   0.071136454   -0.15824897     0             -0.10189556    -0.061409929  
  26740000   0.071858665   -0.1549603      0             -0.098034768   -0.044497817  
  26750000   0.072291599   -0.16160811     0             -0.10433961     0.011962689  
  26760000   0.068856067   -0.16195958     0             -0.10741266     7.2400567e-05
  26770000   0.067225819   -0.14488136     0             -0.091625904   -0.016991327  
  26780000   0.069915465   -0.14672513     0             -0.09133897    -0.0669507    
  26790000   0.059289343   -0.13939534     0             -0.092427059   -0.023711383  
  26800000   0.066091281   -0.13190812     0             -0.07955143    -0.053607627  
  26810000   0.071836758   -0.14692027     0             -0.090012093    0.0094575357 
  26820000   0.070829852   -0.13788857     0             -0.081778044    0.003903692  
  26830000   0.068379376   -0.16419654     0             -0.11002725    -0.10886197   
  26840000   0.074529647   -0.1478781      0             -0.088836646   -0.034523681  
  26850000   0.065868559   -0.13590986     0             -0.083729615    0.024771887  
  26860000   0.073103944   -0.14863771     0             -0.090725678   -0.053557977  
  26870000   0.07638118    -0.13489753     0             -0.074389318   -0.095655783  
  26880000   0.073906705   -0.14401905     0             -0.085471083   -0.05973695   
  26890000   0.071184153   -0.13167177     0             -0.075280572    0.0069724061 
  26900000   0.073391752   -0.13295506     0             -0.074815036   -0.052385967  
  26910000   0.066459638   -0.14051989     0             -0.087871395   -0.023844878  
  26920000   0.069702563   -0.13510865     0             -0.079891149   -0.0024226471 
  26930000   0.073352747   -0.14691545     0             -0.088806325    0.0076026998 
  26940000   0.06972037    -0.12995137     0             -0.074719763   -0.025283453  
  26950000   0.070595057   -0.1467982      0             -0.090873678    0.065306205  
  26960000   0.068362907   -0.13545563     0             -0.081299389    0.064561112  
  26970000   0.07163856    -0.13795157     0             -0.081200402    0.044507916  
  26980000   0.071528423   -0.15198459     0             -0.095320672   -0.10539913   
  26990000   0.07835679    -0.14169705     0             -0.079623776   -0.062266682  
  27000000   0.076301019   -0.15022927     0             -0.089784554    0.012001579  
  27010000   0.072332628   -0.14091188     0             -0.083610875   -0.05292132   
  27020000   0.068206602   -0.15726766     0             -0.10323524    -0.0084608903 
  27030000   0.069601282   -0.14947201     0             -0.094334742   -0.01878405   
  27040000   0.064935386   -0.14508123     0             -0.093640233    0.0027546585 
  27050000   0.071805174   -0.14371269     0             -0.086829525   -0.063756371  
  27060000   0.069120111   -0.15902981     0             -0.10427372     0.019680295  
  27070000   0.078832619   -0.16223967     0             -0.099789451    0.025485393  
  27080000   0.076755884   -0.13604613     0             -0.075241082    0.0054062579 
  27090000   0.07162374    -0.15376642     0             -0.09702699    -0.041295783  
  27100000   0.072995953   -0.14473812     0             -0.086911642    0.01350687   
  27110000   0.063452218   -0.15963562     0             -0.10936957    -0.079457034  
  27120000   0.074931798   -0.13769536     0             -0.07833533    -0.029324839  
  27130000   0.078926354   -0.15188315     0             -0.089358674    0.0037149548 
  27140000   0.072713044   -0.15547769     0             -0.097875325   -0.099988798  
  27150000   0.075141921   -0.16272986     0             -0.10320337     0.070023344  
  27160000   0.073686159   -0.147102       0             -0.088728744    0.00018409438
  27170000   0.078575097   -0.14921308     0             -0.086966875   -0.10164199   
  27180000   0.076540978   -0.14110737     0             -0.080472566   -0.026487128  
  27190000   0.066661593   -0.15514788     0             -0.1023394      0.067617374  
  27200000   0.068592987   -0.14508409     0             -0.090745578   -0.019303042  
  27210000   0.072819255   -0.13470458     0             -0.077018072    0.0016470026 
  27220000   0.081543199   -0.16189754     0             -0.09730004    -0.087530915  
  27230000   0.068704991   -0.15464885     0             -0.10022162     0.0056799951 
  27240000   0.06634464    -0.15335159     0             -0.1007942      0.060502701  
  27250000   0.070751841   -0.1602348      0             -0.10418608    -0.023515623  
  27260000   0.079385053   -0.15196022     0             -0.089072373    0.040048298  
  27270000   0.076944064   -0.15768595     0             -0.096731829   -0.10205883   
  27280000   0.071759281   -0.13598453     0             -0.079137724    0.033799042  
  27290000   0.080646946   -0.1457973      0             -0.081909798    0.0055070173 
  27300000   0.068007876   -0.14840333     0             -0.094528339   -0.036126901  
  27310000   0.073745903   -0.1320945      0             -0.073673913   -0.053915978  
  27320000   0.068437848   -0.1370358      0             -0.08282019    -0.074022632  
  27330000   0.06736671    -0.14254244     0             -0.089175371    0.013927997  
  27340000   0.074136786   -0.13540012     0             -0.07666988     0.04207126   
  27350000   0.077391425   -0.1394499      0             -0.07814138    -0.021453902  
  27360000   0.068087011   -0.1492777      0             -0.095340017    0.028881789  
  27370000   0.078166578   -0.12278385     0             -0.060861265    0.03775645   
  27380000   0.074179615   -0.12916769     0             -0.070403523    0.048123932  
  27390000   0.079967051   -0.13888154     0             -0.075532641    0.11353755   
  27400000   0.074794208   -0.15128083     0             -0.092029796    0.037997668  
  27410000   0.068901114   -0.15902334     0             -0.10444073     0.037313857  
  27420000   0.078376613   -0.14831577     0             -0.0862268      0.022351044  
  27430000   0.070566263   -0.16013025     0             -0.10422854    -0.049668083  
  27440000   0.084289525   -0.14080556     0             -0.074032455   -0.046902439  
  27450000   0.069272487   -0.15081349     0             -0.095936695    0.079398516  
  27460000   0.067696051   -0.14576251     0             -0.092134544   -0.051939566  
  27470000   0.083367675   -0.15010553     0             -0.084062705   -0.042873942  
  27480000   0.077543948   -0.13283767     0             -0.071408328    0.038050229  
  27490000   0.078977506   -0.14932843     0             -0.086763434    0.081131849  
  27500000   0.063727827   -0.15653218     0             -0.1060478      0.013516547  
  27510000   0.076853557   -0.15208034     0             -0.091197909   -0.034175959  
  27520000   0.08164348    -0.15955902     0             -0.094882075   -0.069406339  
  27530000   0.0786675     -0.15152517     0             -0.089205759    0.010893121  
  27540000   0.073175591   -0.13819985     0             -0.08023106    -0.0019610498 
  27550000   0.083828569   -0.1515972      0             -0.085189257    0.053198166  
  27560000   0.070734759   -0.14490665     0             -0.088871453   -0.0024111644 
  27570000   0.07018742    -0.12590034     0             -0.070298743    0.019801813  
  27580000   0.072183113   -0.16243661     0             -0.10525405     0.013360452  
  27590000   0.06677736    -0.1568833      0             -0.10398311     0.036895615  
  27600000   0.070267798   -0.14884994     0             -0.093184665   -0.074135998  
  27610000   0.067644504   -0.14681277     0             -0.093225636   -0.11152017   
  27620000   0.077906055   -0.13958849     0             -0.077872288   -0.053300241  
  27630000   0.07058328    -0.14007164     0             -0.084156451   -0.11388198   
  27640000   0.069812006   -0.14674409     0             -0.091439891    0.02525334   
  27650000   0.061161601   -0.13592889     0             -0.087477432   -0.027243678  
  27660000   0.070550502   -0.14041297     0             -0.084523747   -0.029170527  
  27670000   0.058598688   -0.14795249     0             -0.10153134     0.040366337  
  27680000   0.069625379   -0.15311198     0             -0.097955625    0.031436802  
  27690000   0.067296349   -0.16036355     0             -0.10705223    -0.071024572  
  27700000   0.06918595    -0.15754189     0             -0.10273364    -0.030154592  
  27710000   0.077598945   -0.16723181     0             -0.10575889    -0.042214475  
  27720000   0.072102969   -0.15982629     0             -0.10270722    -0.012425712  
  27730000   0.072670828   -0.15365835     0             -0.096089433   -0.011984112  
  27740000   0.071236751   -0.16368942     0             -0.10725655    -0.028926271  
  27750000   0.069249461   -0.15844943     0             -0.10359087    -0.10421484   
  27760000   0.087387051   -0.139984       0             -0.070757067   -0.073163402  
  27770000   0.065874595   -0.13514512     0             -0.082960092   -0.096676325  
  27780000   0.073178642   -0.16182535     0             -0.10385414    -0.060946634  
  27790000   0.072188386   -0.13911449     0             -0.08192775    -0.012670376  
  27800000   0.068639928   -0.14619145     0             -0.091815759   -0.0086786995 
  27810000   0.075098452   -0.13725661     0             -0.077764555   -0.11439533   
  27820000   0.072447911   -0.12512407     0             -0.067731736   -0.0045166601 
  27830000   0.072970773   -0.14026973     0             -0.082463195    0.079912806  
  27840000   0.065224927   -0.15091793     0             -0.099247559    0.022019483  
  27850000   0.07205165    -0.15196753     0             -0.094889115   -0.022902763  
  27860000   0.066574566   -0.15088503     0             -0.098145493   -0.03715843   
  27870000   0.067052232   -0.15362496     0             -0.10050702     0.0046221658 
  27880000   0.069278102   -0.15650934     0             -0.10162809     0.0078250995 
  27890000   0.072623037   -0.13559328     0             -0.078062222    0.039861775  
  27900000   0.065704272   -0.15915226     0             -0.10710216     0.021821008  
  27910000   0.065424981   -0.15118527     0             -0.099356423   -0.030099885  
  27920000   0.073423963   -0.15199918     0             -0.093833637    0.034702236  
  27930000   0.069312584   -0.15838142     0             -0.10347286    -0.096650913  
  27940000   0.080186366   -0.16033853     0             -0.096815889   -0.021235304  
  27950000   0.062355531   -0.15636399     0             -0.10696672    -0.033588398  
  27960000   0.067175489   -0.14740534     0             -0.094189762    0.018101466  
  27970000   0.075860401   -0.14061747     0             -0.080521806   -0.01665757   
  27980000   0.060993539   -0.14744408     0             -0.099125763   -0.062686952  
  27990000   0.07524199    -0.17484528     0             -0.11523951    -0.064463896  
  28000000   0.06630795    -0.15389807     0             -0.10136974    -0.018946218  
  28010000   0.071619523   -0.14824495     0             -0.09150886     0.0058742689 
  28020000   0.071800493   -0.15656539     0             -0.099685934   -0.14488948   
  28030000   0.066664495   -0.11511065     0             -0.062299866    0.007864444  
  28040000   0.070346318   -0.15197412     0             -0.096246649   -0.030278875  
  28050000   0.063135021   -0.1477353      0             -0.097720521   -0.041291616  
  28060000   0.070920283   -0.16203345     0             -0.10585128     0.079352126  
  28070000   0.077364153   -0.16019295     0             -0.098906033   -0.028754542  
  28080000   0.070860978   -0.1564546      0             -0.10031942     0.024092644  
  28090000   0.060665424   -0.16439539     0             -0.116337      -0.039549874  
  28100000   0.066054189   -0.16806579     0             -0.11573849    -0.038046177  
  28110000   0.07130819    -0.17280723     0             -0.11631778     0.075552887  
  28120000   0.068107682   -0.17054513     0             -0.11659108     0.061486418  
  28130000   0.063752207   -0.16308575     0             -0.11258205    -0.07125692   
  28140000   0.069946867   -0.16036761     0             -0.10495657    -0.029663481  
  28150000   0.069431641   -0.14154296     0             -0.086540077   -0.057917718  
  28160000   0.079410872   -0.14339842     0             -0.08049012     0.047156451  
  28170000   0.068515119   -0.15586939     0             -0.10159257    -0.078031     
  28180000   0.066523798   -0.14135377     0             -0.088654451    0.021763984  
  28190000   0.0620003     -0.15400011     0             -0.10488425    -0.10941069   
  28200000   0.068419977   -0.13218364     0             -0.077982185    0.06400813   
  28210000   0.068423717   -0.15301836     0             -0.098813949   -0.028105365  
  28220000   0.071552445   -0.13014297     0             -0.073460019    0.019553853  
  28230000   0.068326019   -0.13755143     0             -0.083424415    0.092479848  
  28240000   0.064916418   -0.14297806     0             -0.091552086    0.006962516  
  28250000   0.070184491   -0.13692383     0             -0.081324556   -0.06073723   
  28260000   0.073691991   -0.13486352     0             -0.076485643    0.017052838  
  28270000   0.067330029   -0.12992224     0             -0.07658423    -0.078842828  
  28280000   0.078005043   -0.15191901     0             -0.090124386    0.060014331  
  28290000   0.070585098   -0.13349229     0             -0.07757566     0.054841905  
  28300000   0.072483642   -0.13075356     0             -0.073332929    0.023400823  
  28310000   0.079511421   -0.14213866     0             -0.079150702   -0.095410762  
  28320000   0.075885308   -0.16082381     0             -0.10070842    -0.026600971  
  28330000   0.075792721   -0.14672842     0             -0.086686373   -0.019388919  
  28340000   0.065924693   -0.16293301     0             -0.11070829    -0.10111556   
  28350000   0.07459148    -0.13459478     0             -0.075504347    0.019606096  
  28360000   0.074944906   -0.14119601     0             -0.081825591   -0.036609343  
  28370000   0.066390875   -0.15584722     0             -0.1032532     -0.13207806   
  28380000   0.070027876   -0.15910352     0             -0.10362832    -0.13011246   
  28390000   0.066165466   -0.16241587     0             -0.11000041    -0.061654282  
  28400000   0.073642469   -0.1575379      0             -0.099199259    0.052257258  
  28410000   0.069202037   -0.15879387     0             -0.10397288    -0.0096792075 
  28420000   0.06866283    -0.16766111     0             -0.11326728    -0.070719688  
  28430000   0.071527576   -0.15159273     0             -0.094929479    0.0033493109 
  28440000   0.071358169   -0.15369385     0             -0.097164796   -0.012324257  
  28450000   0.073472992   -0.15632617     0             -0.098121782   -0.032275673  
  28460000   0.072165868   -0.16868342     0             -0.11151452    -0.10207215   
  28470000   0.070180323   -0.1635355      0             -0.10793953     0.032009032  
  28480000   0.065860972   -0.15512446     0             -0.10295022    -0.043503414  
  28490000   0.069720629   -0.15305663     0             -0.097824823   -0.01263344   
  28500000   0.073772522   -0.14610267     0             -0.087661002   -0.043957667  
  28510000   0.080774751   -0.15834692     0             -0.094358169    0.027552379  
  28520000   0.071758643   -0.1605654      0             -0.1037191     -0.033179779  
  28530000   0.070176283   -0.15580727     0             -0.10021449     0.022613683  
  28540000   0.072439095   -0.15831659     0             -0.10093124    -0.010666495  
  28550000   0.075733286   -0.15176707     0             -0.091772107   -0.012925491  
  28560000   0.071588456   -0.15432621     0             -0.097614735    0.039456282  
  28570000   0.065903377   -0.13795656     0             -0.085748731    0.018126779  
  28580000   0.073463568   -0.13583635     0             -0.07763943    -0.04094387   
  28590000   0.065778983   -0.15129052     0             -0.099181232    0.015253746  
  28600000   0.070792002   -0.14912219     0             -0.093041649   -0.023549953  
  28610000   0.065330876   -0.15114874     0             -0.09939444    -0.013546373  
  28620000   0.069173956   -0.15053466     0             -0.095735912    0.051044758  
  28630000   0.073711192   -0.14553589     0             -0.087142802   -0.04123368   
  28640000   0.071938218   -0.13857268     0             -0.081584121   -0.031943905  
  28650000   0.075383711   -0.16009513     0             -0.1003771      0.059174709  
  28660000   0.075201137   -0.15670679     0             -0.097133388    0.0048600093 
  28670000   0.075127739   -0.15919703     0             -0.099681769   -0.0039581925 
  28680000   0.066232041   -0.17569141     0             -0.12322322    -0.066873693  
  28690000   0.07710781    -0.17092573     0             -0.10984188    -0.077328456  
  28700000   0.065750479   -0.15021918     0             -0.098132474   -0.13990058   
  28710000   0.065638539   -0.15627144     0             -0.10427341    -0.013967803  
  28720000   0.067146459   -0.15476073     0             -0.10156815    -0.00092291282
  28730000   0.069169092   -0.14398595     0             -0.089191062    0.00048589578
  28740000   0.075109951   -0.15562268     0             -0.096121519   -0.012313465  
  28750000   0.067558545   -0.14778273     0             -0.094263692   -0.049220941  
  28760000   0.075206957   -0.16021379     0             -0.10063578     0.030358605  
  28770000   0.059195953   -0.15825536     0             -0.11136107    -0.0089435873 
  28780000   0.071731879   -0.15474574     0             -0.097920646    0.028284687  
  28790000   0.071432931   -0.1511829      0             -0.094594623    0.060859443  
  28800000   0.064375089   -0.14015004     0             -0.089152896   -0.0040156242 
  28810000   0.077196772   -0.1373353      0             -0.076180987   -0.042837446  
  28820000   0.067358839   -0.12820261     0             -0.074841779   -0.020526654  
  28830000   0.073647125   -0.15725161     0             -0.098909279   -0.0015540259 
  28840000   0.065115313   -0.1549464      0             -0.10336286     0.0046390179 
  28850000   0.075124786   -0.14778034     0             -0.088267428   -0.043819848  
  28860000   0.070809057   -0.15069576     0             -0.094601709   -0.065193235  
  28870000   0.072215844   -0.13913044     0             -0.081921949   -0.020562499  
  28880000   0.074336377   -0.13837057     0             -0.079482223    0.038018841  
  28890000   0.072241728   -0.13894531     0             -0.081716312    0.01314562   
  28900000   0.068224367   -0.15594675     0             -0.10190026     0.0098616577 
  28910000   0.070549356   -0.14929569     0             -0.093407375   -0.0043114484 
  28920000   0.070776099   -0.14223809     0             -0.086170148    0.011767079  
  28930000   0.072269603   -0.14339499     0             -0.086143915   -0.088577345  
  28940000   0.065191664   -0.13481379     0             -0.083169765    0.052119492  
  28950000   0.08049934    -0.13813185     0             -0.074361277   -0.034717057  
  28960000   0.06870353    -0.14208281     0             -0.087656732   -0.010094329  
  28970000   0.072352483   -0.13647947     0             -0.079162742   -0.027471162  
  28980000   0.079058193   -0.13680753     0             -0.074178618    0.0038723072 
  28990000   0.081892968   -0.16655669     0             -0.10168211    -0.021965248  
  29000000   0.076596505   -0.15251293     0             -0.091834133   -0.0070386274 
  29010000   0.062285708   -0.16539049     0             -0.11604853    -0.010002857  
  29020000   0.066533245   -0.15786397     0             -0.10515716     0.01482357   
  29030000   0.073657834   -0.16531866     0             -0.10696784    -0.011613029  
  29040000   0.068713193   -0.15377387     0             -0.099340133    0.017464043  
  29050000   0.074534086   -0.13475837     0             -0.075713398   -0.045637759  
  29060000   0.078231078   -0.13534845     0             -0.073374771    0.0030671468 
  29070000   0.072898712   -0.1431039      0             -0.085354454   -0.023695687  
  29080000   0.070616965   -0.15159691     0             -0.095655029    0.025616603  
  29090000   0.074710747   -0.13534088     0             -0.076155964   -0.054464403  
  29100000   0.071847521   -0.13243074     0             -0.07551403    -0.038605641  
  29110000   0.071202678   -0.14634961     0             -0.089943738   -0.070594937  
  29120000   0.063506043   -0.14489667     0             -0.094587972   -0.044736374  
  29130000   0.075183415   -0.14431472     0             -0.084755358   -0.025796244  
  29140000   0.072085854   -0.1506741      0             -0.093568583    0.011249841  
  29150000   0.075529939   -0.13587006     0             -0.076036183   -0.13359577   
  29160000   0.067183812   -0.14053624     0             -0.087314061   -0.041985113  
  29170000   0.075112927   -0.12552388     0             -0.066020359    0.0042623829 
  29180000   0.073758879   -0.15701937     0             -0.098588509   -0.084923386  
  29190000   0.066388352   -0.14487662     0             -0.092284597   -0.060494059  
  29200000   0.073822634   -0.15194408     0             -0.093462708   -0.047104889  
  29210000   0.06213697    -0.15244848     0             -0.10322435    -0.0095214169 
  29220000   0.066006964   -0.13687389     0             -0.084584001    0.033474735  
  29230000   0.073239369   -0.14214869     0             -0.084129378   -0.030307931  
  29240000   0.065337077   -0.13626778     0             -0.084508564    0.039947889  
  29250000   0.069548209   -0.15340285     0             -0.098307629   -0.017111296  
  29260000   0.074497009   -0.13395369     0             -0.074938089    0.011453304  
  29270000   0.069627311   -0.15142991     0             -0.096272025    0.054919461  
  29280000   0.07020292    -0.12355335     0             -0.067939478   -0.038043949  
  29290000   0.076108432   -0.13432464     0             -0.074032489   -0.0038287271 
  29300000   0.069007256   -0.11847179     0             -0.063805103    0.087763027  
  29310000   0.067286276   -0.14471995     0             -0.091416603    0.013497696  
  29320000   0.076400551   -0.142174       0             -0.08165044    -0.017444022  
  29330000   0.079493089   -0.15279284     0             -0.089819406   -0.1222784    
  29340000   0.079665305   -0.1405042      0             -0.077394338    0.024473845  
  29350000   0.073689663   -0.13469567     0             -0.076319643   -0.0040337667 
  29360000   0.076504993   -0.1395875      0             -0.078981204   -0.083391396  
  29370000   0.066921396   -0.14066038     0             -0.087646087   -0.032034926  
  29380000   0.07253678    -0.13581468     0             -0.078351948    0.0021362577 
  29390000   0.071988695   -0.13948372     0             -0.082455172   -0.014203506  
  29400000   0.062110503   -0.15572729     0             -0.10652413    -0.052897719  
  29410000   0.067230933   -0.16325195     0             -0.10999244     0.06258623   
  29420000   0.068292098   -0.17125484     0             -0.11715469     0.024224777  
  29430000   0.066954654   -0.16085932     0             -0.10781868    -0.051911335  
  29440000   0.073540078   -0.1511647      0             -0.09290717     0.010338118  
  29450000   0.076437054   -0.13536515     0             -0.074812676    0.020589629  
  29460000   0.069739856   -0.15243492     0             -0.097187881   -0.054546325  
  29470000   0.069421837   -0.15135221     0             -0.0963571     -0.090864687  
  29480000   0.066997361   -0.14110675     0             -0.088032277    0.0014134983 
  29490000   0.075706827   -0.13887238     0             -0.078898383   -0.11494204   
  29500000   0.068363859   -0.15232092     0             -0.098163928   -0.027921394  
  29510000   0.071195123   -0.15255081     0             -0.096150923   -0.045636593  
  29520000   0.061623131   -0.14803893     0             -0.099221854    0.020176123  
  29530000   0.071792438   -0.15303875     0             -0.096165677    0.00084539722
  29540000   0.064853734   -0.14263555     0             -0.091259235   -0.089326198  
  29550000   0.066262698   -0.15592452     0             -0.10343204    -0.022411511  
  29560000   0.077865854   -0.12653801     0             -0.064853656   -0.036419896  
  29570000   0.074195271   -0.1527309      0             -0.093954338   -0.07694407   
  29580000   0.069341588   -0.14230813     0             -0.08737659    -0.00024069305
  29590000   0.079266509   -0.14446349     0             -0.081669557   -0.025810283  
  29600000   0.071284023   -0.15543595     0             -0.098965634   -0.10074018   
  29610000   0.075233263   -0.14122961     0             -0.08163076     0.054490747  
  29620000   0.067633801   -0.14982747     0             -0.096248821    0.049383296  
  29630000   0.066333149   -0.15044433     0             -0.097896039   -0.01699197   
  29640000   0.074553699   -0.13900989     0             -0.079949378    0.014370192  
  29650000   0.073494294   -0.14398063     0             -0.085759373    0.038504928  
  29660000   0.070802036   -0.15784758     0             -0.10175909    -0.044134181  
  29670000   0.075506808   -0.15666025     0             -0.096844697   -0.04343183   
  29680000   0.073447949   -0.15980882     0             -0.10162427     0.0012869323 
  29690000   0.076068545   -0.17213355     0             -0.111873      -0.096267671  
  29700000   0.072504144   -0.15577031     0             -0.098333432   -0.048267549  
  29710000   0.066760682   -0.15158585     0             -0.098698871   -0.0089230204 
  29720000   0.071241601   -0.17008856     0             -0.11365185    -0.014867807  
  29730000   0.066941542   -0.14361249     0             -0.090582238   -0.032693409  
  29740000   0.067037638   -0.16096628     0             -0.1078599     -0.060632088  
  29750000   0.071873761   -0.15422453     0             -0.097287031   -0.030673588  
  29760000   0.070750673   -0.15976461     0             -0.10371681    -0.010359874  
  29770000   0.081379689   -0.16812607     0             -0.1036581      0.0011051571 
  29780000   0.081423077   -0.1726003      0             -0.10809796    -0.14761083   
  29790000   0.069659722   -0.16110309     0             -0.10591953    -0.0075713679 
  29800000   0.070724717   -0.14731614     0             -0.091288902   -0.029366674  
  29810000   0.080982741   -0.14801367     0             -0.083860155   -0.025711323  
  29820000   0.068642056   -0.13803019     0             -0.083652812    0.0060238855 
  29830000   0.072081677   -0.1610115      0             -0.1039093     -0.079387246  
  29840000   0.072604754   -0.15639531     0             -0.098878733    0.027674962  
  29850000   0.067743794   -0.14912628     0             -0.095460492    0.0023969797 
  29860000   0.063309095   -0.15862237     0             -0.1084697      0.015727856  
  29870000   0.068482148   -0.15705259     0             -0.10280189     0.024964431  
  29880000   0.070145982   -0.15790839     0             -0.10233962    -0.13693455   
  29890000   0.066339713   -0.17011994     0             -0.11756645     0.022778573  
  29900000   0.067984313   -0.16963316     0             -0.11577684    -0.045851909  
  29910000   0.070597586   -0.17366591     0             -0.11773938    -0.01616732   
  29920000   0.076356468   -0.16322542     0             -0.10273678    -0.047396035  
  29930000   0.073012394   -0.14957516     0             -0.091735657   -0.046464786  
  29940000   0.064845029   -0.16439283     0             -0.11302341    -0.097772755  
  29950000   0.078112485   -0.15162891     0             -0.089749175    0.062941801  
  29960000   0.064657335   -0.14876378     0             -0.097543048    0.07056011   
  29970000   0.07177841    -0.14704385     0             -0.090181894   -0.038525604  
  29980000   0.077072762   -0.14918837     0             -0.088132296   -0.031369883  
  29990000   0.073499203   -0.14960538     0             -0.091380235   -0.10242648   
  30000000   0.074007238   -0.13836662     0             -0.079739012    0.068560205  
  30010000   0.06694192    -0.15684451     0             -0.10381396    -0.0059451745 
  30020000   0.06999695    -0.1629209      0             -0.10747019    -0.051290896  
  30030000   0.067956806   -0.15310382     0             -0.099269284   -0.050918267  
  30040000   0.070173029   -0.14654625     0             -0.09095605    -0.044933059  
  30050000   0.068568219   -0.14718999     0             -0.092871101   -0.0054316236 
  30060000   0.071980755   -0.14039895     0             -0.083376693    0.082139085  
  30070000   0.06790499    -0.15983946     0             -0.10604597    -0.055675534  
  30080000   0.074942538   -0.14342154     0             -0.084052998    0.0040236779 
  30090000   0.067947903   -0.16618395     0             -0.11235648    -0.031530503  
  30100000   0.069480206   -0.14719487     0             -0.09215352    -0.010025577  
  30110000   0.079678988   -0.16204583     0             -0.098925127   -0.029288609  
  30120000   0.083295942   -0.13169533     0             -0.065709321   -0.044354516  
  30130000   0.070199838   -0.14365903     0             -0.0880476      0.027939283  
  30140000   0.077387144   -0.14451594     0             -0.083210811   -0.069784706  
  30150000   0.062556182   -0.15538058     0             -0.10582435    -0.07100575   
  30160000   0.067517416   -0.1534212      0             -0.099934747    0.053380428  
  30170000   0.074977328   -0.15540654     0             -0.096010434   -0.060795702  
  30180000   0.075637461   -0.15573859     0             -0.095819535   -0.064744431  
  30190000   0.071733615   -0.1501618      0             -0.09333533    -0.0057334319 
  30200000   0.064737645   -0.14746938     0             -0.096185028   -0.037581063  
  30210000   0.069346028   -0.142339       0             -0.087403945   -0.051381677  
  30220000   0.078629611   -0.14925135     0             -0.086961956   -0.080388379  
  30230000   0.063780231   -0.16346705     0             -0.11294115    -0.076393146  
  30240000   0.070750098   -0.14828515     0             -0.092237808   -0.0072119117 
  30250000   0.072965482   -0.14427395     0             -0.086471607   -0.054619758  
  30260000   0.066786036   -0.15301521     0             -0.10010814    -0.0016062841 
  30270000   0.080080107   -0.14962869     0             -0.08619023    -0.014558504  
  30280000   0.069981821   -0.13355473     0             -0.078116003   -0.040625088  
  30290000   0.072349373   -0.15320678     0             -0.095892509   -0.021419652  
  30300000   0.068701171   -0.13620563     0             -0.081781416    0.0046190399 
  30310000   0.07091403    -0.13871852     0             -0.082541314   -0.021185614  
  30320000   0.076452235   -0.13578091     0             -0.075216407   -0.041061724  
  30330000   0.074215154   -0.14670931     0             -0.087916989    0.0028173484 
  30340000   0.075707975   -0.14680996     0             -0.086835047    0.018937189  
  30350000   0.074827331   -0.1449668      0             -0.085689523   -0.0081602279 
  30360000   0.068501362   -0.14861191     0             -0.094345985   -0.099864361  
  30370000   0.064805491   -0.15146933     0             -0.10013123     0.00047782998
  30380000   0.06852076    -0.15464475     0             -0.10036346    -0.058248692  
  30390000   0.071131409   -0.13749155     0             -0.081142141   -0.031187461  
  30400000   0.070007377   -0.14453275     0             -0.089073786    0.049084843  
  30410000   0.076523244   -0.13470516     0             -0.074084401    0.073821229  
  30420000   0.076184002   -0.14393558     0             -0.083583563    8.1144726e-05
  30430000   0.068684189   -0.15286888     0             -0.098458124   -0.18371114   
  30440000   0.075991714   -0.16111956     0             -0.10091987     0.044428786  
  30450000   0.075901075   -0.1528553      0             -0.092727421   -0.022367321  
  30460000   0.075850911   -0.14975775     0             -0.089669604    0.05005292   
  30470000   0.079167105   -0.14793776     0             -0.085222566   -0.048648509  
  30480000   0.076491308   -0.14511877     0             -0.084523309   -0.029327101  
  30490000   0.065420327   -0.15212541     0             -0.10030025    -0.021371003  
  30500000   0.079161018   -0.14661942     0             -0.083909049    0.064929411  
  30510000   0.07103422    -0.15207672     0             -0.095804302    0.018535164  
  30520000   0.080192431   -0.15565201     0             -0.092124573   -0.061607878  
  30530000   0.067512147   -0.13867805     0             -0.085195771   -0.045325985  
  30540000   0.070951021   -0.15455428     0             -0.098347767   -0.019735759  
  30550000   0.066688446   -0.1409387      0             -0.088108947   -0.059077071  
  30560000   0.069218003   -0.15284832     0             -0.098014683   -0.03469947   
  30570000   0.075770841   -0.1730857      0             -0.11306099     0.014953003  
  30580000   0.073244833   -0.16526216     0             -0.10723852    -0.010201722  
  30590000   0.076080235   -0.17089387     0             -0.11062406    -0.089960501  
  30600000   0.072848559   -0.17014761     0             -0.11243789     0.018663105  
  30610000   0.063692445   -0.16846573     0             -0.11800937    -0.10221062   
  30620000   0.067037613   -0.16586994     0             -0.11276358    -0.038043489  
  30630000   0.071449016   -0.16016567     0             -0.10356465    -0.080750213  
  30640000   0.070469902   -0.16070785     0             -0.10488248    -0.11647294   
  30650000   0.070917056   -0.14810589     0             -0.091926283   -0.15890957   
  30660000   0.063550453   -0.14439558     0             -0.094051706    0.017303614  
  30670000   0.067108738   -0.15629527     0             -0.10313257    -0.0020603076 
  30680000   0.070497313   -0.16496803     0             -0.10912094    -0.050606602  
  30690000   0.076365499   -0.14861361     0             -0.088117817    0.054867131  
  30700000   0.073522643   -0.15405063     0             -0.095806909   -0.095937478  
  30710000   0.068977099   -0.16353272     0             -0.10888993     0.027060946  
  30720000   0.073224734   -0.16241997     0             -0.10441225    -0.036189822  
  30730000   0.072562241   -0.15769982     0             -0.10021692    -0.051800256  
  30740000   0.077870894   -0.16103791     0             -0.099349558    0.12820714   
  30750000   0.070654415   -0.14646719     0             -0.090495643   -0.061254478  
  30760000   0.077915437   -0.14027172     0             -0.078548088   -0.098963726  
  30770000   0.05979419    -0.15774264     0             -0.11037443    -0.0096767811 
  30780000   0.076619968   -0.16562498     0             -0.1049276     -0.066293303  
  30790000   0.065046563   -0.14032576     0             -0.088796684   -0.010465628  
  30800000   0.075806429   -0.14505054     0             -0.084997634    0.067364937  
  30810000   0.067797737   -0.14838738     0             -0.094678862    0.005855637  
  30820000   0.081219393   -0.15272166     0             -0.088380672    0.089718562  
  30830000   0.069181039   -0.14816626     0             -0.093361909    0.031136907  
  30840000   0.068528927   -0.15534698     0             -0.10105922     0.0165393    
  30850000   0.064243727   -0.15346084     0             -0.10256776    -0.028260613  
  30860000   0.07014863    -0.1490927      0             -0.093521837   -0.056068946  
  30870000   0.068611875   -0.15914773     0             -0.10479426    -0.0037890735 
  30880000   0.075166289   -0.16360547     0             -0.10405967    -0.0090681699 
  30890000   0.067354887   -0.14592341     0             -0.092565712    0.012688233  
  30900000   0.072600293   -0.14154108     0             -0.084028039    0.018825706  
  30910000   0.073187845   -0.1429766      0             -0.084998101   -0.073193959  
  30920000   0.078350128   -0.15452201     0             -0.092454018    0.032047654  
  30930000   0.068712749   -0.16388491     0             -0.10945153    -0.084502303  
  30940000   0.07552525    -0.15446031     0             -0.094630148   -0.061991621  
  30950000   0.081026718   -0.14368934     0             -0.079500989    0.028401727  
  30960000   0.066835921   -0.15787184     0             -0.10492526    -0.034655043  
  30970000   0.073838786   -0.15993782     0             -0.10144366    -0.03102085   
  30980000   0.067084092   -0.14399046     0             -0.090847279   -0.12710539   
  30990000   0.070241018   -0.14194425     0             -0.086300192    0.013578635  
  31000000   0.070310884   -0.14707579     0             -0.091376383    0.01485242   
  31010000   0.073571847   -0.14055791     0             -0.082275209   -0.0074628821 
  31020000   0.080452967   -0.14231507     0             -0.07858123     0.006990864  
  31030000   0.079865727   -0.14112377     0             -0.077855137    0.01733613   
  31040000   0.070988127   -0.15366358     0             -0.097427677   -0.079067221  
  31050000   0.070118212   -0.16291463     0             -0.10736786    -0.016630743  
  31060000   0.077412336   -0.15204848     0             -0.090723398    0.009908933  
  31070000   0.06792781    -0.15404129     0             -0.10022973    -0.028382627  
  31080000   0.075576273   -0.13652376     0             -0.076653183    0.083406853  
  31090000   0.071356091   -0.13519639     0             -0.078668985    0.035883189  
  31100000   0.073759883   -0.1308462      0             -0.072414546   -0.06581583   
  31110000   0.06476295    -0.14960855     0             -0.09830415     0.037484043  
  31120000   0.071489054   -0.14468243     0             -0.088049699   -0.076643308  
  31130000   0.070983661   -0.14379751     0             -0.087565138   -0.010620271  
  31140000   0.063810059   -0.15208899     0             -0.10153946    -0.017374149  
  31150000   0.070455525   -0.14427333     0             -0.088459339   -0.023891113  
  31160000   0.073108614   -0.15902813     0             -0.1011124      0.018268068  
  31170000   0.078610995   -0.14343147     0             -0.081156825   -0.066599202  
  31180000   0.073460719   -0.14640325     0             -0.088208585   -0.034562298  
  31190000   0.077593035   -0.15741047     0             -0.095942241    0.0013849481 
  31200000   0.067184144   -0.15339232     0             -0.10016988     0.013228187  
  31210000   0.067611105   -0.15830659     0             -0.10474592    -0.032072559  
  31220000   0.075767214   -0.14832953     0             -0.088307691   -0.0084118036 
  31230000   0.070294299   -0.16920696     0             -0.11352069     0.030040547  
  31240000   0.075942522   -0.17219862     0             -0.11203791     0.026068791  
  31250000   0.071440282   -0.15199354     0             -0.095399439    0.019646846  
  31260000   0.069178079   -0.15194117     0             -0.097139163   -0.042875432  
  31270000   0.069562424   -0.14387262     0             -0.088766139   -0.092803832  
  31280000   0.079337095   -0.13656811     0             -0.073718259    0.002456281  
  31290000   0.070752735   -0.15344915     0             -0.09739972    -0.033876002  
  31300000   0.078666638   -0.17237833     0             -0.11005961    -0.070274341  
  31310000   0.073784372   -0.14555354     0             -0.087102487    0.02901623   
  31320000   0.069490722   -0.14650684     0             -0.091457161   -0.020375668  
  31330000   0.065766204   -0.15041718     0             -0.098318012   -0.058900782  
  31340000   0.074100278   -0.17277693     0             -0.11407561    -0.072079749  
  31350000   0.064827076   -0.16955694     0             -0.11820174    -0.056588297  
  31360000   0.071656885   -0.15779782     0             -0.10103214    -0.019960839  
  31370000   0.071067177   -0.15478661     0             -0.098488082   -0.019894007  
  31380000   0.063217374   -0.16302786     0             -0.11294784    -0.07143207   
  31390000   0.070418423   -0.16060692     0             -0.10482232    -0.025255364  
  31400000   0.071130965   -0.16515962     0             -0.10881056    -0.089399228  
  31410000   0.079685587   -0.14265018     0             -0.079524257    0.040398571  
  31420000   0.073965377   -0.14162493     0             -0.083030486   -0.02902517   
  31430000   0.07269704    -0.15236249     0             -0.094772804    0.0039151644 
  31440000   0.070668609   -0.14238159     0             -0.086398798   -0.029522233  
  31450000   0.067742634   -0.14669201     0             -0.093027147   -0.047016516  
  31460000   0.072386485   -0.13570738     0             -0.078363712    0.049909656  
  31470000   0.073824395   -0.14765305     0             -0.08917029    -0.038365817  
  31480000   0.0729366     -0.15691344     0             -0.099133982   -0.090505459  
  31490000   0.063745025   -0.16635111     0             -0.1158531      0.064131773  
  31500000   0.067723362   -0.17798418     0             -0.12433458    -0.033327014  
  31510000   0.063573798   -0.16086532     0             -0.11050295     0.031554842  
  31520000   0.063460788   -0.1820631      0             -0.13179026    -0.082508837  
  31530000   0.070633587   -0.17010518     0             -0.11415014     0.011834348  
  31540000   0.072205372   -0.17754646     0             -0.12034627    -0.11073583   
  31550000   0.071579179   -0.15650568     0             -0.099801546    0.018449664  
  31560000   0.061570241   -0.15818511     0             -0.10940993    -0.031903652  
  31570000   0.066986016   -0.16507229     0             -0.1120068     -0.0058390491 
  31580000   0.078909518   -0.15057996     0             -0.088068829    0.042461711  
  31590000   0.078262542   -0.15125185     0             -0.089253238    0.038348617  
  31600000   0.068476238   -0.14462243     0             -0.090376408   -0.013912615  
  31610000   0.075103426   -0.13418326     0             -0.074687262    0.00010954639
  31620000   0.073530095   -0.14946415     0             -0.091214523   -0.035424601  
  31630000   0.064837699   -0.14677195     0             -0.095408337    0.0355586    
  31640000   0.063609241   -0.15382394     0             -0.10343349    -0.014591552  
  31650000   0.070254241   -0.14928572     0             -0.093631191   -0.025112113  
  31660000   0.072742776   -0.14189983     0             -0.084273909   -0.036947832  
  31670000   0.072961081   -0.15047348     0             -0.092674621   -0.012834173  
  31680000   0.064975767   -0.14684146     0             -0.095368469   -0.063284762  
  31690000   0.072741909   -0.14448666     0             -0.086861434    0.012604945  
  31700000   0.074621831   -0.13825296     0             -0.079138474   -0.063521164  
  31710000   0.072123356   -0.13482066     0             -0.077685436    0.022623236  
  31720000   0.081570214   -0.14612904     0             -0.081510137   -0.073606106  
  31730000   0.068062457   -0.14048667     0             -0.08656844    -0.10994897   
  31740000   0.06760969    -0.15976878     0             -0.10620923    -0.094606416  
  31750000   0.068478481   -0.1630614      0             -0.10881361    -0.023564597  
  31760000   0.075261612   -0.15919789     0             -0.099576577   -0.077850598  
  31770000   0.076078339   -0.15506185     0             -0.094793543    0.047007165  
  31780000   0.071889556   -0.14886711     0             -0.091917101    0.050628118  
  31790000   0.068845694   -0.15745323     0             -0.10291454    -0.025384987  
  31800000   0.069322584   -0.14585951     0             -0.090943024    0.029131704  
  31810000   0.068096431   -0.14652653     0             -0.092581385    0.080268871  
  31820000   0.072758989   -0.15858463     0             -0.10094586     0.00046788628
  31830000   0.06509175    -0.14958815     0             -0.098023283    0.089740584  
  31840000   0.071610908   -0.14837228     0             -0.091643012   -0.025576861  
  31850000   0.072472946   -0.13645562     0             -0.079043463   -0.046485573  
  31860000   0.071982746   -0.14912394     0             -0.092100107   -0.10017369   
  31870000   0.067497289   -0.1327414      0             -0.079270891    0.013876497  
  31880000   0.060507951   -0.16129444     0             -0.11336079     0.017193808  
  31890000   0.060260112   -0.15988237     0             -0.11214506    -0.020220446  
  31900000   0.073606125   -0.15624949     0             -0.097939639   -0.07865179   
  31910000   0.075388319   -0.15587525     0             -0.096153565   -0.064072802  
  31920000   0.067996146   -0.16316424     0             -0.10929854     0.056319663  
  31930000   0.062648868   -0.15577116     0             -0.10614151    -0.042254797  
  31940000   0.067933178   -0.16810132     0             -0.11428551    -0.0013413505 
  31950000   0.070251967   -0.15069051     0             -0.095037777   -0.11334241   
  31960000   0.076739001   -0.15709078     0             -0.096299104   -0.032225499  
  31970000   0.063552146   -0.17361573     0             -0.12327052    -0.035737949  
  31980000   0.083308425   -0.12300912     0             -0.05701323    -0.040075121  
  31990000   0.071453661   -0.14146913     0             -0.084864433    0.012446282  
  32000000   0.070605091   -0.13928451     0             -0.083352039   -0.039166664  
  32010000   0.069404583   -0.12679633     0             -0.071814884   -0.14245835   
  32020000   0.075799797   -0.13587177     0             -0.07582412     0.044701027  
  32030000   0.067111693   -0.12759342     0             -0.074428377   -0.038439905  
  32040000   0.084936329   -0.12804356     0             -0.060758058    0.035419242  
  32050000   0.080753173   -0.12542876     0             -0.061457105   -0.02779421   
  32060000   0.077849299   -0.15698201     0             -0.095310766    0.00097447985
  32070000   0.075121411   -0.12990928     0             -0.070399041   -0.15792336   
  32080000   0.073040133   -0.1309517      0             -0.073090223   -0.018367844  
  32090000   0.070906792   -0.15561364     0             -0.099442165   -0.046953411  
  32100000   0.07815818    -0.14311397     0             -0.081198037    0.00055621573
  32110000   0.073335735   -0.15059627     0             -0.092500614   -0.043401743  
  32120000   0.071900825   -0.14812732     0             -0.091168381    0.02972563   
  32130000   0.066282355   -0.16108225     0             -0.10857419    -0.12394533   
  32140000   0.069558556   -0.14588331     0             -0.090779889   -0.01883219   
  32150000   0.073521642   -0.14844586     0             -0.090202939   -0.035435351  
  32160000   0.067067979   -0.13238061     0             -0.0792502     -0.051079793  
  32170000   0.078585372   -0.14124319     0             -0.078988845   -0.1169255    
  32180000   0.060027443   -0.15507824     0             -0.10752525    -0.017432017  
  32190000   0.077341639   -0.14348853     0             -0.082219447    0.0031907587 
  32200000   0.071209885   -0.14478702     0             -0.088375439    0.042035021  
  32210000   0.069076812   -0.15553208     0             -0.10081029    -0.032195102  
  32220000   0.060904639   -0.15835469     0             -0.1101068     -0.079492591  
  32230000   0.07155071    -0.15897784     0             -0.10229626    -0.064965081  
  32240000   0.063192388   -0.14214136     0             -0.092081137   -0.096214918  
  32250000   0.070025881   -0.14549112     0             -0.090017493   -0.11250755   
  32260000   0.065442465   -0.157919       0             -0.1060763     -0.0080169911 
  32270000   0.075847293   -0.14449784     0             -0.084412564   -0.039593407  
  32280000   0.069324909   -0.14937618     0             -0.094457854    0.0063463609 
  32290000   0.073840515   -0.14368174     0             -0.085186208   -0.083924456  
  32300000   0.067104232   -0.1492986      0             -0.096139466   -0.013791114  
  32310000   0.074275346   -0.14349799     0             -0.084657991   -0.017871166  
  32320000   0.069206524   -0.15451345     0             -0.099688911    0.019527706  
  32330000   0.081436644   -0.14637808     0             -0.081864986    0.0071023673 
  32340000   0.071876694   -0.16727947     0             -0.11033965     0.033824146  
  32350000   0.063405755   -0.15409821     0             -0.10386896    -0.10594509   
  32360000   0.079014287   -0.15538402     0             -0.092789894   -0.016928829  
  32370000   0.06740599    -0.16014198     0             -0.10674379    -0.0025334635 
  32380000   0.070539921   -0.1640567      0             -0.10817585     0.051423896  
  32390000   0.062531249   -0.14846028     0             -0.098923805    0.024478723  
  32400000   0.070038779   -0.16044547     0             -0.10496163    -0.034670178  
  32410000   0.079237721   -0.16682901     0             -0.10405788    -0.10237218   
  32420000   0.066150728   -0.16144174     0             -0.10903796    -0.044452901  
  32430000   0.067981949   -0.15355093     0             -0.09969648     0.077839988  
  32440000   0.070562575   -0.14606935     0             -0.090170564    0.00065829807
  32450000   0.077392726   -0.16862721     0             -0.10731766    -0.072057602  
  32460000   0.062246881   -0.15803116     0             -0.10871996    -0.046256442  
  32470000   0.069625148   -0.15767778     0             -0.1025216     -0.073563744  
  32480000   0.065379784   -0.16960762     0             -0.11781458    -0.10037708   
  32490000   0.074074366   -0.14682824     0             -0.088147457   -0.015476499  
  32500000   0.076868274   -0.15806295     0             -0.097168864   -0.07144059   
  32510000   0.071550317   -0.14740151     0             -0.090720246    0.064377025  
  32520000   0.066570133   -0.14343134     0             -0.090695315    0.056333546  
  32530000   0.060544358   -0.15803753     0             -0.11007505    -0.022092242  
  32540000   0.072717577   -0.15396185     0             -0.096355899   -0.025542764  
  32550000   0.069154477   -0.15440714     0             -0.099623829    0.020521854  
  32560000   0.072910534   -0.15638724     0             -0.098628425   -0.0048098502 
  32570000   0.067993571   -0.13936755     0             -0.085503894   -0.02506814   
  32580000   0.071682465   -0.14546872     0             -0.088682771   -0.069150898  
  32590000   0.078571471   -0.14826769     0             -0.086024351    0.012546999  
  32600000   0.065337602   -0.14876076     0             -0.097001126    0.12181582   
  32610000   0.070717817   -0.13752888     0             -0.081507114   -0.079781062  
  32620000   0.071232665   -0.1476139      0             -0.091184271    0.032269753  
  32630000   0.063179287   -0.14642477     0             -0.096374928   -0.049211968  
  32640000   0.06288883    -0.13396361     0             -0.084143864   -0.064618873  
  32650000   0.069382195   -0.14161308     0             -0.086649377   -0.042300991  
  32660000   0.070595401   -0.14529267     0             -0.089367874   -0.022608442  
  32670000   0.071775207   -0.1481514      0             -0.09129198    -0.06600291   
  32680000   0.072947997   -0.14874252     0             -0.090954032   -0.045400635  
  32690000   0.075918011   -0.14966111     0             -0.089519814   -0.091329014  
  32700000   0.070474268   -0.15193822     0             -0.096109385   -0.092599345  
  32710000   0.0697403     -0.15845718     0             -0.10320978    -0.054655564  
  32720000   0.068431455   -0.15060229     0             -0.096391743    0.042726636  
  32730000   0.071777743   -0.15348934     0             -0.09662791    -0.060286935  
  32740000   0.068739212   -0.14395283     0             -0.089498483    0.064539453  
  32750000   0.074281641   -0.16026758     0             -0.10142259    -0.0345066    
  32760000   0.066833702   -0.15485456     0             -0.10190973    -0.045615237  
  32770000   0.068897834   -0.13983227     0             -0.08525227     0.039521903  
  32780000   0.06691909    -0.15085093     0             -0.097838463    0.024793566  
  32790000   0.065795411   -0.15585182     0             -0.10372952    -0.10105635   
  32800000   0.069086529   -0.15552516     0             -0.10079568    -0.01902408   
  32810000   0.073568133   -0.15683998     0             -0.098560229    0.057687492  
  32820000   0.070314272   -0.16589901     0             -0.11019692    -0.024213532  
  32830000   0.072437961   -0.15561633     0             -0.098231878    0.0030996185 
  32840000   0.076741327   -0.13961706     0             -0.078823541   -0.013351241  
  32850000   0.064892803   -0.16572646     0             -0.11431919    -0.035901533  
  32860000   0.063791209   -0.14506977     0             -0.094535174    0.09775805   
  32870000   0.072512585   -0.15766475     0             -0.10022119    -0.023857358  
  32880000   0.080710586   -0.15778962     0             -0.093851703    0.024815415  
  32890000   0.070439147   -0.14531096     0             -0.089509952    0.01677388   
  32900000   0.073408926   -0.15889918     0             -0.10074555    -0.038750587  
  32910000   0.074173181   -0.14433415     0             -0.085575088    0.0021929821 
  32920000   0.068221772   -0.14673384     0             -0.092689406    0.092141303  
  32930000   0.074918185   -0.152411       0             -0.093061747   -0.039150692  
  32940000   0.07785929    -0.14866699     0             -0.086987831   -0.013990907  
  32950000   0.069694554   -0.16111627     0             -0.10590511    -0.03481414   
  32960000   0.066938321   -0.15093806     0             -0.09791036     0.021338108  
  32970000   0.076057416   -0.1331815      0             -0.072929763    0.017064636  
  32980000   0.070697184   -0.1614784      0             -0.10547297    -0.049206972  
  32990000   0.07252281    -0.13940639     0             -0.081954727    0.017966472  
  33000000   0.070929891   -0.13054108     0             -0.07435131     0.023165418  
  33010000   0.074314775   -0.15259969     0             -0.093728456   -0.043642867  
  33020000   0.065659342   -0.14978485     0             -0.097770336   -0.067089904  
  33030000   0.073773903   -0.14721287     0             -0.088770106   -0.079964349  
  33040000   0.066928541   -0.14279133     0             -0.089771374   -0.052757588  
  33050000   0.08060555    -0.12638029     0             -0.06252558     0.019050738  
  33060000   0.068808651   -0.12678546     0             -0.072276104    0.0022578059 
  33070000   0.07602167    -0.13273671     0             -0.072513294    0.089025891  
  33080000   0.0712422     -0.13183577     0             -0.075398594   -0.063565423  
  33090000   0.071394117   -0.14768251     0             -0.091124982   -0.047132624  
  33100000   0.072479102   -0.17054516     0             -0.11312812     0.032880906  
  33110000   0.069309744   -0.14914322     0             -0.094236911   -0.011798102  
  33120000   0.071848079   -0.14119748     0             -0.084280332   -0.04743952   
  33130000   0.074675002   -0.15271059     0             -0.093553986   -0.002061037  
  33140000   0.067842438   -0.16095488     0             -0.10721095    -0.011067928  
  33150000   0.070980849   -0.15956542     0             -0.10333528    -0.060596713  
  33160000   0.075720838   -0.14391494     0             -0.08392984    -0.032224646  
  33170000   0.072333664   -0.13751686     0             -0.080215032   -0.0091392409 
  33180000   0.069337218   -0.14955096     0             -0.094622886    0.013898863  
  33190000   0.065472077   -0.15258606     0             -0.1007199     -0.011551286  
  33200000   0.071271015   -0.15110278     0             -0.094642773    0.14806806   
  33210000   0.080565502   -0.15601951     0             -0.092196529   -0.030094199  
  33220000   0.074947331   -0.13651109     0             -0.077138749   -0.084530038  
  33230000   0.075228469   -0.15676679     0             -0.097171733   -0.061230414  
  33240000   0.065486008   -0.16083344     0             -0.10895625     0.002728995  
  33250000   0.075408196   -0.13142732     0             -0.071689887   -0.0034723033 
  33260000   0.072695824   -0.14808502     0             -0.090496292   -0.012510357  
  33270000   0.065956027   -0.13377273     0             -0.08152319     0.056434536  
  33280000   0.063004028   -0.13836158     0             -0.088450574   -0.020764392  
  33290000   0.066952771   -0.13294434     0             -0.079905196    0.014254343  
  33300000   0.068211617   -0.13705962     0             -0.083023227   -0.02115701   
  33310000   0.072929996   -0.14536892     0             -0.087594692   -0.067000455  
  33320000   0.074350065   -0.13743945     0             -0.078540257   -0.079029067  
  33330000   0.064012012   -0.12161063     0             -0.070901117    0.043222629  
  33340000   0.075098853   -0.13664081     0             -0.07714844     0.00064145793
  33350000   0.076112955   -0.130529       0             -0.070233265   -0.055087236  
  33360000   0.07145061    -0.13617756     0             -0.079575276   -0.012222365  
  33370000   0.064800952   -0.1338245      0             -0.082489998   -0.029724483  
  33380000   0.067115839   -0.15946663     0             -0.1062983     -0.047286993  
  33390000   0.07743414    -0.14665422     0             -0.085311865    0.0092392569 
  33400000   0.081392715   -0.16272574     0             -0.09824745    -0.054682335  
  33410000   0.077192272   -0.15024505     0             -0.089094299    0.055106933  
  33420000   0.064306082   -0.13958533     0             -0.088642859    0.04207789   
  33430000   0.078509689   -0.12791625     0             -0.065721857   -0.058604112  
  33440000   0.068989385   -0.14440789     0             -0.089755358   -0.029816274  
  33450000   0.076640521   -0.1361047      0             -0.07539104    -0.076574731  
  33460000   0.078190517   -0.13197921     0             -0.070037657   -0.13368513   
  33470000   0.068833854   -0.14232196     0             -0.087792644   -0.045552034  
  33480000   0.080054038   -0.15763688     0             -0.094219071   -0.019496996  
  33490000   0.071646476   -0.13972528     0             -0.082967835   -0.11416344   
  33500000   0.078530096   -0.12932698     0             -0.067116423    0.082794471  
  33510000   0.070753764   -0.13095974     0             -0.074909492    0.018508184  
  33520000   0.07282653    -0.13150467     0             -0.073812401   -0.054872492  
  33530000   0.073548327   -0.12397527     0             -0.065711206    0.047360078  
  33540000   0.078745479   -0.12557589     0             -0.063194706   -0.055503812  
  33550000   0.080661189   -0.14230064     0             -0.078401853    0.033702208  
  33560000   0.073104417   -0.13675593     0             -0.07884352    -0.049701498  
  33570000   0.076635647   -0.15914395     0             -0.098434145   -0.080849338  
  33580000   0.073261206   -0.14177231     0             -0.083735702   -0.055662019  
  33590000   0.069971302   -0.14266791     0             -0.087237524   -0.046064284  
  33600000   0.068746176   -0.1531555      0             -0.09869564    -0.042364055  
  33610000   0.067725023   -0.15102815     0             -0.097377232   -0.055438639  
  33620000   0.070600374   -0.15498302     0             -0.099054285   -0.025729032  
  33630000   0.073463744   -0.16858016     0             -0.1103831      0.00050059461
  33640000   0.071741015   -0.15661606     0             -0.099783722   -0.013600399  
  33650000   0.07368253    -0.14841315     0             -0.09004277    -0.022249672  
  33660000   0.072505229   -0.15620528     0             -0.098767542   -0.14527139   
  33670000   0.075792555   -0.14532553     0             -0.085283617   -0.064612814  
  33680000   0.07717148    -0.15475576     0             -0.093621483   -0.055978116  
  33690000   0.068586829   -0.16001632     0             -0.1056827     -0.03896261   
  33700000   0.063957467   -0.15457894     0             -0.10391263     0.037226124  
  33710000   0.067463145   -0.15269982     0             -0.099256357   -0.068114075  
  33720000   0.07756237    -0.15567829     0             -0.094234348   -0.011328505  
  33730000   0.066788953   -0.14533165     0             -0.092422272    0.025453917  
  33740000   0.064277145   -0.14510396     0             -0.094184408    0.0033899338 
  33750000   0.067244676   -0.12326406     0             -0.06999367    -0.10240354   
  33760000   0.069653227   -0.13874637     0             -0.083567957   -0.08278767   
  33770000   0.069963555   -0.12698144     0             -0.071557185    0.070954517  
  33780000   0.067020487   -0.11343637     0             -0.060343582   -0.0061347642 
  33790000   0.070798893   -0.12679516     0             -0.07070916    -0.049036559  
  33800000   0.069611995   -0.13035087     0             -0.075205116    0.020843252  
  33810000   0.065965967   -0.14173423     0             -0.08947682     0.0067733482 
  33820000   0.071994912   -0.13834089     0             -0.08130742    -0.093669543  
  33830000   0.070645807   -0.12487487     0             -0.068910147   -0.056935755  
  33840000   0.072606132   -0.12080842     0             -0.063290749    0.0026646913 
  33850000   0.061455826   -0.13500195     0             -0.086317415   -0.017702184  
  33860000   0.075470475   -0.15906702     0             -0.099280258   -0.0070970869 
  33870000   0.076996655   -0.14462091     0             -0.08362512    -0.039577334  
  33880000   0.076048668   -0.14720861     0             -0.086963809    0.042680468  
  33890000   0.074630828   -0.15410052     0             -0.094978916   -0.020944355  
  33900000   0.07412595    -0.15823214     0             -0.099510491   -0.06185812   
  33910000   0.073716462   -0.17331743     0             -0.11492017    -0.080276172  
  33920000   0.073016727   -0.16206236     0             -0.10421942    -0.004552645  
  33930000   0.07718953    -0.15718198     0             -0.096033398   -0.089658943  
  33940000   0.068191594   -0.14434789     0             -0.090327364   -0.050675426  
  33950000   0.06836669    -0.13449962     0             -0.08034038    -0.047587856  
  33960000   0.07257952    -0.14726319     0             -0.089766605   -0.050316572  
  33970000   0.079047039   -0.13312345     0             -0.070503371   -0.063151774  
  33980000   0.071591514   -0.14666319     0             -0.089949287    0.054270277  
  33990000   0.06967374    -0.14717411     0             -0.091979446    0.023516531  
  34000000   0.064964489   -0.1480642      0             -0.096600144   -0.010334918  
  34010000   0.064621883   -0.1577394      0             -0.10654675    -0.071480948  
  34020000   0.076160647   -0.16061891     0             -0.1002854     -0.07769821   
  34030000   0.066472995   -0.14895861     0             -0.096299534   -0.039567065  
  34040000   0.061677312   -0.16631228     0             -0.11745228    -0.19732852   
  34050000   0.058428978   -0.16243103     0             -0.11614432     0.039787604  
  34060000   0.075638354   -0.15803739     0             -0.098117633   -0.033327016  
  34070000   0.066633158   -0.17805188     0             -0.12526593     0.014191229  
  34080000   0.071925526   -0.16657296     0             -0.10959445    -0.081027987  
  34090000   0.065382749   -0.1490841      0             -0.097288701    0.039282855  
  34100000   0.077493591   -0.14328622     0             -0.081896763    0.030950278  
  34110000   0.077382427   -0.14603906     0             -0.084737667   -0.11656717   
  34120000   0.076357703   -0.14508131     0             -0.084591694    0.00075135903
  34130000   0.072322767   -0.14515887     0             -0.08786568    -0.0022939605 
  34140000   0.079423478   -0.14917638     0             -0.086258095   -0.012074155  
  34150000   0.07104234    -0.16317135     0             -0.1068925     -0.079211148  
  34160000   0.067907419   -0.17558043     0             -0.12178502    -0.10904585   
  34170000   0.065584269   -0.16367159     0             -0.11171655    -0.054227638  
  34180000   0.07239094    -0.14968242     0             -0.092335218   -0.014408053  
  34190000   0.068965551   -0.13768725     0             -0.083053604   -0.049952718  
  34200000   0.067128848   -0.13476558     0             -0.081586945    0.030845594  
  34210000   0.068061066   -0.13906678     0             -0.085149656    0.033537997  
  34220000   0.069397063   -0.13918188     0             -0.084206392   -0.022080168  
  34230000   0.072067131   -0.14014119     0             -0.083050509   -0.023139603  
  34240000   0.061453863   -0.14221562     0             -0.093532642   -0.073960702  
  34250000   0.063023914   -0.14221104     0             -0.092284281   -0.012460102  
  34260000   0.065065209   -0.14474867     0             -0.093204822   -0.025272035  
  34270000   0.070412489   -0.14980582     0             -0.094025923   -0.095591235  
  34280000   0.070676024   -0.14090465     0             -0.084915989   -0.015037995  
  34290000   0.072631702   -0.1484916      0             -0.090953676   -0.042088028  
  34300000   0.080438858   -0.13932396     0             -0.0756013      0.037174337  
  34310000   0.069605087   -0.14196816     0             -0.086827884   -0.06168061   
  34320000   0.075987106   -0.15743385     0             -0.097237813    0.015598726  
  34330000   0.072375984   -0.14771729     0             -0.090381939   -0.057430684  
  34340000   0.078022335   -0.15001877     0             -0.088210447   -0.044935795  
  34350000   0.0652449     -0.16655748     0             -0.11487128    -0.039798628  
  34360000   0.074434354   -0.14345394     0             -0.08448797    -0.044044097  
  34370000   0.06941366    -0.15064532     0             -0.095656684   -0.021746265  
  34380000   0.068856752   -0.15059291     0             -0.096045451   -0.0029134447 
  34390000   0.066888323   -0.15042044     0             -0.097432344   -0.048419476  
  34400000   0.070508333   -0.15409032     0             -0.098234497    0.065766744  
  34410000   0.060836551   -0.14377506     0             -0.095581105   -0.0062327742 
  34420000   0.070129812   -0.15258312     0             -0.097027158   -0.054794005  
  34430000   0.071818897   -0.14867634     0             -0.09178231    -0.089422189  
  34440000   0.072253617   -0.14667639     0             -0.08943798     0.029788169  
  34450000   0.070634995   -0.14715728     0             -0.091201116    0.0055066642 
  34460000   0.069124947   -0.1430352      0             -0.088275284   -0.063472443  
  34470000   0.081246167   -0.13723531     0             -0.072873114   -0.04809628   
  34480000   0.080307903   -0.12984803     0             -0.066229115   -0.039333553  
  34490000   0.069894928   -0.14909926     0             -0.09372937    -0.029293102  
  34500000   0.07459302    -0.12874178     0             -0.069650125   -0.05261962   
  34510000   0.068916824   -0.12277964     0             -0.068184589    0.04139263   
  34520000   0.070298367   -0.13981094     0             -0.084121456    0.057646586  
  34530000   0.072033958   -0.13023622     0             -0.073171822    0.025208859  
  34540000   0.085990483   -0.14052698     0             -0.072406391   -0.024213026  
  34550000   0.077427079   -0.13829385     0             -0.076957082    0.04096027   
  34560000   0.070874836   -0.13741491     0             -0.08126875     0.030031929  
  34570000   0.068949908   -0.13506898     0             -0.08044772     0.0084607246 
  34580000   0.06708548    -0.1404374      0             -0.087293122   -0.039451578  
  34590000   0.064791342   -0.13873397     0             -0.087407078    0.049825431  
  34600000   0.073975717   -0.136154       0             -0.077551365   -0.052803011  
  34610000   0.068932607   -0.12918428     0             -0.07457673     0.0072160725 
  34620000   0.075939079   -0.12330855     0             -0.063150557    0.067705345  
  34630000   0.071953154   -0.13141433     0             -0.074413942   -0.025928846  
  34640000   0.075632889   -0.14969904     0             -0.089783608   -0.1211646    
  34650000   0.064792099   -0.13066042     0             -0.079332933   -0.045115278  
  34660000   0.066432488   -0.14970101     0             -0.09707402    -0.024318618  
  34670000   0.069627143   -0.1583554      0             -0.10319765    -0.083355744  
  34680000   0.066503916   -0.14878        0             -0.096096429   -0.048068198  
  34690000   0.079567056   -0.15993621     0             -0.096904186    0.018329352  
  34700000   0.070060685   -0.14379138     0             -0.088290185    0.040388752  
  34710000   0.071254546   -0.15972566     0             -0.1032787     -0.14375086   
  34720000   0.070729782   -0.14366993     0             -0.087638676   -0.036241638  
  34730000   0.079975856   -0.14759216     0             -0.084236292   -0.064550509  
  34740000   0.072367216   -0.12964695     0             -0.072318547   -0.013798164  
  34750000   0.069365908   -0.14238556     0             -0.087434757   -0.074335588  
  34760000   0.075235802   -0.13944299     0             -0.079842125   -0.016160137  
  34770000   0.07297632    -0.13763492     0             -0.079823986    0.038010484  
  34780000   0.07099443    -0.16148991     0             -0.10524901    -0.098839697  
  34790000   0.077996501   -0.15339783     0             -0.091609981    0.020723788  
  34800000   0.076822106   -0.14052515     0             -0.079667642    0.039872373  
  34810000   0.068855271   -0.13898008     0             -0.084433799   -0.056898841  
  34820000   0.070111419   -0.13918713     0             -0.083645743   -0.058594385  
  34830000   0.076922276   -0.13158371     0             -0.070646847   -0.047361442  
  34840000   0.076284021   -0.15333608     0             -0.092904829   -0.070711134  
  34850000   0.082577478   -0.13011362     0             -0.06469677    -0.033281869  
  34860000   0.071195971   -0.14186703     0             -0.085466475   -0.012419949  
  34870000   0.07469321    -0.1405687      0             -0.081397674   -0.032042656  
  34880000   0.079491625   -0.1243064      0             -0.061334131   -0.02753462   
  34890000   0.072906698   -0.13252887     0             -0.074773092   -0.068050078  
  34900000   0.075894669   -0.14608264     0             -0.085959835   -0.021048506  
  34910000   0.065298691   -0.14541241     0             -0.093683607    0.06293828   
  34920000   0.06723953    -0.15609437     0             -0.10282806    -0.061706633  
  34930000   0.072545191   -0.14562791     0             -0.088158515    0.052904491  
  34940000   0.065362969   -0.15924044     0             -0.10746071    -0.065737614  
  34950000   0.072181861   -0.13639055     0             -0.079208978    0.025907065  
  34960000   0.080417763   -0.14239017     0             -0.078684223    0.056427024  
  34970000   0.069238811   -0.16188326     0             -0.10703314    -0.021293344  
  34980000   0.077603286   -0.15435397     0             -0.092877621   -0.094601543  
  34990000   0.070397493   -0.15424861     0             -0.098480597    0.065999088  
  35000000   0.068967192   -0.1384663      0             -0.083831349   -0.018331701  
  35010000   0.070833134   -0.15128209     0             -0.095168971   -0.082181792  
  35020000   0.076617704   -0.13750566     0             -0.076810071    0.016633744  
  35030000   0.072843136   -0.16678734     0             -0.10908192     0.032953511  
  35040000   0.072709457   -0.14913727     0             -0.091537749    0.036394404  
  35050000   0.07659503    -0.13681741     0             -0.076139787    0.040976237  
  35060000   0.065029772   -0.1526235      0             -0.10110773     0.0095258841 
  35070000   0.079375756   -0.13446599     0             -0.071585512    0.040249775  
  35080000   0.064144618   -0.15830628     0             -0.10749172    -0.071282589  
  35090000   0.074784908   -0.13139332     0             -0.072149649   -0.048605953  
  35100000   0.074944091   -0.13974421     0             -0.080374434   -0.019937616  
  35110000   0.074954727   -0.12714712     0             -0.067768919    0.0069439779 
  35120000   0.06780521    -0.13762066     0             -0.083906218   -0.044635766  
  35130000   0.068443966   -0.13172532     0             -0.077504871   -0.079082946  
  35140000   0.063037711   -0.14780471     0             -0.097867023   -0.014742715  
  35150000   0.071787773   -0.13760395     0             -0.080734571    0.0099256233 
  35160000   0.070584303   -0.15796973     0             -0.10205372    -0.031398162  
  35170000   0.079301215   -0.14899398     0             -0.08617255    -0.057899685  
  35180000   0.076372875   -0.15254344     0             -0.092041805   -0.0053589186 
  35190000   0.072648452   -0.14590855     0             -0.08835735    -0.023704948  
  35200000   0.067619203   -0.14373082     0             -0.090163733   -0.029860378  
  35210000   0.064045028   -0.16028437     0             -0.1095487      0.0066192015 
  35220000   0.062422026   -0.15431834     0             -0.10486839    -0.065589108  
  35230000   0.066752867   -0.15127834     0             -0.098397551   -0.011417997  
  35240000   0.074809634   -0.14574402     0             -0.086480766    0.0080493749 
  35250000   0.069210435   -0.14085693     0             -0.086029289   -0.039114343  
  35260000   0.074243113   -0.14012342     0             -0.081308953    0.01733244   
  35270000   0.077437308   -0.1345311      0             -0.073186233    0.021960271  
  35280000   0.07343402    -0.13757465     0             -0.079401133    0.075650664  
  35290000   0.067959067   -0.13477615     0             -0.080939829   -0.10826062   
  35300000   0.07323217    -0.16167284     0             -0.10365923     0.027259087  
  35310000   0.069262165   -0.15936352     0             -0.1044949     -0.0073259471 
  35320000   0.065522255   -0.16048274     0             -0.10857683    -0.068414756  
  35330000   0.061191098   -0.15439594     0             -0.10592112    -0.094923508  
  35340000   0.072248889   -0.15656587     0             -0.099331202   -0.10160501   
  35350000   0.074441147   -0.17156286     0             -0.11259151     0.073686649  
  35360000   0.062118938   -0.17604274     0             -0.12683289     0.020713506  
  35370000   0.067677101   -0.15298028     0             -0.099367326   -0.055243504  
  35380000   0.070310098   -0.16024923     0             -0.10455045     0.02390863   
  35390000   0.059352855   -0.1657817      0             -0.11876311     0.04459728   
  35400000   0.077215585   -0.16830721     0             -0.10713799    -0.027263443  
  35410000   0.066946515   -0.15410748     0             -0.10107329    -0.030473773  
  35420000   0.071955549   -0.14646746     0             -0.089465169   -0.035314179  
  35430000   0.071671065   -0.14826988     0             -0.091492957   -0.01523375   
  35440000   0.064845465   -0.15331684     0             -0.10194707    -0.076726494  
  35450000   0.076474336   -0.16066728     0             -0.10008527     0.030902458  
  35460000   0.074060331   -0.15212019     0             -0.093450523   -0.081342576  
  35470000   0.072583687   -0.15578878     0             -0.098288893   -0.0073370274 
  35480000   0.0687544     -0.14755096     0             -0.093084584   -0.13135143   
  35490000   0.086418      -0.13894319     0             -0.070483932   -0.035843685  
  35500000   0.075880266   -0.14688386     0             -0.086772465   -0.12136574   
  35510000   0.071522798   -0.15551452     0             -0.098855056   -0.010071624  
  35520000   0.079675998   -0.16248925     0             -0.099370918   -0.046751033  
  35530000   0.07181009    -0.15147685     0             -0.094589795    0.020113423  
  35540000   0.085611258   -0.14116454     0             -0.073344374   -0.017969099  
  35550000   0.068903745   -0.15593192     0             -0.10134723     0.010465058  
  35560000   0.068382053   -0.14420374     0             -0.090032335    0.0010592896 
  35570000   0.076037921   -0.1597838      0             -0.099547509    0.080112684  
  35580000   0.074857733   -0.15033029     0             -0.091028926   -0.029962257  
  35590000   0.07148778    -0.15517829     0             -0.098546561   -0.0019521289 
  35600000   0.079054334   -0.14021016     0             -0.077584303    0.0052417128 
  35610000   0.07147869    -0.14749566     0             -0.090871137   -0.016353164  
  35620000   0.070722664   -0.15922153     0             -0.10319592    -0.029615774  
  35630000   0.073864166   -0.16330031     0             -0.10478604    -0.0026231952 
  35640000   0.076358802   -0.16355797     0             -0.10306749    -0.084219554  
  35650000   0.071719178   -0.14188935     0             -0.085074317    0.029586853  
  35660000   0.074969789   -0.16674799     0             -0.10735786    -0.072867324  
  35670000   0.08625285    -0.17516035     0             -0.10683193    -0.0085708799 
  35680000   0.067063741   -0.14506812     0             -0.091941059   -0.0022911925 
  35690000   0.070782624   -0.15183408     0             -0.095760967   -0.024356885  
  35700000   0.070743216   -0.15151125     0             -0.095469355   -0.019613825  
  35710000   0.069629136   -0.15013681     0             -0.094977475   -7.542065e-05 
  35720000   0.073942125   -0.14330764     0             -0.084731616   -0.065372835  
  35730000   0.070846807   -0.14969922     0             -0.09357527    -0.011587701  
  35740000   0.075666743   -0.14167259     0             -0.081730343    0.04873908   
  35750000   0.067342222   -0.14671649     0             -0.093368822   -0.10457468   
  35760000   0.06558728    -0.14402647     0             -0.092069046    0.048271396  
  35770000   0.072367075   -0.15158177     0             -0.094253474    0.010374726  
  35780000   0.064112556   -0.15138972     0             -0.10060056     0.0076035374 
  35790000   0.077659517   -0.14940638     0             -0.087885481   -0.040419505  
  35800000   0.071780813   -0.13701783     0             -0.080153966   -0.030028083  
  35810000   0.065144118   -0.14155741     0             -0.089951054    0.0022881636 
  35820000   0.070208786   -0.15311534     0             -0.09749682    -0.093881057  
  35830000   0.069798059   -0.14319656     0             -0.08790341     0.0039225834 
  35840000   0.066703204   -0.15256135     0             -0.099719902   -0.060380824  
  35850000   0.073089046   -0.15837969     0             -0.10047946    -0.17171015   
  35860000   0.073055583   -0.15059879     0             -0.092725067    0.010667988  
  35870000   0.0768017     -0.15641031     0             -0.095568959   -0.12596216   
  35880000   0.075371609   -0.13842367     0             -0.078715222   -0.097825271  
  35890000   0.064474714   -0.14393133     0             -0.092855268   -0.022754988  
  35900000   0.069156203   -0.15422649     0             -0.099441808   -0.068774906  
  35910000   0.063653389   -0.15780616     0             -0.10738074    -0.0058505076 
  35920000   0.072514993   -0.15951933     0             -0.10207386    -0.058168222  
  35930000   0.064070603   -0.14399559     0             -0.093239654   -0.031328226  
  35940000   0.070415129   -0.16169253     0             -0.10591055    -0.045437684  
  35950000   0.072918944   -0.15017952     0             -0.092414049   -0.01719113   
  35960000   0.060171131   -0.15196361     0             -0.10429679    -0.034322924  
  35970000   0.070659938   -0.14457862     0             -0.088602705    0.03836874   
  35980000   0.070303671   -0.17091815     0             -0.11522446     0.025189093  
  35990000   0.062772092   -0.15709773     0             -0.10737047    -0.091833233  
  36000000   0.066186888   -0.15605496     0             -0.10362254    -0.091003961  
  36010000   0.071032395   -0.158939       0             -0.10266803    -0.041921632  
  36020000   0.07198869    -0.15184698     0             -0.094818437   -0.020325108  
  36030000   0.070493346   -0.15172212     0             -0.095878177   -0.0050504838 
  36040000   0.069073745   -0.14483085     0             -0.090111497   -0.033757577  
  36050000   0.079063657   -0.12717        0             -0.064536761   -0.099513592  
  36060000   0.069705231   -0.13309008     0             -0.077870468   -0.030930746  
  36070000   0.071011852   -0.14791188     0             -0.091657176   -0.06372718   
  36080000   0.071277142   -0.14868033     0             -0.092215472    0.018185407  
  36090000   0.067138313   -0.13218299     0             -0.078996858    0.07731396   
  36100000   0.067914288   -0.14919963     0             -0.095398783   -0.029990144  
  36110000   0.074507035   -0.14802607     0             -0.089002531   -0.02751765   
  36120000   0.068365498   -0.14301554     0             -0.088857251   -0.123167     
  36130000   0.066003159   -0.1519646      0             -0.099677719    0.0059437313 
  36140000   0.072845596   -0.14403526     0             -0.086327889   -0.044822426  
  36150000   0.066944066   -0.14919394     0             -0.096161687   -0.037894837  
  36160000   0.074862423   -0.14467717     0             -0.085372094   -0.027133705  
  36170000   0.067359193   -0.12960343     0             -0.076242319    0.024391371  
  36180000   0.079490437   -0.13378788     0             -0.070816545   -0.0074822806 
  36190000   0.073368211   -0.14816496     0             -0.090043576   -0.010584873  
  36200000   0.0696863     -0.15135397     0             -0.096149352    0.0061920394 
  36210000   0.065714557   -0.14640889     0             -0.094350635   -0.062739972  
  36220000   0.08308148    -0.13168571     0             -0.065869599    0.0023133047 
  36230000   0.081529044   -0.12206174     0             -0.057475449    0.12640827   
  36240000   0.072558197   -0.12614306     0             -0.068663364   -0.01708537   
  36250000   0.075160799   -0.15031759     0             -0.090776143   -0.0024985918 
  36260000   0.068120937   -0.14609828     0             -0.092133726   -0.020612855  
  36270000   0.068554016   -0.15961899     0             -0.10531135     0.014549043  
  36280000   0.07392722    -0.17249559     0             -0.11393137     0.02267695   
  36290000   0.067501307   -0.16090739     0             -0.1074337     -0.054044392  
  36300000   0.072745631   -0.16584599     0             -0.10821781    -0.030159763  
  36310000   0.073761742   -0.17095662     0             -0.11252349    -0.04521364   
  36320000   0.071958283   -0.15465969     0             -0.097655235   -0.1070973    
  36330000   0.079219186   -0.15848265     0             -0.095726201   -0.037902113  
  36340000   0.079293076   -0.16191502     0             -0.099100034   -0.0075357514 
  36350000   0.06399458    -0.16306153     0             -0.11236582     0.0073112637 
  36360000   0.067337343   -0.1643255      0             -0.1109817      0.051275185  
  36370000   0.071088337   -0.16537478     0             -0.10905948     0.0085001141 
  36380000   0.064535265   -0.16204353     0             -0.1109195     -0.053734675  
  36390000   0.072700291   -0.15649934     0             -0.098907074    0.061266483  
  36400000   0.075253162   -0.16838743     0             -0.10877282    -0.033450444  
  36410000   0.069994079   -0.15593605     0             -0.10048762    -0.034321321  
  36420000   0.080892577   -0.13968432     0             -0.075602235    0.076437503  
  36430000   0.071727977   -0.13425092     0             -0.077428915   -0.061427884  
  36440000   0.063791482   -0.15710436     0             -0.10656954    -0.047397826  
  36450000   0.07559246    -0.13941862     0             -0.079535216   -0.050029079  
  36460000   0.073059556   -0.14303973     0             -0.085162862    9.7921319e-06
  36470000   0.071058691   -0.16619097     0             -0.10989916    -0.052376498  
  36480000   0.070827011   -0.16676537     0             -0.1106571     -0.0035867564 
  36490000   0.069689323   -0.15666572     0             -0.10145871     0.0099636156 
  36500000   0.075397936   -0.1645063      0             -0.104777       0.011689222  
  36510000   0.080622614   -0.16338008     0             -0.099511858   -0.071376847  
  36520000   0.068798297   -0.16319163     0             -0.10869048    -0.04058638   
  36530000   0.075627625   -0.16881315     0             -0.10890189    -0.053901103  
  36540000   0.075814592   -0.15963291     0             -0.099573533   -0.14948737   
  36550000   0.075727801   -0.13938174     0             -0.079391121    0.014851553  
  36560000   0.074147865   -0.15964087     0             -0.10090186    -0.012208531  
  36570000   0.079119042   -0.1641567      0             -0.10147958     0.067709196  
  36580000   0.068505283   -0.14657533     0             -0.0923063     -0.10366323   
  36590000   0.069580415   -0.14536907     0             -0.090248338   -0.015292951  
  36600000   0.074848832   -0.15713273     0             -0.097838417    0.021705795  
  36610000   0.078217336   -0.15507542     0             -0.093112622   -0.068242779  
  36620000   0.069192779   -0.13200064     0             -0.077186984   -0.013917083  
  36630000   0.072734844   -0.13887449     0             -0.081254854   -0.013001171  
  36640000   0.075828401   -0.13947532     0             -0.079405012   -0.011564679  
  36650000   0.068136231   -0.14591577     0             -0.091939095    0.031188966  
  36660000   0.064825436   -0.15275255     0             -0.10139865    -0.011946601  
  36670000   0.075128698   -0.16576011     0             -0.10624409     0.060271374  
  36680000   0.069468423   -0.16925508     0             -0.11422306    -0.056661807  
  36690000   0.080061555   -0.16638394     0             -0.10296018    -0.0053337866 
  36700000   0.065157771   -0.15063836     0             -0.099021192    0.04505246   
  36710000   0.067415708   -0.15546136     0             -0.10205548    -0.065774981  
  36720000   0.068711958   -0.16666659     0             -0.11223384    -0.043946056  
  36730000   0.072041321   -0.13324425     0             -0.076174016   -0.035400385  
  36740000   0.067219772   -0.12564746     0             -0.072396794   -0.015966144  
  36750000   0.065246124   -0.14309102     0             -0.091403853   -0.10231557   
  36760000   0.072172415   -0.13461132     0             -0.077437232   -0.10424127   
  36770000   0.065167756   -0.15103189     0             -0.099406808   -0.063303695  
  36780000   0.063588622   -0.14349141     0             -0.093117295   -0.025141147  
  36790000   0.073278498   -0.13917416     0             -0.081123849    0.11944842   
  36800000   0.069367618   -0.13865817     0             -0.083706008    0.035539595  
  36810000   0.076548676   -0.14719944     0             -0.086558532   -0.10533798   
  36820000   0.066583998   -0.13973024     0             -0.086983225   -0.054623484  
  36830000   0.069908967   -0.14253517     0             -0.087154155    0.091543083  
  36840000   0.060246011   -0.14636337     0             -0.098637234   -0.051219487  
  36850000   0.071045521   -0.14898803     0             -0.092706659   -0.020052198  
  36860000   0.06978384    -0.16090364     0             -0.10562176    -0.062970996  
  36870000   0.07505258    -0.16028166     0             -0.10082595     0.002958668  
  36880000   0.067866623   -0.15226713     0             -0.098504037   -0.052430504  
  36890000   0.068714859   -0.14619067     0             -0.091755623   -0.018541494  
  36900000   0.065450248   -0.14558137     0             -0.093732502    0.010052264  
  36910000   0.064217808   -0.14525134     0             -0.094378793   -0.033039267  
  36920000   0.07259689    -0.12285447     0             -0.065344122   -0.0078683474 
  36930000   0.078337039   -0.13984786     0             -0.077790237   -0.025468294  
  36940000   0.065699567   -0.14961803     0             -0.097571657    0.010603517  
  36950000   0.078435341   -0.14893415     0             -0.086798655   -0.011454419  
  36960000   0.070109713   -0.13952181     0             -0.083981767    0.078890122  
  36970000   0.075283413   -0.14230154     0             -0.082662963   -0.081531011  
  36980000   0.077653795   -0.15210748     0             -0.090591119   -0.097738617  
  36990000   0.075675754   -0.13785824     0             -0.077908853    0.071723279  
  37000000   0.071115668   -0.15995797     0             -0.10362103    -0.0079107007 
  37010000   0.079211733   -0.17048771     0             -0.10773716     0.0028594687 
  37020000   0.07098157    -0.15787669     0             -0.10164598    -0.0033697396 
  37030000   0.084636431   -0.14475148     0             -0.077703555    0.02542766   
  37040000   0.069969308   -0.13839745     0             -0.082968639    0.020561038  
  37050000   0.075048336   -0.13734716     0             -0.077894807   -0.022299415  
  37060000   0.068599564   -0.15235869     0             -0.09801497     0.040667701  
  37070000   0.068874855   -0.14349056     0             -0.088928758    0.0049247262 
  37080000   0.067510138   -0.14023768     0             -0.086756988   -0.062886554  
  37090000   0.082923592   -0.1519596      0             -0.086268566   -0.076633517  
  37100000   0.06890968    -0.14547478     0             -0.090885393    0.031144959  
  37110000   0.066198632   -0.13517996     0             -0.082738227    0.019169328  
  37120000   0.07313589    -0.13758879     0             -0.079651448    0.023960457  
  37130000   0.071856712   -0.13288372     0             -0.075959735    0.003040692  
  37140000   0.078890921   -0.14673459     0             -0.084238192    0.0028747126 
  37150000   0.069205355   -0.14638513     0             -0.091561512   -0.044070746  
  37160000   0.072314437   -0.13946046     0             -0.082173871   -0.037614368  
  37170000   0.074947281   -0.15179607     0             -0.092423774    0.04696448   
  37180000   0.072587687   -0.14628374     0             -0.088780686   -0.029587195  
  37190000   0.071475834   -0.15512477     0             -0.098502513    0.0012838263 
  37200000   0.073741942   -0.16160732     0             -0.10318988     0.025246663  
  37210000   0.073708889   -0.15430681     0             -0.095915552    0.038477092  
  37220000   0.061313765   -0.14963587     0             -0.10106387    -0.039645127  
  37230000   0.068272459   -0.14575678     0             -0.091672195   -0.060503649  
  37240000   0.075376098   -0.14656228     0             -0.08685028     0.044467329  
  37250000   0.068136131   -0.13806294     0             -0.084086348    0.043424201  
  37260000   0.071855282   -0.13269485     0             -0.075771996   -0.027820216  
  37270000   0.063510579   -0.13073578     0             -0.080423494    0.046010617  
  37280000   0.067054559   -0.14070366     0             -0.087583874   -0.028330568  
  37290000   0.078191752   -0.1463745      0             -0.084431967    0.019224652  
  37300000   0.072054598   -0.14171966     0             -0.084638911    0.033630932  
  37310000   0.067342324   -0.1379684      0             -0.084620654    0.021344675  
  37320000   0.073824415   -0.15461377     0             -0.096130991   -0.002300771  
  37330000   0.065389461   -0.13935072     0             -0.087550009   -0.1040709    
  37340000   0.06793046    -0.13343019     0             -0.07961653     0.025740687  
  37350000   0.074106403   -0.13444186     0             -0.075735694   -0.045715287  
  37360000   0.072736217   -0.14440563     0             -0.08678491    -0.10270905   
  37370000   0.069861144   -0.13045545     0             -0.075112327   -0.035930009  
  37380000   0.071311956   -0.12755331     0             -0.071060871    0.023316332  
  37390000   0.078082278   -0.14092014     0             -0.079064339   -0.031293704  
  37400000   0.069637135   -0.13861899     0             -0.083453319   -0.012245845  
  37410000   0.065057752   -0.13067498     0             -0.079137044   -0.073229273  
  37420000   0.070488426   -0.14614809     0             -0.090308037   -0.039484239  
  37430000   0.078675612   -0.14431597     0             -0.081990135   -0.048231944  
  37440000   0.068205476   -0.14162356     0             -0.087592034   -0.02788084   
  37450000   0.06511654    -0.14757059     0             -0.095986077    0.0047406759 
  37460000   0.067367825   -0.14516566     0             -0.091797715   -0.037807391  
  37470000   0.08040615    -0.15376863     0             -0.090071884   -0.077417462  
  37480000   0.066490773   -0.14241067     0             -0.089737511    0.056151753  
  37490000   0.069304334   -0.14872866     0             -0.093826632    0.040102565  
  37500000   0.072892286   -0.15397352     0             -0.096229163   -0.018047313  
  37510000   0.067937913   -0.15628533     0             -0.10246576     0.031636985  
  37520000   0.070147884   -0.13693055     0             -0.081360274   -0.036932703  
  37530000   0.071598437   -0.15140176     0             -0.094682376    0.068869045  
  37540000   0.075498227   -0.14374397     0             -0.083935218   -0.079027483  
  37550000   0.067036304   -0.15025932     0             -0.097153998   -0.037491645  
  37560000   0.066595958   -0.14661945     0             -0.093862965    0.034895318  
  37570000   0.067297105   -0.1548433      0             -0.10153138     0.042663252  
  37580000   0.076308102   -0.15983784     0             -0.099387516   -0.048301945  
  37590000   0.06812248    -0.16321785     0             -0.10925207    -0.055605763  
  37600000   0.073439612   -0.15588626     0             -0.09770832    -0.046826074  
  37610000   0.062686063   -0.15741258     0             -0.10775347    -0.015251978  
  37620000   0.073208867   -0.14543515     0             -0.08744       -0.1102338    
  37630000   0.068577823   -0.16889698     0             -0.11457049    -0.011306552  
  37640000   0.075866826   -0.17091958     0             -0.11081883     0.0033872899 
  37650000   0.080139533   -0.16211654     0             -0.098631002    0.027777125  
  37660000   0.075077411   -0.16553167     0             -0.10605628    -0.051282472  
  37670000   0.067288027   -0.14925423     0             -0.095949495   -0.038921881  
  37680000   0.071489058   -0.1533304      0             -0.096697659    0.095691992  
  37690000   0.074614313   -0.14307515     0             -0.083966625    0.089607233  
  37700000   0.071851962   -0.14773273     0             -0.090812505   -0.060603253  
  37710000   0.072688387   -0.14459847     0             -0.08701564    -0.024743374  
  37720000   0.064994      -0.14166008     0             -0.090172649   -0.022106935  
  37730000   0.070742262   -0.15155844     0             -0.095517304   -0.038315045  
  37740000   0.067255185   -0.12812582     0             -0.074847106    0.0016800126 
  37750000   0.060616795   -0.12501236     0             -0.076992496   -0.029826329  
  37760000   0.076112108   -0.13212042     0             -0.071825356    0.046549466  
  37770000   0.07613104    -0.13652332     0             -0.076213265    0.016482136  
  37780000   0.076075374   -0.13930283     0             -0.07903687    -0.034540597  
  37790000   0.081435319   -0.13143478     0             -0.066922735   -0.029517495  
  37800000   0.072619689   -0.15724331     0             -0.099714904   -0.091224605  
  37810000   0.064521227   -0.13316154     0             -0.082048632    0.037666262  
  37820000   0.079477326   -0.13924955     0             -0.076288611   -0.11247929   
  37830000   0.072739451   -0.14327557     0             -0.085652285   -0.087294059  
  37840000   0.075707096   -0.14346034     0             -0.083486125   -0.0051191405 
  37850000   0.068342228   -0.13814149     0             -0.084001631   -0.040977605  
  37860000   0.068336238   -0.15985066     0             -0.10571555    -0.021340874  
  37870000   0.07585742    -0.14898053     0             -0.088887229    0.076413215  
  37880000   0.076678208   -0.15580071     0             -0.095057189   -0.12909357   
  37890000   0.06923821    -0.14883534     0             -0.093985699    0.017161963  
  37900000   0.083405452   -0.17109607     0             -0.10502331    -0.084984601  
  37910000   0.072792325   -0.13784556     0             -0.080180386    0.034130699  
  37920000   0.070220556   -0.13729007     0             -0.081662222   -0.059140696  
  37930000   0.071430682   -0.1511447      0             -0.09455821    -0.032904262  
  37940000   0.064849173   -0.16256485     0             -0.11119214     0.014042175  
  37950000   0.071517428   -0.15207034     0             -0.095415123    0.019403413  
  37960000   0.078155881   -0.1342022      0             -0.072288091    0.022057875  
  37970000   0.068291494   -0.15560102     0             -0.10150136    -0.036035382  
  37980000   0.070348636   -0.15843516     0             -0.10270585    -0.03026335   
  37990000   0.06892125    -0.15340525     0             -0.098806695   -0.032770807  
  38000000   0.068414652   -0.15820423     0             -0.104007      -0.004777896  
  38010000   0.066110547   -0.14866854     0             -0.09629659    -0.046165002  
  38020000   0.07948526    -0.14939253     0             -0.0864253      0.015004313  
  38030000   0.073132688   -0.15323528     0             -0.095300478   -0.030850288  
  38040000   0.06928966    -0.14793486     0             -0.093044458   -0.0051508792 
  38050000   0.067400725   -0.13916086     0             -0.085766847    0.007421889  
  38060000   0.070107373   -0.15404662     0             -0.098508433   -0.0024180539 
  38070000   0.069103127   -0.14850742     0             -0.093764785   -0.0004751151 
  38080000   0.068717574   -0.16453987     0             -0.11010267     0.14560911   
  38090000   0.065824983   -0.14995997     0             -0.097814244    0.0078945748 
  38100000   0.080390843   -0.15250214     0             -0.088817524   -0.024706304  
  38110000   0.060585622   -0.14326576     0             -0.09527059    -0.0336239    
  38120000   0.068572225   -0.1492658      0             -0.094943738    0.0016453916 
  38130000   0.073812156   -0.13472365     0             -0.076250579    0.047584865  
  38140000   0.069140069   -0.14288061     0             -0.088108708    0.0052648752 
  38150000   0.073739562   -0.1479431      0             -0.089527539    0.037074088  
  38160000   0.077431434   -0.1626667      0             -0.10132649    -0.022148152  
  38170000   0.07884457    -0.13951493     0             -0.07705525    -0.074412899  
  38180000   0.068228571   -0.14192061     0             -0.087870786   -0.0027320535 
  38190000   0.073506898   -0.15907104     0             -0.10083979     0.011938455  
  38200000   0.072652625   -0.14746919     0             -0.089914691   -0.030241445  
  38210000   0.066835274   -0.15709475     0             -0.10414869     0.0043883195 
  38220000   0.073298272   -0.15642825     0             -0.098362271    0.015063426  
  38230000   0.068867295   -0.16308262     0             -0.10852681    -0.061921462  
  38240000   0.069499624   -0.16654966     0             -0.11149292    -0.087546372  
  38250000   0.063700884   -0.15545907     0             -0.10499603    -0.0023923752 
  38260000   0.067071513   -0.16652048     0             -0.11338726    -0.041152434  
  38270000   0.075224522   -0.16490027     0             -0.10530834    -0.00089069999
  38280000   0.073763394   -0.16072824     0             -0.1022938     -0.097785865  
  38290000   0.069316008   -0.16471504     0             -0.10980377    -0.021851574  
  38300000   0.068884745   -0.1645719      0             -0.11000227    -0.051042897  
  38310000   0.078577537   -0.16080893     0             -0.098560789   -0.082515107  
  38320000   0.070254297   -0.17546498     0             -0.11981041     0.00039922009
  38330000   0.065716417   -0.14955625     0             -0.097496523    0.021022832  
  38340000   0.064653993   -0.15541946     0             -0.10420138     0.0092908377 
  38350000   0.070086981   -0.15802402     0             -0.10250199    -0.014826388  
  38360000   0.067563106   -0.1499719      0             -0.096449249    0.042406791  
  38370000   0.074312249   -0.15072551     0             -0.091856277   -0.088792966  
  38380000   0.075224896   -0.14764839     0             -0.088056163   -0.042636794  
  38390000   0.065861379   -0.15671437     0             -0.10453981    -0.04313337   
  38400000   0.075642097   -0.15419818     0             -0.094275456    0.010557025  
  38410000   0.077349528   -0.16640603     0             -0.1051307     -0.0039118861 
  38420000   0.077831903   -0.15103723     0             -0.089379765   -0.051970922  
  38430000   0.070958824   -0.15659145     0             -0.10037876    -0.065455901  
  38440000   0.072730281   -0.16429245     0             -0.10667643    -0.044844267  
  38450000   0.07288162    -0.16671439     0             -0.10897848    -0.098670421  
  38460000   0.07230225    -0.1759342      0             -0.11865726     0.020077045  
  38470000   0.069491881   -0.1757165      0             -0.1206659      0.0087418109 
  38480000   0.073426844   -0.15847043     0             -0.10030261    -0.056449984  
  38490000   0.068968916   -0.16200574     0             -0.10736943    -0.090514029  
  38500000   0.074922257   -0.1590878      0             -0.099735325   -0.019961091  
  38510000   0.075174111   -0.16804671     0             -0.10849472    -0.075344414  
  38520000   0.064624618   -0.17096349     0             -0.11976867    -0.055405551  
  38530000   0.074072773   -0.14771258     0             -0.089033051   -0.020526668  
  38540000   0.068587473   -0.14932172     0             -0.094987577    0.067828389  
  38550000   0.070710709   -0.14814328     0             -0.092127137   -0.065433708  
  38560000   0.080923815   -0.16995512     0             -0.10584828    -0.010136572  
  38570000   0.073593929   -0.14846959     0             -0.090169402   -0.068388953  
  38580000   0.068610626   -0.16063351     0             -0.10628103     0.0026802873 
  38590000   0.072326292   -0.14845961     0             -0.091163628    0.036633089  
  38600000   0.068302307   -0.1594831      0             -0.10537487     0.087245749  
  38610000   0.076280683   -0.14435422     0             -0.083925621    0.030230518  
  38620000   0.07213672    -0.16478833     0             -0.10764252    -0.003415672  
  38630000   0.072357005   -0.15401813     0             -0.096697818    0.016483632  
  38640000   0.070820123   -0.13254549     0             -0.076442673    0.078333154  
  38650000   0.069914416   -0.12215383     0             -0.066768508   -0.0024629308 
  38660000   0.074768576   -0.13296288     0             -0.073732153    8.3592618e-05
  38670000   0.076455765   -0.15637688     0             -0.09580958     0.094749972  
  38680000   0.078863209   -0.1358651      0             -0.073390653    0.04441339   
  38690000   0.073931751   -0.13625834     0             -0.077690535   -0.030888549  
  38700000   0.071969822   -0.14998889     0             -0.092975298   -0.015275072  
  38710000   0.072958815   -0.15944928     0             -0.10165222    -0.049293933  
  38720000   0.065787485   -0.14410107     0             -0.091985048   -0.076668086  
  38730000   0.074829652   -0.13177887     0             -0.072499758    0.046944741  
  38740000   0.073913501   -0.13410708     0             -0.075553728   -0.043665878  
  38750000   0.070239708   -0.14855528     0             -0.092912266   -0.0056278497 
  38760000   0.061823149   -0.14058233     0             -0.091606803   -0.073417219  
  38770000   0.068468342   -0.13592544     0             -0.081685673   -0.099055958  
  38780000   0.068830916   -0.14094432     0             -0.086417331   -0.067362083  
  38790000   0.06920999    -0.13480967     0             -0.079982385   -0.0026400417 
  38800000   0.070224438   -0.14793952     0             -0.092308597   -0.14287684   
  38810000   0.072508044   -0.14501576     0             -0.087575795    0.06166673   
  38820000   0.071344879   -0.14327118     0             -0.086752655   -0.053471485  
  38830000   0.071091778   -0.14994589     0             -0.093627874   -0.035987441  
  38840000   0.060274646   -0.14038979     0             -0.092640973    0.028827049  
  38850000   0.078524036   -0.15433585     0             -0.092130086    0.078560996  
  38860000   0.073544927   -0.1654451      0             -0.10718372    -0.078216322  
  38870000   0.071943794   -0.15146964     0             -0.094476667   -0.034987642  
  38880000   0.076942701   -0.15252812     0             -0.09157507     0.10135264   
  38890000   0.067551652   -0.15930876     0             -0.10579519    -0.031646353  
  38900000   0.069184874   -0.14990511     0             -0.095097721   -0.043718273  
  38910000   0.065957774   -0.15019153     0             -0.097940607   -0.0049027865 
  38920000   0.070529202   -0.15054713     0             -0.094674777    0.0091354701 
  38930000   0.078678573   -0.146158       0             -0.083829814    0.016341439  
  38940000   0.072805252   -0.16352553     0             -0.10585012     0.079541653  
  38950000   0.067604141   -0.14908932     0             -0.095534169   -0.040700385  
  38960000   0.07561916    -0.150232       0             -0.090327443    0.028855375  
  38970000   0.071860446   -0.15543982     0             -0.098512872   -0.0099317803 
  38980000   0.069814671   -0.14430199     0             -0.088995676   -0.031810329  
  38990000   0.067615539   -0.146146       0             -0.092581819    0.047894841  
  39000000   0.070160737   -0.1424085      0             -0.086828045   -0.07350552   
  39010000   0.07120536    -0.15545528     0             -0.099047288   -0.080836627  
  39020000   0.079545986   -0.15538118     0             -0.092365843   -0.00077097113
  39030000   0.076152906   -0.14591327     0             -0.085585887   -0.13688078   
  39040000   0.079811921   -0.14820812     0             -0.084982114   -0.068394523  
  39050000   0.071800582   -0.14069222     0             -0.083812696   -0.14450089   
  39060000   0.067782184   -0.15696596     0             -0.10326976    -0.084519967  
  39070000   0.07241263    -0.14584319     0             -0.08847881    -0.046340109  
  39080000   0.073121407   -0.15411141     0             -0.096185547   -0.0037216696 
  39090000   0.072970556   -0.16359592     0             -0.10578956    -0.0087101265 
  39100000   0.067282512   -0.16041044     0             -0.10711007     0.0057015237 
  39110000   0.060731908   -0.14066926     0             -0.092558202    0.019630456  
  39120000   0.082797107   -0.14264849     0             -0.077057653   -0.0098370377 
  39130000   0.068177405   -0.12711146     0             -0.073102173    0.054353677  
  39140000   0.080317763   -0.13665729     0             -0.073030564    0.047596329  
  39150000   0.075252916   -0.1502308      0             -0.090616379   -0.081696854  
  39160000   0.070171691   -0.15591705     0             -0.10032791     0.054178308  
  39170000   0.078013406   -0.14974592     0             -0.087944674    0.0082783942 
  39180000   0.068533784   -0.14381081     0             -0.089519205    0.11007939   
  39190000   0.076456612   -0.15192273     0             -0.091354757    0.047136993  
  39200000   0.076438069   -0.14943737     0             -0.088884087    0.054409325  
  39210000   0.064763599   -0.1595703      0             -0.10826539    -0.038686579  
  39220000   0.075371705   -0.15111838     0             -0.09140986    -0.04240636   
  39230000   0.0736752     -0.15388942     0             -0.095524849   -0.090906553  
  39240000   0.068128205   -0.16100748     0             -0.10703717     0.011900036  
  39250000   0.068345876   -0.15101403     0             -0.096871284    0.068342852  
  39260000   0.078040225   -0.12668124     0             -0.064858745   -0.04020759   
  39270000   0.063933038   -0.13080155     0             -0.080154598   -0.043502733  
  39280000   0.068687817   -0.13683546     0             -0.082421831   -0.02475878   
  39290000   0.06733333    -0.13428755     0             -0.080946923    0.015003079  
  39300000   0.068203596   -0.14537116     0             -0.091341124   -0.060844915  
  39310000   0.056988107   -0.13889861     0             -0.09375334     0.00070706146
  39320000   0.069724343   -0.14161613     0             -0.086381379    0.097422073  
  39330000   0.067183645   -0.13449634     0             -0.081274293    0.035934028  
  39340000   0.075629632   -0.14305083     0             -0.083137977    0.073197235  
  39350000   0.072298579   -0.14326258     0             -0.08598855    -0.063278486  
  39360000   0.067435691   -0.15109282     0             -0.097671111   -0.063090002  
  39370000   0.069710397   -0.14973861     0             -0.094514906   -0.032352953  
  39380000   0.069349754   -0.14239904     0             -0.087461027   -0.072485323  
  39390000   0.078599246   -0.14138423     0             -0.079118886   -0.066936071  
  39400000   0.076244025   -0.14143106     0             -0.081031499   -0.13863242   
  39410000   0.06926987    -0.13991498     0             -0.085040256   -0.032943353  
  39420000   0.06896648    -0.14547457     0             -0.090840184   -0.01834278   
  39430000   0.075031496   -0.1314638      0             -0.072024786   -0.075891421  
  39440000   0.07118894    -0.14121002     0             -0.084815028   -0.12391119   
  39450000   0.074787003   -0.15205343     0             -0.092808099   -0.02105347   
  39460000   0.068721954   -0.14273889     0             -0.088298214    0.029685988  
  39470000   0.06566685    -0.15659839     0             -0.10457793    -0.027883446  
  39480000   0.071096028   -0.14163866     0             -0.085317278   -0.13077994   
  39490000   0.073450321   -0.13910985     0             -0.080923428   -0.0069795261 
  39500000   0.064231634   -0.15727148     0             -0.10638798    -0.011130422  
  39510000   0.073279241   -0.16210322     0             -0.10405232     0.072669928  
  39520000   0.072452762   -0.15101024     0             -0.093614068   -0.04630403   
  39530000   0.068151892   -0.15175544     0             -0.097766358    0.035434545  
  39540000   0.066343819   -0.15326602     0             -0.10070928    -0.0075665543 
  39550000   0.07916697    -0.16227009     0             -0.099555008   -0.11905603   
  39560000   0.066914883   -0.14958463     0             -0.096575498    0.01847292   
  39570000   0.06949976    -0.13784535     0             -0.082788506   -0.035139335  
  39580000   0.076068618   -0.14111028     0             -0.080849672    0.040787839  
  39590000   0.071325845   -0.13758157     0             -0.081078131    0.0028216539 
  39600000   0.070435291   -0.14784539     0             -0.092047435   -0.057556822  
  39610000   0.078779283   -0.12570692     0             -0.063298956    0.0080208109 
  39620000   0.078164453   -0.13228649     0             -0.070365589    0.035519678  
  39630000   0.0697506     -0.14930369     0             -0.094048133    0.024575383  
  39640000   0.072429301   -0.13359544     0             -0.07621785     0.0092365272 
  39650000   0.078082678   -0.15077564     0             -0.08891952    -0.057276745  
  39660000   0.063649619   -0.13078906     0             -0.080366625   -0.016143957  
  39670000   0.064677332   -0.12647194     0             -0.075235367    0.0047405734 
  39680000   0.064043565   -0.14240492     0             -0.091670404    0.021300289  
  39690000   0.069385285   -0.15117708     0             -0.096210929   -0.058926345  
  39700000   0.07145325    -0.15406391     0             -0.097459534   -0.017744258  
  39710000   0.073395969   -0.14659692     0             -0.088453551    0.012136909  
  39720000   0.070520539   -0.14204518     0             -0.086179696   -0.082563444  
  39730000   0.070139816   -0.16515615     0             -0.10959227    -0.044221124  
  39740000   0.076488299   -0.14658267     0             -0.085989595    0.031926014  
  39750000   0.076526715   -0.14171287     0             -0.081089367    0.050114614  
  39760000   0.071521776   -0.14978163     0             -0.093122971   -0.00054754269
  39770000   0.071922893   -0.165554       0             -0.10857758    -0.058509934  
  39780000   0.06968821    -0.1687938      0             -0.11358767    -0.0078132701 
  39790000   0.06645729    -0.14788305     0             -0.095236411   -0.011439581  
  39800000   0.072687629   -0.14420705     0             -0.086624819   -0.0030605599 
  39810000   0.070112635   -0.14358969     0             -0.088047338   -0.025966117  
  39820000   0.068407783   -0.14848385     0             -0.094292057   -0.037441905  
  39830000   0.073686231   -0.15759878     0             -0.099225469   -0.049223504  
  39840000   0.066880497   -0.14790594     0             -0.094924043   -0.032441139  
  39850000   0.077021098   -0.13910304     0             -0.078087891    0.076473619  
  39860000   0.069953896   -0.13939949     0             -0.083982885    0.026259173  
  39870000   0.072235978   -0.13881283     0             -0.081588393   -0.11713109   
  39880000   0.067798996   -0.14387271     0             -0.090163193    0.069474625  
  39890000   0.069760124   -0.14935661     0             -0.094093507   -0.0060010913 
  39900000   0.068062674   -0.14690161     0             -0.092983215   -0.047168375  
  39910000   0.068032964   -0.14395263     0             -0.090057768   -0.066020256  
  39920000   0.076986097   -0.14720379     0             -0.086216366   -0.050956832  
  39930000   0.083070822   -0.14087253     0             -0.075064863   -0.060033667  
  39940000   0.074455847   -0.13788484     0             -0.078901848    0.037829839  
  39950000   0.075599495   -0.15142332     0             -0.091534347    0.0076151772 
  39960000   0.07452164    -0.13499683     0             -0.075961722   -0.0096963946 
  39970000   0.064680179   -0.14198951     0             -0.090750679    0.027596121  
  39980000   0.07099388    -0.13026211     0             -0.074021651   -0.018102797  
  39990000   0.083226858   -0.15251985     0             -0.086588572   -0.061789718  
  40000000   0.074539129   -0.14585385     0             -0.086804879   -0.040540373  
  40010000   0.072629426   -0.131643       0             -0.074106875   -0.044230982  
  40020000   0.074200488   -0.13579356     0             -0.077012866    0.026061828  
  40030000   0.062113136   -0.13753279     0             -0.088327543   -0.062579678  
  40040000   0.066586984   -0.13818808     0             -0.085438703    0.000287532  
  40050000   0.079123906   -0.13439462     0             -0.071713652    0.078883726  
  40060000   0.070770651   -0.13584816     0             -0.079784532   -0.038292989  
  40070000   0.076280055   -0.14474665     0             -0.084318541    0.012080388  
  40080000   0.071321676   -0.13278765     0             -0.076287506    0.010458658  
  40090000   0.071916757   -0.13168527     0             -0.074713714   -0.0011285627 
  40100000   0.081614477   -0.13756151     0             -0.072907537    0.048666203  
  40110000   0.073955388   -0.14324602     0             -0.084659483    0.056300912  
  40120000   0.06494622    -0.16096329     0             -0.10951371    -0.03131428   
  40130000   0.069587096   -0.13583647     0             -0.08071044     0.037522234  
  40140000   0.080248038   -0.15228954     0             -0.088718045   -0.002519382  
  40150000   0.065539321   -0.14241021     0             -0.090490775   -0.11194195   
  40160000   0.063544442   -0.15093644     0             -0.10059733     0.038238346  
  40170000   0.070445979   -0.13802777     0             -0.08222135     0.036220853  
  40180000   0.066492166   -0.14593882     0             -0.093264555   -0.036389651  
  40190000   0.074058755   -0.13919092     0             -0.080522501   -0.013440281  
  40200000   0.074207818   -0.13194996     0             -0.073163457    0.062695736  
  40210000   0.072484363   -0.13288086     0             -0.07545965    -0.031682094  
  40220000   0.067052442   -0.1368888      0             -0.083770697   -0.017260681  
  40230000   0.072776315   -0.13238689     0             -0.074734403    0.021493118  
  40240000   0.07024401    -0.13731225     0             -0.081665825   -0.020105801  
  40250000   0.070844959   -0.14701916     0             -0.090896674   -0.11063903   
  40260000   0.078304188   -0.14275032     0             -0.080718724    0.038709604  
  40270000   0.074223064   -0.13529807     0             -0.076499487    0.059489735  
  40280000   0.068496539   -0.14058002     0             -0.086317915   -0.08251677   
  40290000   0.067166665   -0.14833371     0             -0.09512512     0.03946586   
  40300000   0.071191584   -0.15074548     0             -0.094348397    0.021907578  
  40310000   0.06733513    -0.12919226     0             -0.07585021     0.0039772124 
  40320000   0.070884229   -0.1306943      0             -0.074540702   -0.098881918  
  40330000   0.079075561   -0.1360703      0             -0.073427631   -0.017515591  
  40340000   0.069068431   -0.14304515     0             -0.088330001   -0.042151701  
  40350000   0.073314727   -0.14328845     0             -0.085209442   -0.010259724  
  40360000   0.068951712   -0.12934147     0             -0.074718788   -0.045983885  
  40370000   0.069560948   -0.13480861     0             -0.079703297   -0.078056028  
  40380000   0.068966831   -0.11567111     0             -0.061036448   -0.0035661289 
  40390000   0.06389792    -0.13915059     0             -0.088531459   -0.013228976  
  40400000   0.073279578   -0.12940441     0             -0.071353246   -0.016997348  
  40410000   0.079728882   -0.12781045     0             -0.064650224   -0.002030162  
  40420000   0.069041964   -0.14164434     0             -0.086950161   -0.0061159674 
  40430000   0.079168378   -0.1425717      0             -0.079855504    0.0088013452 
  40440000   0.07873705    -0.1319573      0             -0.06958279    -0.12094309   
  40450000   0.068028301   -0.1555147      0             -0.10162353    -0.036843069  
  40460000   0.063520334   -0.15833208     0             -0.10801207    -0.037041634  
  40470000   0.074465204   -0.14580899     0             -0.086818585   -0.031499787  
  40480000   0.070529695   -0.15802292     0             -0.10215018    -0.026132216  
  40490000   0.071971332   -0.15559816     0             -0.09858337    -0.03051134   
  40500000   0.07423558    -0.15790589     0             -0.099097388   -0.085481248  
  40510000   0.066167352   -0.13882294     0             -0.086405993   -0.047858297  
  40520000   0.066140501   -0.14702868     0             -0.094632999   -0.01283006   
  40530000   0.068605317   -0.13774186     0             -0.08339358    -0.09622301   
  40540000   0.068562771   -0.13949547     0             -0.085180901   -0.042137859  
  40550000   0.070811612   -0.15443222     0             -0.098336146   -0.03126922   
  40560000   0.075874688   -0.15021658     0             -0.0901096     -0.014182456  
  40570000   0.074476431   -0.14801493     0             -0.089015628   -0.021064663  
  40580000   0.07242546    -0.14835492     0             -0.09098038    -0.024357401  
  40590000   0.073336456   -0.14893377     0             -0.090837545    0.049358618  
  40600000   0.072027386   -0.13397662     0             -0.07691742    -0.050373129  
  40610000   0.068823709   -0.14670424     0             -0.092182957   -0.0057102313 
  40620000   0.073020114   -0.1388459      0             -0.081000274   -0.010976676  
  40630000   0.064571312   -0.14059855     0             -0.089445959    0.059617359  
  40640000   0.065880371   -0.14544465     0             -0.09325504    -0.051802532  
  40650000   0.076451287   -0.13928044     0             -0.078716689    0.025652834  
  40660000   0.062137856   -0.13753592     0             -0.08831109    -0.050907239  
  40670000   0.070120839   -0.14165038     0             -0.086101525   -0.00065393581
  40680000   0.06668339    -0.14574252     0             -0.092916775    0.0049146333 
  40690000   0.063144633   -0.15391111     0             -0.10388872    -0.034557534  
  40700000   0.072084956   -0.15555426     0             -0.09844946    -0.016558992  
  40710000   0.068183535   -0.15866515     0             -0.104651      -0.093492679  
  40720000   0.065291704   -0.15865274     0             -0.10692947    -0.047864631  
  40730000   0.073572759   -0.14926811     0             -0.090984688    0.053455339  
  40740000   0.066438634   -0.14889037     0             -0.096258512   -0.076232456  
  40750000   0.066719485   -0.16506164     0             -0.1122073     -0.1194911    
  40760000   0.069325387   -0.14698361     0             -0.092064909   -0.013175169  
  40770000   0.072206833   -0.14083523     0             -0.083633882    0.039930294  
  40780000   0.069749151   -0.15398631     0             -0.098731905   -0.095819565  
  40790000   0.074483957   -0.14895726     0             -0.089951996   -0.075725342  
  40800000   0.070986694   -0.13588241     0             -0.079647643   -0.042244214  
  40810000   0.075000806   -0.14504558     0             -0.085630876    0.041244392  
  40820000   0.069566903   -0.14434444     0             -0.089234413   -0.062635634  
  40830000   0.066374561   -0.14722298     0             -0.094641885   -0.0094612297 
  40840000   0.068510396   -0.15018518     0             -0.095912103    0.075317634  
  40850000   0.075459606   -0.15360397     0             -0.093825816   -0.079591296  
  40860000   0.068129195   -0.14627821     0             -0.092307109    0.04697637   
  40870000   0.071872407   -0.14581344     0             -0.088877022   -0.041974063  
  40880000   0.07037304    -0.15183754     0             -0.096088893    0.015775321  
  40890000   0.065149162   -0.15545051     0             -0.10384016     0.0031195949 
  40900000   0.062793573   -0.15095455     0             -0.10121027    -0.047285051  
  40910000   0.063669415   -0.14221984     0             -0.091781727   -0.029473695  
  40920000   0.07004025    -0.15508168     0             -0.099596669   -0.05717781   
  40930000   0.081090029   -0.14232366     0             -0.078085149   -0.14722725   
  40940000   0.068555442   -0.14646822     0             -0.092159451   -0.025780036  
  40950000   0.081052204   -0.14987955     0             -0.085671011   -0.010976995  
  40960000   0.058369947   -0.16393492     0             -0.11769497     0.01455034   
  40970000   0.078596758   -0.15041738     0             -0.088154011   -0.15200076   
  40980000   0.072585039   -0.14869966     0             -0.091198699   -0.055449915  
  40990000   0.070631993   -0.15848989     0             -0.10253611    -0.014734783  
  41000000   0.067773249   -0.17576564     0             -0.12207651    -0.099275763  
  41010000   0.068786484   -0.16000883     0             -0.10551703    -0.030294049  
  41020000   0.073018809   -0.16357713     0             -0.10573254     0.0046948759 
  41030000   0.069536248   -0.15728884     0             -0.10220309    -0.095514919  
  41040000   0.072487783   -0.1653758      0             -0.10795188    -0.07241827   
  41050000   0.07716892    -0.139841       0             -0.078708746   -0.0095397668 
  41060000   0.070760228   -0.16156634     0             -0.10551097     0.0033029304 
  41070000   0.064137022   -0.16886513     0             -0.11805658     0.019190444  
  41080000   0.075398179   -0.16889937     0             -0.10916987    -0.075700336  
  41090000   0.067070276   -0.147104       0             -0.093971763   -0.12248574   
  41100000   0.065461633   -0.16816949     0             -0.1163116      0.0046564789 
  41110000   0.072151368   -0.1432662      0             -0.086108791   -0.063147111  
  41120000   0.06996804    -0.16621982     0             -0.11079201    -0.062295919  
  41130000   0.070561567   -0.16240385     0             -0.10650586    -0.044103466  
  41140000   0.072787813   -0.17854893     0             -0.12088733     0.0044956075 
  41150000   0.068826736   -0.16679764     0             -0.11227396     0.052306321  
  41160000   0.077748179   -0.15053732     0             -0.088946187   -0.029665619  
  41170000   0.067359517   -0.15716327     0             -0.10380191     0.020510263  
  41180000   0.078111549   -0.17008223     0             -0.10820324    -0.026575557  
  41190000   0.073122726   -0.17099032     0             -0.11306341    -0.014892499  
  41200000   0.066489594   -0.16144247     0             -0.10877025    -0.02501625   
  41210000   0.071062957   -0.15933375     0             -0.10303856    -0.1094638    
  41220000   0.076864519   -0.15461993     0             -0.093728816    0.034174204  
  41230000   0.080274632   -0.16941533     0             -0.10582277     0.064024479  
  41240000   0.07469633    -0.17186807     0             -0.11269457     0.037268337  
  41250000   0.070489308   -0.15583924     0             -0.099998491   -0.040132532  
  41260000   0.064848741   -0.14292265     0             -0.091550289   -0.022344473  
  41270000   0.071323384   -0.14647655     0             -0.089975059   -0.014558584  
  41280000   0.078744669   -0.16043891     0             -0.09805837     0.017061574  
  41290000   0.075051732   -0.14229454     0             -0.082839495   -0.045496169  
  41300000   0.073073602   -0.1501291      0             -0.092241108   -0.06084224   
  41310000   0.069081923   -0.15142832     0             -0.096702489   -0.074417595  
  41320000   0.065562607   -0.15278422     0             -0.10084635     0.013323503  
  41330000   0.067052338   -0.13761691     0             -0.084498882    0.055099177  
  41340000   0.065878736   -0.13911699     0             -0.086928676   -0.03490885   
  41350000   0.067864741   -0.13922783     0             -0.085466227   -0.045969316  
  41360000   0.079061028   -0.14151304     0             -0.07888188    -0.10530559   
  41370000   0.072504384   -0.13541378     0             -0.07797671     0.044064502  
  41380000   0.066870623   -0.13433493     0             -0.08136086    -0.012104557  
  41390000   0.069102722   -0.15102964     0             -0.096287322   -0.028396818  
  41400000   0.078215105   -0.15400093     0             -0.092039906    0.075815387  
  41410000   0.069818011   -0.16157939     0             -0.10627044    -0.0026963952 
  41420000   0.074872815   -0.15209104     0             -0.092777732   -0.031753167  
  41430000   0.068644474   -0.15033752     0             -0.095958223   -0.084098502  
  41440000   0.072157379   -0.14863605     0             -0.091473875    0.0053974331 
  41450000   0.073342089   -0.15543243     0             -0.097331746   -0.0094438781 
  41460000   0.066055172   -0.15270275     0             -0.10037467     0.032315992  
  41470000   0.071347174   -0.14909393     0             -0.092573588    0.016312486  
  41480000   0.074639015   -0.1486263      0             -0.089498208    0.090972606  
  41490000   0.066685447   -0.13850489     0             -0.085677516   -0.0058880585 
  41500000   0.07420751    -0.13861366     0             -0.079827403   -0.028338662  
  41510000   0.071614924   -0.16030021     0             -0.10356776    -0.065102984  
  41520000   0.065765065   -0.15271267     0             -0.10061441    -0.05148554   
  41530000   0.064959372   -0.14785289     0             -0.096392888    0.047598623  
  41540000   0.075436716   -0.13917166     0             -0.079411632   -0.0015251694 
  41550000   0.072659375   -0.15265286     0             -0.09509301     0.044055697  
  41560000   0.073122152   -0.13724423     0             -0.07931778    -0.017473089  
  41570000   0.06956214    -0.14009914     0             -0.084992882   -0.095053597  
  41580000   0.07290806    -0.15257252     0             -0.094815668   -0.052483117  
  41590000   0.069536139   -0.14544489     0             -0.090359233   -0.011161361  
  41600000   0.074276563   -0.146194       0             -0.08735303     0.018654312  
  41610000   0.06844314    -0.14989268     0             -0.09567288    -0.012819683  
  41620000   0.072470945   -0.14978607     0             -0.092375498    0.0010315802 
  41630000   0.078000702   -0.15655619     0             -0.094765007    0.005837923  
  41640000   0.075890346   -0.14488933     0             -0.084769951   -0.075535048  
  41650000   0.073444593   -0.14569539     0             -0.087513505   -0.028679161  
  41660000   0.068526709   -0.1507768      0             -0.096490798   -0.072026928  
  41670000   0.070031996   -0.1528958      0             -0.097417331   -0.038663225  
  41680000   0.070578968   -0.1435582      0             -0.087646425   -0.025642642  
  41690000   0.063620676   -0.13276123     0             -0.08236173     0.02542151   
  41700000   0.070850535   -0.14414806     0             -0.088021157   -0.049321755  
  41710000   0.065869583   -0.13907198     0             -0.086890923    0.0066805479 
  41720000   0.07552972    -0.1443815      0             -0.084547799    0.0096375317 
  41730000   0.06960577    -0.14980057     0             -0.094659747    0.021496315  
  41740000   0.074442747   -0.15785372     0             -0.098881103   -0.019694438  
  41750000   0.079859615   -0.1466612      0             -0.083397407   -0.076293068  
  41760000   0.072797041   -0.1673655      0             -0.10969659    -0.095419102  
  41770000   0.078109842   -0.13927921     0             -0.077401572   -0.042043311  
  41780000   0.075770425   -0.13162755     0             -0.071603169   -0.034559711  
  41790000   0.071349272   -0.11578852     0             -0.05926652     0.010515415  
  41800000   0.06987375    -0.13615076     0             -0.08079765     0.028180513  
  41810000   0.075838388   -0.13080925     0             -0.070731026   -0.034879608  
  41820000   0.081093644   -0.13909382     0             -0.074852448    0.014676211  
  41830000   0.074565618   -0.13232762     0             -0.073257664   -0.11894349   
  41840000   0.067915081   -0.13158044     0             -0.077778961   -0.005118554  
  41850000   0.069224565   -0.14127269     0             -0.086433855   -0.034639962  
  41860000   0.072987006   -0.13360831     0             -0.07578892    -0.04475491   
  41870000   0.070370857   -0.12697358     0             -0.071226665    0.057134409  
  41880000   0.071830888   -0.13957769     0             -0.082674163   -0.059590709  
  41890000   0.075086131   -0.14492706     0             -0.085444763    0.0037983036 
  41900000   0.075740012   -0.14800571     0             -0.088005423   -0.046838026  
  41910000   0.063463836   -0.15185079     0             -0.10157554    -0.014243289  
  41920000   0.065225564   -0.15024903     0             -0.098578152   -0.0078178325 
  41930000   0.063353094   -0.15749769     0             -0.10731016    -0.036337453  
  41940000   0.069709352   -0.16082847     0             -0.1056056     -0.059349414  
  41950000   0.074896794   -0.16168666     0             -0.10235436    -0.029227817  
  41960000   0.072722032   -0.15595857     0             -0.098349082   -0.037800403  
  41970000   0.067742287   -0.17063226     0             -0.11696767     0.0006677042 
  41980000   0.063488157   -0.1561437      0             -0.10584917     0.041884489  
  41990000   0.066951483   -0.13286555     0             -0.079827421   -0.10507499   
  42000000   0.065247963   -0.12877593     0             -0.077087308   -0.008351757  
  42010000   0.068679507   -0.15321411     0             -0.09880706    -0.038914988  
  42020000   0.066903263   -0.15523019     0             -0.10223026    -0.057286991  
  42030000   0.074319042   -0.16384048     0             -0.10496586    -0.026975996  
  42040000   0.068875039   -0.13868648     0             -0.084124537    0.067299708  
  42050000   0.073523942   -0.14629827     0             -0.088053525   -0.012919739  
  42060000   0.079659341   -0.15300914     0             -0.089904001   -0.010672111  
  42070000   0.071474817   -0.14940428     0             -0.092782828   -0.08732444   
  42080000   0.076142728   -0.14796425     0             -0.087644934   -0.024154782  
  42090000   0.068644197   -0.15330789     0             -0.098928814   -0.045257055  
  42100000   0.078046984   -0.1361784      0             -0.074350555    0.034161777  
  42110000   0.064865595   -0.14489181     0             -0.093506096    0.032583081  
  42120000   0.065016804   -0.14773692     0             -0.096231424   -0.015598048  
  42130000   0.070919306   -0.15190911     0             -0.095727726   -0.022456063  
  42140000   0.068292315   -0.16142516     0             -0.10732484    -0.097057461  
  42150000   0.0663146     -0.14214917     0             -0.089615577    0.073745014  
  42160000   0.072107535   -0.14854869     0             -0.091426007   -0.057194978  
  42170000   0.071755711   -0.14885808     0             -0.092014101   -0.1126983    
  42180000   0.061558802   -0.13661808     0             -0.087851969   -0.081750126  
  42190000   0.070597605   -0.14166518     0             -0.085738644    0.0036027773 
  42200000   0.081272578   -0.14436231     0             -0.079979193    0.0021432313 
  42210000   0.067127463   -0.13658083     0             -0.083403288    0.047974152  
  42220000   0.072650486   -0.14390611     0             -0.086353307   -0.028287235  
  42230000   0.078724095   -0.13136059     0             -0.068996343   -0.090736056  
  42240000   0.069538935   -0.13466783     0             -0.079579959   -0.084985068  
  42250000   0.076350869   -0.13047826     0             -0.069994059   -0.082519011  
  42260000   0.066272072   -0.14739463     0             -0.094894725    0.046005296  
  42270000   0.072066863   -0.14147454     0             -0.08438407     0.0019194465 
  42280000   0.067762519   -0.12663911     0             -0.072958489   -0.040641658  
  42290000   0.071660735   -0.15341385     0             -0.096645114   -0.0026381759 
  42300000   0.069666188   -0.15493559     0             -0.099746909   -0.042558685  
  42310000   0.077554564   -0.15301219     0             -0.091574435   -0.013937738  
  42320000   0.075140831   -0.13077051     0             -0.071244881    0.031997319  
  42330000   0.062870083   -0.14476308     0             -0.094958189   -0.0087288307 
  42340000   0.071047669   -0.13343236     0             -0.077149289   -0.055589881  
  42350000   0.077952125   -0.13547184     0             -0.073719138    0.002793057  
  42360000   0.07339771    -0.1196189      0             -0.061474149   -0.06800572   
  42370000   0.076784053   -0.12821642     0             -0.067389049    0.059017069  
  42380000   0.075513959   -0.12788452     0             -0.068063304   -0.042667726  
  42390000   0.076392455   -0.124405       0             -0.063887848   -0.012406277  
  42400000   0.071981738   -0.1202633      0             -0.063240266   -0.018714412  
  42410000   0.060007404   -0.12684489     0             -0.07930777    -0.019671657  
  42420000   0.079536931   -0.13827932     0             -0.075271155   -0.10160238   
  42430000   0.068411005   -0.13571723     0             -0.081522883   -0.011465213  
  42440000   0.073660603   -0.13874334     0             -0.08039033     0.063612308  
  42450000   0.072321043   -0.12936281     0             -0.072070989    0.01139465   
  42460000   0.079234921   -0.1320416      0             -0.069272688    0.08377107   
  42470000   0.073509588   -0.14140559     0             -0.083172209   -0.058989948  
  42480000   0.062250722   -0.13457789     0             -0.085263649   -0.14495033   
  42490000   0.072619506   -0.14155497     0             -0.084026709   -0.050660029  
  42500000   0.071823861   -0.15728272     0             -0.10038476    -0.04616434   
  42510000   0.070859533   -0.15506423     0             -0.098930192   -0.08870536   
  42520000   0.067862396   -0.1448711      0             -0.091111356    0.096251414  
  42530000   0.064502235   -0.15013334     0             -0.099035475   -0.010316263  
  42540000   0.067224574   -0.13623763     0             -0.082983164    0.045640046  
  42550000   0.07015554    -0.15139698     0             -0.095820637   -0.025436658  
  42560000   0.05957327    -0.13558036     0             -0.088387161   -0.00015573369
  42570000   0.06683668    -0.14602456     0             -0.093077377    0.018452227  
  42580000   0.079411584   -0.1521938      0             -0.089284931   -0.048185819  
  42590000   0.067937823   -0.14599236     0             -0.092172871   -0.021644761  
  42600000   0.077020741   -0.15116979     0             -0.090154925   -0.007959633  
  42610000   0.074463545   -0.1494441      0             -0.090455011    0.028923953  
  42620000   0.076386675   -0.13007417     0             -0.069561605    0.015956406  
  42630000   0.065241351   -0.135324       0             -0.083640617    0.053203291  
  42640000   0.058500724   -0.14991444     0             -0.1035709     -0.090672784  
  42650000   0.070029981   -0.15503085     0             -0.099553975   -0.059118304  
  42660000   0.077324745   -0.15191564     0             -0.09065994    -0.055526573  
  42670000   0.068691401   -0.13843576     0             -0.084019292   -0.033392399  
  42680000   0.073247613   -0.15115804     0             -0.093132199    0.034418228  
  42690000   0.067399887   -0.14481137     0             -0.091418021    0.026566771  
  42700000   0.075562897   -0.14962169     0             -0.089761705    0.046606119  
  42710000   0.070264612   -0.14725621     0             -0.091593465   -0.033632982  
  42720000   0.080583791   -0.14484778     0             -0.081010304    0.086384967  
  42730000   0.063086182   -0.14237174     0             -0.092395658   -0.039661226  
  42740000   0.071135421   -0.14452825     0             -0.088175662    0.03663322   
  42750000   0.071593118   -0.15423551     0             -0.097520336   -0.053092796  
  42760000   0.074304829   -0.14904802     0             -0.090184666    0.042080661  
  42770000   0.06751527    -0.13646824     0             -0.082983486    0.028990339  
  42780000   0.067692635   -0.15294912     0             -0.09932386    -0.033604723  
  42790000   0.079574233   -0.14288971     0             -0.079851995   -0.027549207  
  42800000   0.067793774   -0.15464919     0             -0.10094381     0.091406655  
  42810000   0.074699827   -0.16117613     0             -0.10199986    -0.001924786  
  42820000   0.0737996     -0.14665719     0             -0.088194068   -0.069721277  
  42830000   0.07757619    -0.15191757     0             -0.090462687   -0.061462642  
  42840000   0.063141062   -0.15438733     0             -0.10436777     0.016573548  
  42850000   0.067241396   -0.14615414     0             -0.092886346    0.03299668   
  42860000   0.078249059   -0.1475434      0             -0.085555478    0.0086206006 
  42870000   0.066371538   -0.15342127     0             -0.10084257     0.0078493315 
  42880000   0.062042355   -0.14542715     0             -0.096277977   -0.056836642  
  42890000   0.070530239   -0.15356315     0             -0.097689972    0.010252354  
  42900000   0.075730767   -0.15608177     0             -0.096088803    0.028297905  
  42910000   0.069148735   -0.15327529     0             -0.098496528   -0.014866889  
  42920000   0.06989709    -0.15873077     0             -0.10335917     0.0025065396 
  42930000   0.074190725   -0.14605012     0             -0.087277152    0.049254095  
  42940000   0.07677083    -0.15491871     0             -0.094101814   -0.014107033  
  42950000   0.066649101   -0.16186233     0             -0.10906375     0.038508223  
  42960000   0.061691426   -0.14918589     0             -0.10031471     0.03942025   
  42970000   0.072100884   -0.14306283     0             -0.085945412   -0.034046993  
  42980000   0.065118791   -0.16261077     0             -0.11102448     0.0082653197 
  42990000   0.078511384   -0.15442975     0             -0.092234015   -0.10109325   
  43000000   0.070636268   -0.13391398     0             -0.077956809   -0.010156956  
  43010000   0.068498422   -0.1559055      0             -0.10164191    -0.0024164092 
  43020000   0.076883445   -0.14319153     0             -0.08228543     0.029840283  
  43030000   0.078607685   -0.13403326     0             -0.071761239    0.027123703  
  43040000   0.074631619   -0.15267184     0             -0.093549608   -0.01101492   
  43050000   0.068861632   -0.14577738     0             -0.091226058    0.020535959  
  43060000   0.075445689   -0.14844585     0             -0.08867872    -0.051026713  
  43070000   0.068031181   -0.15104419     0             -0.097150735    0.02220505   
  43080000   0.063873108   -0.14336204     0             -0.092762566   -0.037961384  
  43090000   0.069944681   -0.1349962      0             -0.079586902    0.0042557992 
  43100000   0.080939701   -0.15314429     0             -0.089024875    0.020771461  
  43110000   0.072396312   -0.14487365     0             -0.087522199   -0.043318356  
  43120000   0.071983565   -0.1459257      0             -0.088901221    0.04516174   
  43130000   0.075717392   -0.15887778     0             -0.098895407    0.087092966  
  43140000   0.06923035    -0.15378001     0             -0.098936593   -0.089740409  
  43150000   0.067556797   -0.14713248     0             -0.09361483    -0.13284899   
  43160000   0.074381448   -0.15752583     0             -0.098601774   -0.024980503  
  43170000   0.071408415   -0.14727159     0             -0.090702737    0.0040415523 
  43180000   0.070443889   -0.14588575     0             -0.090080986    0.033063728  
  43190000   0.077752091   -0.13626241     0             -0.074668179    0.012099315  
  43200000   0.069131953   -0.13005125     0             -0.075285782    0.033990115  
  43210000   0.068399675   -0.12956102     0             -0.075375651   -0.043073647  
  43220000   0.065711182   -0.13151794     0             -0.079462364   -0.00059620913
  43230000   0.073460463   -0.13658174     0             -0.078387276    0.084146723  
  43240000   0.063088155   -0.14455333     0             -0.094575679    0.030393532  
  43250000   0.071871592   -0.14021434     0             -0.08327856    -0.013671737  
  43260000   0.068886536   -0.14630291     0             -0.091731862   -0.053869692  
  43270000   0.070342981   -0.12638858     0             -0.070663746    0.050398786  
  43280000   0.070825636   -0.15165366     0             -0.095546476   -0.032752243  
  43290000   0.070619772   -0.15162643     0             -0.095682333   -0.052831228  
  43300000   0.059147095   -0.15160355     0             -0.10474796    -0.0089238108 
  43310000   0.06483989    -0.16570654     0             -0.11434119     0.058004567  
  43320000   0.076634087   -0.15352973     0             -0.092821167   -0.027819057  
  43330000   0.068218689   -0.15268925     0             -0.098647253   -0.091959473  
  43340000   0.075118476   -0.13166817     0             -0.072160256   -0.067317762  
  43350000   0.062756305   -0.12921092     0             -0.079496155   -0.0092977061 
  43360000   0.068249263   -0.13738012     0             -0.083313903   -0.01249892   
  43370000   0.07000382    -0.14432503     0             -0.088868877    0.00015028152
  43380000   0.07454881    -0.12350719     0             -0.064450558    0.037441872  
  43390000   0.064815087   -0.14862788     0             -0.097282175    0.027731807  
  43400000   0.081946663   -0.14628485     0             -0.081367725   -0.008768823  
  43410000   0.073709344   -0.13840712     0             -0.080015497   -0.01296754   
  43420000   0.074902158   -0.14709645     0             -0.087759894   -0.053072865  
  43430000   0.072299968   -0.14980173     0             -0.092526596   -0.070384106  
  43440000   0.082300071   -0.14600776     0             -0.080810673    0.049494332  
  43450000   0.071935283   -0.16140917     0             -0.10442294    -0.024619529  
  43460000   0.074472217   -0.15987415     0             -0.10087819    -0.017171781  
  43470000   0.06997209    -0.15647757     0             -0.10104656     0.044509012  
  43480000   0.065455864   -0.15985401     0             -0.1080007     -0.040986306  
  43490000   0.066852105   -0.15360846     0             -0.10064906    -0.088554674  
  43500000   0.072608378   -0.14780701     0             -0.090287565    0.048681686  
  43510000   0.077452216   -0.12841123     0             -0.067054556   -0.018062238  
  43520000   0.07151663    -0.13630371     0             -0.079649133   -0.040810756  
  43530000   0.071258406   -0.14305265     0             -0.086602635    0.026239071  
  43540000   0.072359464   -0.12435612     0             -0.067033856   -0.0093624154 
  43550000   0.068731808   -0.14093535     0             -0.086486866   -0.04948395   
  43560000   0.070610306   -0.13648892     0             -0.080552314   -0.0069305197 
  43570000   0.07372651    -0.12907551     0             -0.070670296   -0.032528351  
  43580000   0.076883448   -0.14668795     0             -0.085781847    0.028873216  
  43590000   0.077054552   -0.16010023     0             -0.099058578    0.038503172  
  43600000   0.068042586   -0.14213507     0             -0.088232583    0.044249695  
  43610000   0.070155228   -0.14720074     0             -0.09162465    -0.026929334  
  43620000   0.070819756   -0.131287       0             -0.075184472    0.023843612  
  43630000   0.077059988   -0.15219054     0             -0.091144578   -0.0099163581 
  43640000   0.077677582   -0.15296126     0             -0.091426049   -0.0075663194 
  43650000   0.070849202   -0.15009603     0             -0.093970175   -0.066218136  
  43660000   0.072140446   -0.15908925     0             -0.10194049     0.09455437   
  43670000   0.064778401   -0.14496793     0             -0.093651295    0.018659173  
  43680000   0.072053802   -0.14531225     0             -0.088232131   -0.07503497   
  43690000   0.067774235   -0.14686895     0             -0.093179045    0.018509099  
  43700000   0.069276364   -0.14821691     0             -0.093337042    0.023894065  
  43710000   0.075568089   -0.15443958     0             -0.094575489   -0.021512453  
  43720000   0.065442476   -0.16552406     0             -0.11368135    -0.0016306695 
  43730000   0.06914332    -0.14231851     0             -0.087544035   -0.017873075  
  43740000   0.07505746    -0.1572         0             -0.097740419   -0.052153454  
  43750000   0.072591462   -0.14385399     0             -0.086347941   -0.010206984  
  43760000   0.083629897   -0.14132686     0             -0.075076304    0.032382588  
  43770000   0.072446865   -0.13850625     0             -0.081114749    0.0053485926 
  43780000   0.073216551   -0.14078981     0             -0.082788569   -0.057043937  
  43790000   0.074324303   -0.13981525     0             -0.080936462   -0.078599918  
  43800000   0.07417952    -0.14093402     0             -0.08216993     0.01873056   
  43810000   0.075981094   -0.15275012     0             -0.09255885    -0.061768414  
  43820000   0.071781849   -0.15160789     0             -0.094743205    0.053764687  
  43830000   0.080189703   -0.14028075     0             -0.076755473   -0.08185371   
  43840000   0.070558456   -0.12721616     0             -0.07132063     0.013226635  
  43850000   0.073562731   -0.12566426     0             -0.067388782    0.04099071   
  43860000   0.071458966   -0.1422263      0             -0.085617398   -0.072827797  
  43870000   0.077335269   -0.14020404     0             -0.078940011    0.060098917  
  43880000   0.066107376   -0.14138935     0             -0.089019915   -0.011241577  
  43890000   0.067025257   -0.14703283     0             -0.093936259   -0.092248705  
  43900000   0.069626804   -0.14095416     0             -0.085796675   -0.083260193  
  43910000   0.072471602   -0.15622003     0             -0.098808932   -0.036751349  
  43920000   0.07486396    -0.14346526     0             -0.08415897     0.012783478  
  43930000   0.07609545    -0.15320088     0             -0.092919014    0.021988814  
  43940000   0.075162152   -0.13529335     0             -0.075750829    0.024771073  
  43950000   0.072029394   -0.14071497     0             -0.083654183    0.00056551053
  43960000   0.074074297   -0.1507472      0             -0.092066467   -0.01404945   
  43970000   0.070488377   -0.15596244     0             -0.10012242    -0.044836233  
  43980000   0.067342771   -0.13886205     0             -0.085513951   -0.058811298  
  43990000   0.071788169   -0.15597735     0             -0.099107655    0.042529996  
  44000000   0.077484101   -0.1487454      0             -0.087363461    0.01404577   
  44010000   0.078783308   -0.1714635      0             -0.10905235    -0.070421718  
  44020000   0.071966804   -0.14348419     0             -0.08647299    -0.0125257    
  44030000   0.071320061   -0.14353692     0             -0.087038059   -0.02225681   
  44040000   0.069660224   -0.15792175     0             -0.10273779     0.027609087  
  44050000   0.070404098   -0.14826926     0             -0.092496009    0.045724158  
  44060000   0.066802569   -0.14578782     0             -0.09286766    -0.061269571  
  44070000   0.078020533   -0.1400242      0             -0.07821731     0.039761593  
  44080000   0.075049203   -0.15527686     0             -0.095823816    0.041417559  
  44090000   0.068287211   -0.13743313     0             -0.083336852   -0.069711836  
  44100000   0.075853092   -0.14511205     0             -0.085022182   -0.10169549   
  44110000   0.068452504   -0.13630592     0             -0.082078703    0.028747415  
  44120000   0.076864479   -0.14016149     0             -0.079270406   -0.043056267  
  44130000   0.069495487   -0.15407707     0             -0.099023618   -0.035677055  
  44140000   0.074381312   -0.1596571      0             -0.10073316    -0.019219679  
  44150000   0.074140294   -0.15872955     0             -0.099996536    0.010522134  
  44160000   0.075524146   -0.16157928     0             -0.10175       -0.050537353  
  44170000   0.068572305   -0.14752128     0             -0.093199158   -0.042758522  
  44180000   0.08028757    -0.12415973     0             -0.060556916    0.0092091153 
  44190000   0.074183828   -0.14279198     0             -0.084024483   -0.019420987  
  44200000   0.068725094   -0.15402819     0             -0.09958503     0.04644334   
  44210000   0.06643804    -0.15445471     0             -0.10182332    -0.087475413  
  44220000   0.072697711   -0.14182866     0             -0.08423844     0.039036814  
  44230000   0.078276374   -0.14044175     0             -0.078432189   -0.13495613   
  44240000   0.074044614   -0.14752899     0             -0.088871775    0.022758096  
  44250000   0.070848119   -0.14593396     0             -0.089808968    0.078402988  
  44260000   0.075255247   -0.15444736     0             -0.094831098    0.025080135  
  44270000   0.079034831   -0.16050268     0             -0.097892275   -0.035341201  
  44280000   0.066576338   -0.15516821     0             -0.10242726    -0.0017885624 
  44290000   0.069498057   -0.16728015     0             -0.11222465    -0.0091626345 
  44300000   0.075752648   -0.15567482     0             -0.095664524   -0.036337897  
  44310000   0.073715499   -0.15672558     0             -0.098329083   -0.10172292   
  44320000   0.071542055   -0.1539374      0             -0.097262678   -0.010342348  
  44330000   0.079126014   -0.15160896     0             -0.088926323   -0.14992743   
  44340000   0.081561277   -0.14341458     0             -0.078802756   -0.071219765  
  44350000   0.068239852   -0.14456321     0             -0.090504456   -0.043163762  
  44360000   0.06657453    -0.14364711     0             -0.090907599    0.019991666  
  44370000   0.076504624   -0.13141679     0             -0.070810783    0.020060714  
  44380000   0.067923268   -0.14431492     0             -0.090506955    0.010208397  
  44390000   0.064108076   -0.15113539     0             -0.10034977    -0.010651387  
  44400000   0.074113137   -0.15485679     0             -0.096145293   -0.0080938144 
  44410000   0.068836085   -0.15395068     0             -0.099419591    0.029688219  
  44420000   0.067045853   -0.15152906     0             -0.098416175    0.046473917  
  44430000   0.07215665    -0.15360388     0             -0.09644228    -0.030852265  
  44440000   0.084079035   -0.15972185     0             -0.093115487   -0.10429515   
  44450000   0.070804149   -0.14477444     0             -0.088684278    0.024314701  
  44460000   0.067138014   -0.15186441     0             -0.098678511    0.012843535  
  44470000   0.070089631   -0.13733081     0             -0.081806678    0.043728375  
  44480000   0.073885295   -0.13886695     0             -0.080335946   -0.0014893191 
  44490000   0.070867398   -0.15290876     0             -0.09676849     0.037859157  
  44500000   0.069728215   -0.16145644     0             -0.10621862    -0.063120427  
  44510000   0.068342827   -0.14061713     0             -0.0864768     -0.050907981  
  44520000   0.078163375   -0.14778067     0             -0.08586062    -0.11678976   
  44530000   0.074170774   -0.12551973     0             -0.066762571   -0.038313332  
  44540000   0.077939314   -0.13420841     0             -0.072465861    0.00086905866
  44550000   0.067468878   -0.13865704     0             -0.08520904    -0.049402113  
  44560000   0.072946578   -0.15707935     0             -0.099291987   -0.095621542  
  44570000   0.073610978   -0.14028715     0             -0.081973454    0.049445503  
  44580000   0.071128337   -0.13929148     0             -0.082944499   -0.019190262  
  44590000   0.072754654   -0.14059242     0             -0.082957094   -0.0064297435 
  44600000   0.062033724   -0.16026659     0             -0.11112425    -0.038270288  
  44610000   0.074804033   -0.15574771     0             -0.096488886    0.024505801  
  44620000   0.067897524   -0.1598972      0             -0.10610963    -0.028024252  
  44630000   0.070303749   -0.16853955     0             -0.1128458     -0.065362884  
  44640000   0.060123963   -0.1665553      0             -0.11892585    -0.069133593  
  44650000   0.071967384   -0.14178849     0             -0.084776829   -0.01238551   
  44660000   0.074705075   -0.14745329     0             -0.088272859    0.019355379  
  44670000   0.067008847   -0.173746       0             -0.12066243     0.024264148  
  44680000   0.07425262    -0.1643243      0             -0.1055023      0.051622333  
  44690000   0.079324228   -0.13626935     0             -0.073429685    0.081843976  
  44700000   0.065778365   -0.15130127     0             -0.099192474   -0.051652558  
  44710000   0.072240941   -0.13483963     0             -0.077611261   -0.019914033  
  44720000   0.07099127    -0.13655029     0             -0.08031189     0.032734916  
  44730000   0.068168706   -0.12849789     0             -0.074495491   -0.084204981  
  44740000   0.069639165   -0.13920133     0             -0.084034053   -0.045482865  
  44750000   0.072491066   -0.13582105     0             -0.078394536   -0.0072638416 
  44760000   0.067698654   -0.12568378     0             -0.072053756   -0.010003757  
  44770000   0.073917248   -0.13430248     0             -0.075746162   -0.072651619  
  44780000   0.068771637   -0.15218254     0             -0.097702508    0.050390041  
  44790000   0.072084923   -0.15553293     0             -0.09842815    -0.013925286  
  44800000   0.070341979   -0.14868656     0             -0.09296252    -0.047507699  
  44810000   0.069932766   -0.14253733     0             -0.087137464    0.0098345545 
  44820000   0.076854286   -0.13957459     0             -0.078691583   -0.054787122  
  44830000   0.066483637   -0.14204914     0             -0.089381631    0.074132451  
  44840000   0.07020268    -0.14825115     0             -0.092637466   -0.042448933  
  44850000   0.073366341   -0.14197807     0             -0.083858168   -0.035349038  
  44860000   0.07471247    -0.13885221     0             -0.079665922    0.098278168  
  44870000   0.074933007   -0.13488        0             -0.075519006   -0.014854387  
  44880000   0.07429737    -0.13795314     0             -0.079095692    0.0041561014 
  44890000   0.063907444   -0.14895715     0             -0.098330474    0.059117245  
  44900000   0.072562228   -0.15077475     0             -0.093291856    0.038725939  
  44910000   0.073534364   -0.14989614     0             -0.091643141   -0.072401363  
  44920000   0.070293626   -0.16943764     0             -0.11375191    -0.082996288  
  44930000   0.071719515   -0.15430769     0             -0.097492386    0.048025285  
  44940000   0.067393231   -0.16697003     0             -0.11358195     0.0061654575 
  44950000   0.076480932   -0.16559987     0             -0.10501263     0.039463295  
  44960000   0.078012972   -0.15433392     0             -0.092533021   -0.017739687  
  44970000   0.074477176   -0.14635314     0             -0.087353256    0.050027278  
  44980000   0.076131928   -0.15609383     0             -0.095783065    0.021609581  
  44990000   0.066717874   -0.16634377     0             -0.1134907     -0.073490326  
  45000000   0.06579578    -0.15794459     0             -0.105822       0.027386313  
  45010000   0.073608358   -0.16040067     0             -0.10208905    -0.007134767  
  45020000   0.079583535   -0.14554977     0             -0.082504688   -0.020674236  
  45030000   0.072783893   -0.15934695     0             -0.10168846    -0.038771628  
  45040000   0.072321729   -0.14913577     0             -0.091843405    0.012906117  
  45050000   0.077959841   -0.15162158     0             -0.089862771   -0.062446414  
  45060000   0.06846393    -0.15603973     0             -0.10180346    -0.060542323  
  45070000   0.065313459   -0.13997352     0             -0.088233011    0.0020409195 
  45080000   0.070698535   -0.1277814      0             -0.071774901   -0.055985302  
  45090000   0.078912257   -0.1254277      0             -0.062914391    0.028472878  
  45100000   0.075740711   -0.14107285     0             -0.081072004   -0.026076142  
  45110000   0.077297765   -0.15065924     0             -0.089424919   -0.014513158  
  45120000   0.068315953   -0.14708986     0             -0.09297082    -0.019321497  
  45130000   0.06997931    -0.14889994     0             -0.093463205    0.0048092027 
  45140000   0.074692233   -0.15657511     0             -0.09740486     0.029681037  
  45150000   0.070149041   -0.14217106     0             -0.086599871   -0.01456627   
  45160000   0.072385339   -0.14874203     0             -0.091399271    0.013028641  
  45170000   0.063767675   -0.14991678     0             -0.09940082     0.078193378  
  45180000   0.069531613   -0.1340175      0             -0.078935428    0.039809253  
  45190000   0.078482765   -0.14464189     0             -0.082468821   -0.061390953  
  45200000   0.076858253   -0.13754531     0             -0.076659166    0.00029685259
  45210000   0.064649322   -0.13911195     0             -0.08789757     0.0040445448 
  45220000   0.071845318   -0.15033723     0             -0.093422268   -0.022183004  
  45230000   0.065567283   -0.13651085     0             -0.084569264   -0.025439144  
  45240000   0.073494358   -0.140181       0             -0.081959684   -0.053593857  
  45250000   0.075694492   -0.14289949     0             -0.082935256    0.0077721822 
  45260000   0.071325887   -0.14792666     0             -0.091423179    0.022732109  
  45270000   0.070228154   -0.15580404     0             -0.10017017    -0.065015791  
  45280000   0.065607762   -0.14451849     0             -0.092544837    0.10223132   
  45290000   0.066620056   -0.14762842     0             -0.094852839   -0.08720122   
  45300000   0.07345755    -0.16679642     0             -0.10860427    -0.066712362  
  45310000   0.074594574   -0.15638114     0             -0.097288254   -0.059776596  
  45320000   0.066059296   -0.15167679     0             -0.099345443    0.015353733  
  45330000   0.068935056   -0.16019184     0             -0.10558235    -0.082215377  
  45340000   0.064877339   -0.15119308     0             -0.099798065   -0.00059378137
  45350000   0.073395496   -0.16240447     0             -0.10426148    -0.033876068  
  45360000   0.067205415   -0.14465671     0             -0.091417419    0.023219645  
  45370000   0.072233692   -0.13643776     0             -0.07921513    -0.033999364  
  45380000   0.076698234   -0.13341649     0             -0.072657111   -0.012348627  
  45390000   0.069602493   -0.14398968     0             -0.08885146     0.01562773   
  45400000   0.071578395   -0.14571326     0             -0.089009754   -0.04202349   
  45410000   0.080034035   -0.1561982      0             -0.092796242    0.073801606  
  45420000   0.068613823   -0.15070841     0             -0.096353396   -0.02368175   
  45430000   0.079755973   -0.14885096     0             -0.085669273   -0.0027313066 
  45440000   0.076972303   -0.13744192     0             -0.076465429    0.0013373744 
  45450000   0.07344209    -0.14656156     0             -0.088381655   -0.0033869018 
  45460000   0.073774843   -0.15834525     0             -0.099901745   -0.08389462   
  45470000   0.07834705    -0.15977194     0             -0.097706391    0.026022851  
  45480000   0.068817973   -0.1447499      0             -0.090233159    0.015587998  
  45490000   0.069811163   -0.15041907     0             -0.095115543   -0.016712355  
  45500000   0.06053047    -0.14056072     0             -0.092609238    0.024415996  
  45510000   0.074358882   -0.14791311     0             -0.089006932   -0.034252518  
  45520000   0.068444259   -0.14292317     0             -0.088702484   -0.030587909  
  45530000   0.070242403   -0.15483543     0             -0.09919028     0.061522393  
  45540000   0.065689429   -0.13597684     0             -0.083938496   -0.057333597  
  45550000   0.073653382   -0.14265095     0             -0.084303659   -0.074799557  
  45560000   0.079493106   -0.13957199     0             -0.076598543   -0.020604747  
  45570000   0.068183187   -0.15381341     0             -0.099799539    0.0075994548 
  45580000   0.076730395   -0.14726992     0             -0.086485059    0.057992769  
  45590000   0.064552971   -0.14507508     0             -0.093937025   -0.016526459  
  45600000   0.064102859   -0.15136151     0             -0.10058003     0.018737221  
  45610000   0.069673557   -0.13854945     0             -0.083354925   -0.047933899  
  45620000   0.069830013   -0.14463623     0             -0.089317765   -0.040064796  
  45630000   0.073720698   -0.15330833     0             -0.094907716    0.014758859  
  45640000   0.070773903   -0.15495922     0             -0.09889302     0.015512323  
  45650000   0.070640862   -0.15229439     0             -0.09633358    -0.1173547    
  45660000   0.077129859   -0.16524052     0             -0.10413921    -0.049651584  
  45670000   0.072230199   -0.15032699     0             -0.093107131   -0.042915733  
  45680000   0.07633358    -0.13962041     0             -0.079149907   -0.052058763  
  45690000   0.073745438   -0.15026021     0             -0.091839996   -0.044141149  
  45700000   0.060129748   -0.15030398     0             -0.10266994     0.065400265  
  45710000   0.077932683   -0.15656298     0             -0.09482568     0.0073869547 
  45720000   0.068662844   -0.17412562     0             -0.11973177    -0.023210437  
  45730000   0.07655611    -0.16383964     0             -0.10319284    -0.061932246  
  45740000   0.075516917   -0.14584218     0             -0.086018625    0.027838338  
  45750000   0.069536769   -0.15306378     0             -0.097977621    0.038530632  
  45760000   0.07191944    -0.15670392     0             -0.099730234   -0.057747366  
  45770000   0.071732612   -0.16772921     0             -0.11090353     0.073356757  
  45780000   0.06872539    -0.16115631     0             -0.10671292    -0.054013977  
  45790000   0.067697916   -0.14484837     0             -0.091218932   -0.079335164  
  45800000   0.071635041   -0.14061611     0             -0.083867727   -0.06056546   
  45810000   0.073439225   -0.14031051     0             -0.082132871    0.010216712  
  45820000   0.076535439   -0.1422593      0             -0.081628878   -0.048977251  
  45830000   0.076709787   -0.1427041      0             -0.081935565    0.021283587  
  45840000   0.072642451   -0.15519299     0             -0.097646552   -0.0696412    
  45850000   0.07458666    -0.14253877     0             -0.08345215    -0.041005367  
  45860000   0.073084532   -0.14771009     0             -0.089813436   -0.10610304   
  45870000   0.068546658   -0.14901007     0             -0.094708268    0.04298822   
  45880000   0.063519958   -0.16208451     0             -0.11176479     0.041208746  
  45890000   0.069268257   -0.16330891     0             -0.10843546    -0.023081507  
  45900000   0.0664927     -0.15986618     0             -0.10719149    -0.01125081   
  45910000   0.066932463   -0.15131394     0             -0.098290878   -0.034535253  
  45920000   0.075263768   -0.14045477     0             -0.080831753   -0.090822709  
  45930000   0.076699971   -0.13462013     0             -0.073859375   -0.0061152855 
  45940000   0.063415988   -0.14227361     0             -0.09203626    -0.064229198  
  45950000   0.065143502   -0.13830909     0             -0.086703223    0.046632704  
  45960000   0.080851741   -0.14071844     0             -0.076668704    0.018721583  
  45970000   0.066042595   -0.15072071     0             -0.098402588    0.0057961582 
  45980000   0.067404619   -0.16124598     0             -0.10784889    -0.056593032  
  45990000   0.064218883   -0.14737984     0             -0.09650644    -0.0023561234 
  46000000   0.084899839   -0.15634564     0             -0.089089053    0.0099259735 
  46010000   0.065942575   -0.15473386     0             -0.10249497     0.017670903  
  46020000   0.06871852    -0.15786753     0             -0.10342958     0.013851738  
  46030000   0.075851468   -0.13242313     0             -0.072334545   -0.07505822   
  46040000   0.07353523    -0.13962412     0             -0.081370432    0.038070026  
  46050000   0.070497606   -0.14076014     0             -0.084912813    0.026786064  
  46060000   0.0652781     -0.16264381     0             -0.11093131     0.0020938868 
  46070000   0.077811102   -0.13993304     0             -0.078292053   -0.060681613  
  46080000   0.074099996   -0.13972751     0             -0.081026418   -0.039739712  
  46090000   0.071435896   -0.13749498     0             -0.080904352   -0.07844035   
  46100000   0.071334362   -0.13791031     0             -0.08140012     0.0061642754 
  46110000   0.068814725   -0.13442996     0             -0.079915793    0.0345505    
  46120000   0.077327807   -0.14391247     0             -0.082654349   -0.013381901  
  46130000   0.063310619   -0.16149626     0             -0.11134237    -0.018265076  
  46140000   0.063804068   -0.14623996     0             -0.095695179    0.020892248  
  46150000   0.072727391   -0.16118531     0             -0.10357158    -0.027008505  
  46160000   0.075600002   -0.15306785     0             -0.093178473   -0.085236137  
  46170000   0.063984664   -0.13152388     0             -0.080836027   -0.029838456  
  46180000   0.075278213   -0.13179716     0             -0.072162696   -0.024278829  
  46190000   0.066426859   -0.13787928     0             -0.085256752    0.012776756  
  46200000   0.07448177    -0.13308615     0             -0.07408262    -0.0519388    
  46210000   0.072287858   -0.15206812     0             -0.094802579    0.0043813664 
  46220000   0.081601004   -0.14678898     0             -0.082145689   -0.0091735798 
  46230000   0.072847107   -0.16634261     0             -0.10863405    -0.048734384  
  46240000   0.078859955   -0.13861799     0             -0.076146115   -0.12293993   
  46250000   0.069711188   -0.14118961     0             -0.085965277    0.063123722  
  46260000   0.081585007   -0.13425724     0             -0.069626613    0.005489378  
  46270000   0.067823351   -0.13591144     0             -0.082182627   -0.082456423  
  46280000   0.078113778   -0.15199993     0             -0.090119174   -0.065726304  
  46290000   0.067618167   -0.1447372      0             -0.091170929   -0.14529214   
  46300000   0.066608819   -0.1546286      0             -0.10186193    -0.1198127    
  46310000   0.074477058   -0.14095606     0             -0.081956269    0.069353427  
  46320000   0.071803015   -0.15328976     0             -0.096408308   -0.012069021  
  46330000   0.075827133   -0.13876637     0             -0.078697064   -0.032377392  
  46340000   0.075278943   -0.13018935     0             -0.07055431     0.019680661  
  46350000   0.076023679   -0.1295368      0             -0.069311795    0.10509634   
  46360000   0.0729977     -0.14746628     0             -0.089638414    0.0012595291 
  46370000   0.060155545   -0.15279367     0             -0.1051392     -0.12765983   
  46380000   0.066093479   -0.15791989     0             -0.10556146    -0.016050544  
  46390000   0.069135023   -0.15968641     0             -0.10491851    -0.11540213   
  46400000   0.07108714    -0.14717262     0             -0.090858272   -0.059589651  
  46410000   0.072993559   -0.15148995     0             -0.093665362   -0.042115386  
  46420000   0.069545858   -0.14683172     0             -0.091738357    0.035974639  
  46430000   0.062563008   -0.14801412     0             -0.098452486   -0.028481124  
  46440000   0.076865319   -0.16102062     0             -0.10012888     0.077041574  
  46450000   0.066140675   -0.17232925     0             -0.11993344    -0.024574123  
  46460000   0.077213532   -0.15774226     0             -0.09657467    -0.00045089466
  46470000   0.066016284   -0.160413       0             -0.10811573     0.0028904538 
  46480000   0.080206652   -0.16244087     0             -0.098902167   -0.020739617  
  46490000   0.072243736   -0.16368383     0             -0.10645324    -0.080249189  
  46500000   0.06896667    -0.14138412     0             -0.086749584   -0.024467186  
  46510000   0.070052085   -0.13860075     0             -0.083106365    0.0033293786 
  46520000   0.072383519   -0.1344821      0             -0.077140783   -0.098205914  
  46530000   0.064367487   -0.13110054     0             -0.080109424   -0.012062047  
  46540000   0.070217557   -0.13853019     0             -0.082904724   -0.057145041  
  46550000   0.074411479   -0.14715977     0             -0.088211926   -0.037606388  
  46560000   0.077371946   -0.15434386     0             -0.093050771   -0.12785262   
  46570000   0.067208741   -0.14768858     0             -0.094446655   -0.073224912  
  46580000   0.069082835   -0.17068118     0             -0.11595462     0.062371777  
  46590000   0.06816456    -0.1661668      0             -0.11216769    -0.099959078  
  46600000   0.076415095   -0.13801179     0             -0.077476708   -0.031876536  
  46610000   0.07256255    -0.13828371     0             -0.080800564   -0.038426964  
  46620000   0.075243995   -0.13690048     0             -0.077293127   -0.064483331  
  46630000   0.065925144   -0.1355565      0             -0.083331425   -0.03934781   
  46640000   0.069745939   -0.14617601     0             -0.09092415    -0.063078726  
  46650000   0.066240195   -0.14298882     0             -0.090514163   -0.047980689  
  46660000   0.070010026   -0.13435361     0             -0.078892546    0.019486882  
  46670000   0.080720799   -0.1463611      0             -0.082415096    0.027349291  
  46680000   0.066284293   -0.14179684     0             -0.089287247    0.0035731501 
  46690000   0.076128793   -0.13273179     0             -0.072423513    0.095229786  
  46700000   0.074085377   -0.14550695     0             -0.086817441    0.052629216  
  46710000   0.073895179   -0.14811873     0             -0.08957989    -0.061605558  
  46720000   0.076334874   -0.13798915     0             -0.077517614   -0.071565506  
  46730000   0.065940016   -0.14398585     0             -0.091748992    0.058710337  
  46740000   0.078969987   -0.15012123     0             -0.087562193   -0.033751711  
  46750000   0.079259019   -0.14890674     0             -0.086118737    0.034088355  
  46760000   0.068639151   -0.15420474     0             -0.099829661   -0.044044218  
  46770000   0.078991956   -0.14249612     0             -0.079919678    0.0019804099 
  46780000   0.067972041   -0.14507912     0             -0.091232519    0.057195508  
  46790000   0.070053478   -0.13533127     0             -0.079835781    0.055795926  
  46800000   0.078372559   -0.14779525     0             -0.085709486    0.050261945  
  46810000   0.067564583   -0.1388612      0             -0.085337386   -0.042206897  
  46820000   0.06590185    -0.14144888     0             -0.089242256    0.014698945  
  46830000   0.06485233    -0.14025934     0             -0.088884139   -0.017818535  
  46840000   0.069463567   -0.13948768     0             -0.084459515   -0.081939913  
  46850000   0.072345348   -0.13511797     0             -0.077806891    0.0045700971 
  46860000   0.065906057   -0.14594505     0             -0.093735096   -0.041018373  
  46870000   0.066343863   -0.1357911      0             -0.08323432    -0.018160304  
  46880000   0.082231175   -0.14054617     0             -0.07540366    -0.02782702   
  46890000   0.072094137   -0.14260065     0             -0.085488581   -0.021778534  
  46900000   0.075822673   -0.14120668     0             -0.081140908   -0.0040941231 
  46910000   0.069490781   -0.1490474      0             -0.093997675   -0.1266991    
  46920000   0.081434995   -0.14584026     0             -0.081328472    0.055613944  
  46930000   0.071639003   -0.15263775     0             -0.095886224   -0.014899451  
  46940000   0.070815361   -0.14930308     0             -0.093204039    0.028176667  
  46950000   0.075725094   -0.14065615     0             -0.080667676   -0.049603967  
  46960000   0.070095997   -0.13807922     0             -0.08255005    -0.050297038  
  46970000   0.074072327   -0.14069344     0             -0.082014265    0.06170505   
  46980000   0.074187438   -0.16003317     0             -0.10126281    -0.077466179  
  46990000   0.071234069   -0.15795227     0             -0.10152153    -0.045580805  
  47000000   0.069924946   -0.14360186     0             -0.088208194   -0.08047497   
  47010000   0.068140414   -0.14483682     0             -0.090856837   -0.0018857145 
  47020000   0.065423691   -0.14995959     0             -0.098131765    0.0051685863 
  47030000   0.073781887   -0.16295845     0             -0.10450936     0.077815654  
  47040000   0.065102991   -0.15702019     0             -0.10544642    -0.094722873  
  47050000   0.065135205   -0.15599574     0             -0.10439645     0.037886519  
  47060000   0.07242522    -0.15099643     0             -0.093622073    0.0097415542 
  47070000   0.080719291   -0.16251515     0             -0.098570336   -0.022292546  
  47080000   0.07687961    -0.15423675     0             -0.093333686    0.0037246724 
  47090000   0.085126585   -0.15192221     0             -0.084485992   -0.042693188  
  47100000   0.080226832   -0.15055199     0             -0.086997302    0.080167751  
  47110000   0.075526788   -0.15385588     0             -0.094024504   -0.041245222  
  47120000   0.066447894   -0.15047221     0             -0.09783302    -0.022970754  
  47130000   0.0723548     -0.14831086     0             -0.090992296   -0.032399452  
  47140000   0.066538988   -0.15902734     0             -0.10631599    -0.024608071  
  47150000   0.071961799   -0.15066579     0             -0.093658555   -0.074561824  
  47160000   0.074486376   -0.16854541     0             -0.10953823     0.13585415   
  47170000   0.069998639   -0.13885109     0             -0.083399043   -0.02608182   
  47180000   0.068453098   -0.15473005     0             -0.10050236    -0.030174622  
  47190000   0.077741787   -0.14229688     0             -0.080710803   -0.045585374  
  47200000   0.07262382    -0.14023021     0             -0.082698531    0.037361769  
  47210000   0.076322518   -0.15381194     0             -0.093350198   -0.069643749  
  47220000   0.070275198   -0.16033843     0             -0.10466729    -0.041163308  
  47230000   0.06906492    -0.16753452     0             -0.11282216     0.0020189004 
  47240000   0.066504427   -0.16043241     0             -0.10774843    -0.055681697  
  47250000   0.075584112   -0.13878857     0             -0.078911777   -0.097805841  
  47260000   0.077448379   -0.14687991     0             -0.085526268    0.018919658  
  47270000   0.07075119    -0.14295482     0             -0.086906613    0.027209838  
  47280000   0.071074984   -0.13818813     0             -0.081883417   -0.0020729401 
  47290000   0.072288705   -0.13222493     0             -0.074958721   -0.0526166    
  47300000   0.066140546   -0.14855407     0             -0.096158353   -0.073477637  
  47310000   0.06526953    -0.16613638     0             -0.11443067    -0.045551254  
  47320000   0.066107557   -0.16649574     0             -0.11412616    -0.019042813  
  47330000   0.071100602   -0.16800945     0             -0.11168444     0.00098257088
  47340000   0.079263377   -0.15875537     0             -0.09596391    -0.074675305  
  47350000   0.070372913   -0.15316859     0             -0.097420052   -0.019333004  
  47360000   0.078373146   -0.13619051     0             -0.074104288   -0.017966381  
  47370000   0.070244585   -0.14129494     0             -0.085648055   -0.011830728  
  47380000   0.075804509   -0.13242521     0             -0.072373821    0.0093054545 
  47390000   0.067202806   -0.15732178     0             -0.10408456    -0.0045745627 
  47400000   0.070796991   -0.1415288      0             -0.085444311   -0.1404547    
  47410000   0.081447292   -0.15385687     0             -0.089335348   -0.020572548  
  47420000   0.068147868   -0.14736424     0             -0.093378352   -0.0068026011 
  47430000   0.068707083   -0.14988337     0             -0.095454475    0.035678104  
  47440000   0.074129449   -0.1419304      0             -0.083205978   -0.030882723  
  47450000   0.066001778   -0.15408482     0             -0.10179904    -0.034267527  
  47460000   0.068410198   -0.14627105     0             -0.092077342   -0.030235345  
  47470000   0.074403637   -0.14911159     0             -0.090169959   -0.024504593  
  47480000   0.064186016   -0.12290576     0             -0.072058403   -0.010782701  
  47490000   0.069586236   -0.13449844     0             -0.079373096   -0.019767264  
  47500000   0.071842708   -0.13629725     0             -0.079384351   -0.01767235   
  47510000   0.07187338    -0.13052573     0             -0.073588534    0.058416007  
  47520000   0.057300733   -0.1386961      0             -0.093303171    0.070058037  
  47530000   0.072865591   -0.15263094     0             -0.094907725    0.0085232731 
  47540000   0.067044759   -0.14742976     0             -0.094317743   -0.0013843663 
  47550000   0.068864399   -0.15170155     0             -0.097148032   -0.036186918  
  47560000   0.071640857   -0.15850878     0             -0.10175579    -0.085532674  
  47570000   0.068587906   -0.14606811     0             -0.091733624    0.042137527  
  47580000   0.072769879   -0.1407025      0             -0.083055107   -0.017487246  
  47590000   0.067630463   -0.15698474     0             -0.10340873     0.016769202  
  47600000   0.063306207   -0.14300287     0             -0.092852481   -0.0096655572 
  47610000   0.069806509   -0.16119788     0             -0.10589803    -0.041366065  
  47620000   0.070871153   -0.13053074     0             -0.074387498    0.0075754424 
  47630000   0.068912435   -0.14051344     0             -0.085921867    0.032772469  
  47640000   0.07462138    -0.15725554     0             -0.098141412    0.00016373532
  47650000   0.071201165   -0.14678903     0             -0.090384359   -0.037319292  
  47660000   0.068870632   -0.16170531     0             -0.10714685    -0.046801686  
  47670000   0.062730048   -0.17056056     0             -0.1208666     -0.028149122  
  47680000   0.073266489   -0.15146645     0             -0.093425654    0.014448599  
  47690000   0.077783424   -0.16010248     0             -0.098483426   -0.080849738  
  47700000   0.072878788   -0.15307108     0             -0.095337416   -0.031417532  
  47710000   0.074469858   -0.1582499      0             -0.09925581     0.081986973  
  47720000   0.073926918   -0.17023864     0             -0.11167466    -0.053734603  
  47730000   0.070295397   -0.18349192     0             -0.12780478     0.012242222  
  47740000   0.063831151   -0.1684386      0             -0.11787236     0.045723695  
  47750000   0.06407643    -0.1598503      0             -0.10908975    -0.015041781  
  47760000   0.074028354   -0.16934009     0             -0.11069575    -0.059505625  
  47770000   0.075319263   -0.16025883     0             -0.10059185    -0.00028880257
  47780000   0.06400769    -0.16496179     0             -0.1142557     -0.016729276  
  47790000   0.07176917    -0.16879961     0             -0.11194497    -0.0062688435 
  47800000   0.072888447   -0.14830624     0             -0.090564928   -0.0070941321 
  47810000   0.073572633   -0.15594028     0             -0.097656959   -0.0027868118 
  47820000   0.080189794   -0.1517165      0             -0.088191152   -0.047899096  
  47830000   0.067868023   -0.14262802     0             -0.088863818   -0.066023599  
  47840000   0.078019451   -0.13994888     0             -0.07814285     0.0087904969 
  47850000   0.077326247   -0.14484166     0             -0.083584778   -0.014117958  
  47860000   0.077761342   -0.15305814     0             -0.091456577   -0.021401212  
  47870000   0.073258953   -0.13461507     0             -0.076580241   -0.0045335962 
  47880000   0.070843281   -0.14664606     0             -0.090524898    0.042628413  
  47890000   0.076577093   -0.15717671     0             -0.096513295    0.056751915  
  47900000   0.071736691   -0.14312886     0             -0.086299947    0.1523421    
  47910000   0.073378719   -0.15289536     0             -0.094765654    0.0019782548 
  47920000   0.080946889   -0.15030903     0             -0.086183919   -0.096347354  
  47930000   0.071311485   -0.15886213     0             -0.10237006    -0.030423472  
  47940000   0.066580416   -0.17639988     0             -0.1236557     -0.01664664   
  47950000   0.082293369   -0.15866154     0             -0.093469764   -0.1182947    
  47960000   0.070416888   -0.15848493     0             -0.10270156    -0.044988674  
  47970000   0.075146102   -0.15009461     0             -0.090564806    0.065797462  
  47980000   0.072193461   -0.15976929     0             -0.10257854    -0.022719489  
  47990000   0.078650374   -0.15157763     0             -0.089271786   -0.012132313  
  48000000   0.066581299   -0.13985321     0             -0.08710834    -0.022913631  
  48010000   0.069749813   -0.16808938     0             -0.11283445    -0.0088732155 
  48020000   0.075344578   -0.14540142     0             -0.085714382    0.031691752  
  48030000   0.067048847   -0.14808878     0             -0.094973522    0.016853502  
  48040000   0.066862219   -0.17659034     0             -0.12362293     0.021553263  
  48050000   0.074896542   -0.16532876     0             -0.10599665     0.033047083  
  48060000   0.063029705   -0.16440601     0             -0.11447466    -0.078205869  
  48070000   0.065504829   -0.16653097     0             -0.11463886    -0.056750217  
  48080000   0.066024342   -0.1437444      0             -0.091440741   -0.029205742  
  48090000   0.072629683   -0.15670487     0             -0.099168542   -0.058864908  
  48100000   0.069534327   -0.15010969     0             -0.095025465   -0.018930946  
  48110000   0.078115147   -0.15416364     0             -0.092281798   -0.010674996  
  48120000   0.068769797   -0.1565726      0             -0.10209403    -0.014877189  
  48130000   0.081996648   -0.18217582     0             -0.1172191      0.016312071  
  48140000   0.070084766   -0.15051578     0             -0.094995502   -0.016053395  
  48150000   0.068849586   -0.14178203     0             -0.087240246   -0.041489234  
  48160000   0.071660442   -0.15741311     0             -0.1006446      0.031529346  
  48170000   0.069217448   -0.15798547     0             -0.10315227    -0.026876729  
  48180000   0.075100201   -0.15331483     0             -0.093821386    0.065193239  
  48190000   0.070409336   -0.17340776     0             -0.11763036    -0.031004181  
  48200000   0.073698927   -0.17373144     0             -0.11534807    -0.012561474  
  48210000   0.073964778   -0.16835091     0             -0.10975694     0.0081819468 
  48220000   0.073512597   -0.16158092     0             -0.10334516    -0.087623206  
  48230000   0.07471261    -0.14695954     0             -0.087773148   -0.031414044  
  48240000   0.074941873   -0.15042326     0             -0.091055248    0.0055043603 
  48250000   0.069276267   -0.13718711     0             -0.082307314   -0.012340053  
  48260000   0.073591826   -0.17316238     0             -0.11486385    -0.034223998  
  48270000   0.065486891   -0.15203335     0             -0.10015546    -0.035973259  
  48280000   0.070188255   -0.1540507      0             -0.098448447   -0.10751701   
  48290000   0.064068141   -0.15191953     0             -0.10116555    -0.083392844  
  48300000   0.077125242   -0.152884       0             -0.091786348    0.037748414  
  48310000   0.077990253   -0.14891517     0             -0.08713227     0.020020033  
  48320000   0.075614696   -0.14882622     0             -0.088925206   -0.030440094  
  48330000   0.070245096   -0.16481966     0             -0.10917237    -0.02946751   
  48340000   0.075291216   -0.15098937     0             -0.091344612   -0.14714483   
  48350000   0.065714906   -0.14258955     0             -0.090531022   -0.047361351  
  48360000   0.06800858    -0.13553357     0             -0.081658027    0.008097991  
  48370000   0.073688167   -0.14998604     0             -0.091611197   -0.12559494   
  48380000   0.07203564    -0.14759554     0             -0.09052981    -0.00034026621
  48390000   0.070817886   -0.15212581     0             -0.096024763    0.12758781   
  48400000   0.075399769   -0.14915889     0             -0.089428134   -0.026703596  
  48410000   0.078451152   -0.15090238     0             -0.088754362   -0.077639318  
  48420000   0.066179827   -0.15299299     0             -0.10056616    -0.11395573   
  48430000   0.070123828   -0.14485211     0             -0.089300887   -0.0086969285 
  48440000   0.078224426   -0.1342695      0             -0.072301085   -0.075044357  
  48450000   0.077906508   -0.16448418     0             -0.10276761     0.0093200327 
  48460000   0.069680251   -0.13662344     0             -0.081423617   -0.015066659  
  48470000   0.068979646   -0.15685554     0             -0.10221072     0.0055850158 
  48480000   0.068487445   -0.15321065     0             -0.098955757   -0.11677039   
  48490000   0.077875169   -0.13875706     0             -0.077065323   -0.016529936  
  48500000   0.070930375   -0.14646141     0             -0.090271249   -0.043107257  
  48510000   0.07158403    -0.14913118     0             -0.092423203   -0.023256765  
  48520000   0.077024296   -0.14921678     0             -0.088199091   -0.058250149  
  48530000   0.072474652   -0.13743791     0             -0.080024399   -0.10550907   
  48540000   0.071449952   -0.14023215     0             -0.083630387   -0.018694325  
  48550000   0.06872189    -0.14668079     0             -0.092240165   -0.082728343  
  48560000   0.070104865   -0.14099568     0             -0.085459478   -0.074707773  
  48570000   0.068900401   -0.16439612     0             -0.10981408     0.0503704    
  48580000   0.071280987   -0.16331048     0             -0.10684257     0.022211122  
  48590000   0.065908296   -0.16170376     0             -0.10949204     0.01847476   
  48600000   0.079477504   -0.13040701     0             -0.067445928   -0.05232833   
  48610000   0.072697657   -0.14787422     0             -0.090284041   -0.0013303942 
  48620000   0.067568519   -0.13630312     0             -0.082776183    0.034918469  
  48630000   0.077565771   -0.16749718     0             -0.10605054    -0.059358793  
  48640000   0.060333437   -0.14689166     0             -0.099096266    0.0050261589 
  48650000   0.075426586   -0.14177418     0             -0.082022178   -0.00045204775
  48660000   0.073456665   -0.16168902     0             -0.10349757    -0.053484338  
  48670000   0.067069434   -0.14934444     0             -0.09621287    -0.052538861  
  48680000   0.073626674   -0.14148543     0             -0.083159301   -0.14836541   
  48690000   0.080541208   -0.15013536     0             -0.086331625    0.0064014969 
  48700000   0.062720539   -0.14143259     0             -0.091746159   -0.075614756  
  48710000   0.07211597    -0.16660833     0             -0.10947896    -0.035102756  
  48720000   0.069588021   -0.16162851     0             -0.10650175    -0.0054711046 
  48730000   0.072237124   -0.16945162     0             -0.11222628    -0.10298076   
  48740000   0.075372725   -0.15657305     0             -0.09686372    -0.030374158  
  48750000   0.080007458   -0.15349816     0             -0.090117255    0.050295057  
  48760000   0.077282841   -0.15120091     0             -0.089978413    0.071279027  
  48770000   0.070067473   -0.14690563     0             -0.091399059    0.020523     
  48780000   0.072467375   -0.14365036     0             -0.086242613    0.02833303   
  48790000   0.073464497   -0.14201394     0             -0.083816288    0.026990938  
  48800000   0.070483053   -0.1694665      0             -0.1136307     -0.051662632  
  48810000   0.069302001   -0.15089219     0             -0.095992012   -0.035306663  
  48820000   0.071111002   -0.16256879     0             -0.10623554     0.0068661932 
  48830000   0.069927012   -0.1492126      0             -0.093817291   -0.11067329   
  48840000   0.066009513   -0.15194331     0             -0.099651402   -0.070386683  
  48850000   0.063209475   -0.14501015     0             -0.094936393    0.0016008372 
  48860000   0.07157352    -0.14567253     0             -0.088972885    0.086649344  
  48870000   0.067991182   -0.1543271      0             -0.10046533    -0.058992551  
  48880000   0.077652309   -0.14782169     0             -0.086306501    0.059416203  
  48890000   0.070441411   -0.13744566     0             -0.081642852   -0.027335197  
  48900000   0.070695992   -0.13577574     0             -0.079771263    0.0038437948 
  48910000   0.078120014   -0.14697718     0             -0.085091479    0.052277904  
  48920000   0.075414336   -0.14752552     0             -0.087783228   -0.052995461  
  48930000   0.068297509   -0.14396622     0             -0.089861789    0.022970414  
  48940000   0.066072858   -0.15212706     0             -0.09978497    -0.017808492  
  48950000   0.058152601   -0.15609915     0             -0.11003139    -0.055998926  
  48960000   0.075146171   -0.14316449     0             -0.083634634   -0.0058567224 
  48970000   0.077195958   -0.15493731     0             -0.09378364     0.02451712   
  48980000   0.058935165   -0.14245593     0             -0.09576823    -0.016262961  
  48990000   0.073377791   -0.14174138     0             -0.083612412    0.0076712572 
  49000000   0.077438186   -0.15793932     0             -0.096593755   -0.047902566  
  49010000   0.071549275   -0.14114382     0             -0.084463376   -0.016976273  
  49020000   0.067944899   -0.14517569     0             -0.091350594   -0.015904555  
  49030000   0.072531599   -0.1348443      0             -0.077385679   -0.025912536  
  49040000   0.068518278   -0.16968774     0             -0.11540842    -0.050883044  
  49050000   0.066971408   -0.14796537     0             -0.094911456   -0.062141462  
  49060000   0.075815854   -0.15467265     0             -0.094612275   -0.041315218  
  49070000   0.074331111   -0.14569403     0             -0.086809853   -0.053823429  
  49080000   0.067953046   -0.14896495     0             -0.095133399   -0.021203246  
  49090000   0.069938481   -0.1525533      0             -0.097148914   -0.10956448   
  49100000   0.072136247   -0.14023638     0             -0.083090946   -0.092460759  
  49110000   0.069173234   -0.14023114     0             -0.085432973   -0.01340086   
  49120000   0.07686874    -0.14221145     0             -0.081316992   -0.071908045  
  49130000   0.070155686   -0.13181006     0             -0.076233604    0.0023813198 
  49140000   0.070427141   -0.14461517     0             -0.088823669   -0.007848524  
  49150000   0.082119864   -0.14872131     0             -0.083666983   -0.064948903  
  49160000   0.067754916   -0.15453969     0             -0.10086509    -0.033547164  
  49170000   0.06798588    -0.15371342     0             -0.099855859   -0.020141526  
  49180000   0.064906487   -0.14311435     0             -0.091696243    0.0074328442 
  49190000   0.061518261   -0.15268976     0             -0.10395576     0.0096549179 
  49200000   0.074363013   -0.15751807     0             -0.098608623    0.077375647  
  49210000   0.080178105   -0.17921426     0             -0.11569817    -0.0012247328 
  49220000   0.078225024   -0.17617366     0             -0.11420477     0.00090882991
  49230000   0.071107086   -0.18480829     0             -0.12847814    -0.010204786  
  49240000   0.067165466   -0.18573857     0             -0.13253093     0.020080432  
  49250000   0.078987011   -0.14807419     0             -0.085501662   -0.065268195  
  49260000   0.074796139   -0.15325855     0             -0.094005983   -0.075677636  
  49270000   0.070600281   -0.16418271     0             -0.10825405    -0.084023815  
  49280000   0.071604676   -0.15129954     0             -0.094575209   -0.0038863623 
  49290000   0.066525596   -0.14793939     0             -0.09523864     0.015290157  
  49300000   0.078943313   -0.16803494     0             -0.10549703    -0.078243653  
  49310000   0.064401134   -0.15805898     0             -0.1070412     -0.060730869  
  49320000   0.065403421   -0.14715445     0             -0.095342681   -0.016747736  
  49330000   0.077699666   -0.1667691      0             -0.1052164     -0.013520646  
  49340000   0.068794132   -0.14341688     0             -0.088919031   -0.030688864  
  49350000   0.067860965   -0.15193637     0             -0.098177763   -0.044245983  
  49360000   0.070270892   -0.15620182     0             -0.1005341     -0.011005045  
  49370000   0.070898323   -0.15071023     0             -0.094545462    0.046857108  
  49380000   0.071313799   -0.15930796     0             -0.10281406     0.024988877  
  49390000   0.073320464   -0.15196641     0             -0.093882857    0.048677477  
  49400000   0.074297995   -0.15364622     0             -0.094788273   -0.027139858  
  49410000   0.063061709   -0.15858494     0             -0.10862824    -0.045451886  
  49420000   0.071012238   -0.1506946      0             -0.094439596   -0.029985732  
  49430000   0.062401524   -0.15121078     0             -0.10177707    -0.017522206  
  49440000   0.071253642   -0.16454755     0             -0.10810131     0.030461828  
  49450000   0.068461833   -0.15778017     0             -0.10354556     0.022874379  
  49460000   0.072570861   -0.16436238     0             -0.10687265     0.0053038163 
  49470000   0.073828936   -0.15281845     0             -0.094332088   -0.015788163  
  49480000   0.076558693   -0.16722755     0             -0.10657871     9.4096412e-05
  49490000   0.080847735   -0.15254529     0             -0.088498725   -0.074156998  
  49500000   0.071603461   -0.16889659     0             -0.11217323    -0.0074977993 
  49510000   0.068553095   -0.17440967     0             -0.12010277    -0.0072639506 
  49520000   0.072377891   -0.16302569     0             -0.10568883    -0.009804263  
  49530000   0.073273797   -0.16327928     0             -0.1052327     -0.011765514  
  49540000   0.075693671   -0.15697345     0             -0.097009874   -0.064880099  
  49550000   0.068140404   -0.1775035      0             -0.12352352     0.081405792  
  49560000   0.064138154   -0.16117819     0             -0.11036874    -0.01960407   
  49570000   0.070311439   -0.17454997     0             -0.11885012    -0.00045560044
  49580000   0.069252182   -0.18820768     0             -0.13334697    -0.00080445161
  49590000   0.075810596   -0.17070348     0             -0.11064727    -0.094485266  
  49600000   0.065582156   -0.17827493     0             -0.12632157     0.034673411  
  49610000   0.066978977   -0.17200624     0             -0.11894633    -0.03839153   
  49620000   0.067156121   -0.16444486     0             -0.11124462    -0.040007037  
  49630000   0.068012807   -0.15931537     0             -0.10543647    -0.010778001  
  49640000   0.072806985   -0.1503066      0             -0.09262982     0.036810404  
  49650000   0.063695637   -0.15919056     0             -0.10873167    -0.028634204  
  49660000   0.067316279   -0.16566636     0             -0.11233924    -0.038736381  
  49670000   0.068128404   -0.16167567     0             -0.1077052      0.048678338  
  49680000   0.061837842   -0.15801303     0             -0.10902587    -0.0058959706 
  49690000   0.072556999   -0.1381802      0             -0.080701455   -0.031122451  
  49700000   0.081260043   -0.15312078     0             -0.088747592   -0.0079749454 
  49710000   0.06954018    -0.1367416      0             -0.081652739   -0.053332955  
  49720000   0.074613895   -0.14272046     0             -0.083612267    0.050909041  
  49730000   0.073680251   -0.14931239     0             -0.090943811   -0.023849765  
  49740000   0.067439172   -0.14681615     0             -0.093391684   -0.050786877  
  49750000   0.071233069   -0.16742075     0             -0.11099081    -0.0403065    
  49760000   0.074646826   -0.13260437     0             -0.073470091    0.011195507  
  49770000   0.070031724   -0.14988916     0             -0.094410907    0.028500443  
  49780000   0.081198473   -0.14936758     0             -0.085043166    0.0024260999 
  49790000   0.072215114   -0.14569567     0             -0.088487755    0.0026000176 
  49800000   0.081162694   -0.17326569     0             -0.10896962     0.063214949  
  49810000   0.065893993   -0.14039133     0             -0.088190928   -0.031776778  
  49820000   0.066960643   -0.16493889     0             -0.11189351     0.00096164416
  49830000   0.066256606   -0.16564499     0             -0.11315734     0.00086301952
  49840000   0.068084835   -0.13356419     0             -0.079628231   -0.042840964  
  49850000   0.076728586   -0.13707166     0             -0.076288228   -0.015082005  
  49860000   0.065791514   -0.1535139      0             -0.10139468    -0.087102773  
  49870000   0.065481557   -0.15228308     0             -0.10040941    -0.059816685  
  49880000   0.073893411   -0.16132275     0             -0.10278532    -0.0011295897 
  49890000   0.085632964   -0.13500371     0             -0.067166345    0.002713265  
  49900000   0.073925195   -0.16111201     0             -0.10254939    -0.014662877  
  49910000   0.074432989   -0.15733096     0             -0.098366073    0.001148411  
  49920000   0.069880955   -0.15233562     0             -0.0969768     -0.069370358  
  49930000   0.064512755   -0.16204432     0             -0.11093812     0.00019393   
  49940000   0.067928008   -0.13890012     0             -0.085088402   -0.031644408  
  49950000   0.071615657   -0.12947675     0             -0.072743722   -0.031438554  
  49960000   0.068111414   -0.14399028     0             -0.090033274    0.058643056  
  49970000   0.071610758   -0.14295263     0             -0.086223485   -0.14401046   
  49980000   0.06202342    -0.16023858     0             -0.1111044     -0.020028566  
  49990000   0.081206955   -0.15882434     0             -0.094493202    0.013268071  
  50000000   0.066773499   -0.16448123     0             -0.1115841      0.015265456  
  50010000   0.073763215   -0.14090374     0             -0.082469444   -0.05597443   
  50020000   0.073071374   -0.13916699     0             -0.081280762   -0.010804996  
  50030000   0.074230675   -0.13847231     0             -0.079667697   -0.10990374   
  50040000   0.06969735    -0.13177804     0             -0.076564671   -0.038219568  
  50050000   0.07600557    -0.13202702     0             -0.071816362    0.121527     
  50060000   0.076542086   -0.14177204     0             -0.081136352   -0.053934678  
  50070000   0.073330257   -0.14479202     0             -0.086700702    0.070326164  
  50080000   0.069994733   -0.15061279     0             -0.095163839    0.017181362  
  50090000   0.069354281   -0.14698765     0             -0.09204606    -0.10477995   
  50100000   0.076757801   -0.14744272     0             -0.086636145   -0.068259776  
  50110000   0.07758959    -0.15643621     0             -0.094970705   -0.031640306  
  50120000   0.077627965   -0.15305087     0             -0.091554967   -0.055356477  
  50130000   0.073975828   -0.16137342     0             -0.10277069    -0.014680258  
  50140000   0.071865404   -0.14600296     0             -0.089072086   -0.020363865  
  50150000   0.065407593   -0.14711225     0             -0.095297177   -0.12087685   
  50160000   0.066380085   -0.1451946      0             -0.092609122    0.0002875585 
  50170000   0.059759322   -0.15956888     0             -0.1122283     -0.070163967  
  50180000   0.071911328   -0.13443911     0             -0.07747186    -0.038372706  
  50190000   0.069674275   -0.14502687     0             -0.089831782   -0.097021999  
  50200000   0.073547967   -0.12506971     0             -0.06680593    -0.028969047  
  50210000   0.083259051   -0.13553137     0             -0.069574591    0.022521533  
  50220000   0.081019416   -0.14403492     0             -0.079852348   -0.073860865  
  50230000   0.082909048   -0.13684515     0             -0.071165639   -0.004964473  
  50240000   0.07227278    -0.13173256     0             -0.074478965    0.056740373  
  50250000   0.075963176   -0.15385561     0             -0.093678528   -0.053952103  
  50260000   0.081952741   -0.13877006     0             -0.07384812    -0.025602705  
  50270000   0.070063174   -0.15089899     0             -0.095395816   -0.07751751   
  50280000   0.073572507   -0.15290885     0             -0.094625626    0.070171174  
  50290000   0.072615323   -0.1418609      0             -0.084335945    0.016105912  
  50300000   0.069864035   -0.12194498     0             -0.066599569    0.032850243  
  50310000   0.076169807   -0.13841626     0             -0.078075492   -0.044982152  
  50320000   0.07922465    -0.15775657     0             -0.094995793    0.034231579  
  50330000   0.068978516   -0.15029227     0             -0.095648352   -0.048962797  
  50340000   0.068915892   -0.15507211     0             -0.1004778      0.060991354  
  50350000   0.067127159   -0.16678413     0             -0.11360684    -0.03042359   
  50360000   0.06616406    -0.16944786     0             -0.11703352    -0.035111293  
  50370000   0.06669152    -0.15661455     0             -0.10378236    -0.02149315   
  50380000   0.064725532   -0.15822797     0             -0.10695321     0.060454568  
  50390000   0.070206953   -0.15797976     0             -0.10236269    -0.03334536   
  50400000   0.074869148   -0.15452534     0             -0.095214938   -0.051641465  
  50410000   0.07536149    -0.1400865      0             -0.080386065   -0.012380347  
  50420000   0.065974173   -0.12532629     0             -0.073062372    0.017918005  
  50430000   0.071052935   -0.13750403     0             -0.081216787   -0.078691981  
  50440000   0.06661587    -0.14928255     0             -0.096510291    0.032510101  
  50450000   0.07281457    -0.14053488     0             -0.082852092   -0.081269251  
  50460000   0.070914171   -0.13507636     0             -0.078899041   -0.020234362  
  50470000   0.073864556   -0.13935456     0             -0.080839987   -0.041908509  
  50480000   0.068817719   -0.1450898      0             -0.090573263   -0.00083920673
  50490000   0.070018995   -0.13379169     0             -0.078323513    0.028312436  
  50500000   0.078146315   -0.14125314     0             -0.079346604    0.011519708  
  50510000   0.079512203   -0.13644048     0             -0.073451912   -0.065123227  
  50520000   0.076835939   -0.15010123     0             -0.089232764    0.018992781  
  50530000   0.074585811   -0.14671121     0             -0.08762526    -0.023645581  
  50540000   0.077931417   -0.12719625     0             -0.065459955    0.038131129  
  50550000   0.075105731   -0.135322       0             -0.07582418    -0.0047308961 
  50560000   0.076076533   -0.13948908     0             -0.079222204    0.02244197   
  50570000   0.071174417   -0.14139035     0             -0.085006869    0.029263793  
  50580000   0.068582217   -0.14136796     0             -0.08703798    -0.013760434  
  50590000   0.072346878   -0.15042462     0             -0.093112332   -0.037667147  
  50600000   0.069654599   -0.15176052     0             -0.096581015   -0.013606366  
  50610000   0.06517741    -0.14761395     0             -0.095981222    0.0068132828 
  50620000   0.068065091   -0.14280357     0             -0.088883258   -0.06102028   
  50630000   0.073928735   -0.14014914     0             -0.081583719    0.036430815  
  50640000   0.071172401   -0.14650622     0             -0.090124338   -0.01256408   
  50650000   0.070259148   -0.13958739     0             -0.083928971   -0.058710131  
  50660000   0.080427803   -0.13633667     0             -0.072622766    0.0072126604 
  50670000   0.079122759   -0.14135305     0             -0.07867299     0.06168722   
  50680000   0.072521936   -0.15511567     0             -0.0976647     -0.011488336  
  50690000   0.07008662    -0.1443463      0             -0.088824558   -0.025730104  
  50700000   0.07026018    -0.14944127     0             -0.093782038   -0.11026385   
  50710000   0.075692093   -0.16551569     0             -0.10555336    -0.034370046  
  50720000   0.073881137   -0.15490175     0             -0.096374034   -0.015015801  
  50730000   0.073558265   -0.15101531     0             -0.092743373    0.084219926  
  50740000   0.075872659   -0.15565052     0             -0.095545148   -0.0064579855 
  50750000   0.072982714   -0.15002082     0             -0.092204824   -0.08260132   
  50760000   0.073961341   -0.15138475     0             -0.092793505   -0.07718448   
  50770000   0.069754846   -0.15245447     0             -0.097195557   -0.00081257069
  50780000   0.073541713   -0.16275138     0             -0.10449256    -0.0094377163 
  50790000   0.074629557   -0.15676804     0             -0.097647441   -0.036857296  
  50800000   0.074341679   -0.15760201     0             -0.098709459    0.079218235  
  50810000   0.06656426    -0.14945796     0             -0.096726584   -0.010787619  
  50820000   0.069483762   -0.14737725     0             -0.092333084    0.023747827  
  50830000   0.074825906   -0.15059715     0             -0.091321006    0.0061079117 
  50840000   0.080139806   -0.13341014     0             -0.069924388   -0.053155302  
  50850000   0.069964529   -0.14187473     0             -0.086449706   -0.073387976  
  50860000   0.06488979    -0.15126186     0             -0.099856976   -0.054764277  
  50870000   0.070970232   -0.15444674     0             -0.098225008   -0.094634092  
  50880000   0.068564949   -0.16084004     0             -0.10652374     0.015550488  
  50890000   0.076729139   -0.14966161     0             -0.088877744   -0.011480372  
  50900000   0.075895011   -0.16859664     0             -0.10847356    -0.052887503  
  50910000   0.074658596   -0.14635158     0             -0.087207973   -0.11252662   
  50920000   0.069552993   -0.15430885     0             -0.099209837    0.068167251  
  50930000   0.066294437   -0.15524297     0             -0.10272534    -0.0031460888 
  50940000   0.080051236   -0.15945271     0             -0.096037117    0.0021547978 
  50950000   0.067320776   -0.14271443     0             -0.089383753    0.00046694455
  50960000   0.071119833   -0.13750328     0             -0.081163035   -0.020822032  
  50970000   0.076058938   -0.14441538     0             -0.084162438   -0.024676331  
  50980000   0.076422213   -0.13506826     0             -0.074527542   -0.063579193  
  50990000   0.073268746   -0.1391922      0             -0.081149619    0.044484952  
  51000000   0.075462185   -0.14340645     0             -0.08362625     0.0059576167 
  51010000   0.069751062   -0.15219669     0             -0.096940773   -0.048573239  
  51020000   0.07958448    -0.14289858     0             -0.079852748   -0.044370536  
  51030000   0.073880371   -0.13547565     0             -0.076948546   -0.087036304  
  51040000   0.067322146   -0.1358247      0             -0.082492937    0.013867599  
  51050000   0.077499911   -0.12571168     0             -0.064317222   -0.017522779  
  51060000   0.06853462    -0.12687002     0             -0.072577748    0.039325392  
  51070000   0.071340996   -0.14042951     0             -0.08391406     0.038354268  
  51080000   0.074013379   -0.14339695     0             -0.084764473    0.021098925  
  51090000   0.066295267   -0.1502328      0             -0.097714515   -0.0081466962 
  51100000   0.075501383   -0.15005683     0             -0.090245577   -0.0013545524 
  51110000   0.07669315    -0.14506391     0             -0.084308559   -0.030210165  
  51120000   0.067846096   -0.13047538     0             -0.076728551   -0.058129097  
  51130000   0.066488564   -0.14101986     0             -0.088348448   -0.030773923  
  51140000   0.07369241    -0.14834683     0             -0.089968628   -0.07164447   
  51150000   0.075339906   -0.15236556     0             -0.092682225   -0.018344228  
  51160000   0.069422138   -0.13185954     0             -0.076864185    0.060559084  
  51170000   0.075992804   -0.13149645     0             -0.071295905    0.0047290809 
  51180000   0.067066434   -0.1341698      0             -0.081040607    0.056362457  
  51190000   0.069097572   -0.14563804     0             -0.090899808    0.037965055  
  51200000   0.063916073   -0.12662876     0             -0.075995241   -0.029496293  
  51210000   0.069261265   -0.13895142     0             -0.084083508   -0.0053130829 
  51220000   0.07044913    -0.14644204     0             -0.090633121   -0.0093070745 
  51230000   0.063021474   -0.16264768     0             -0.11272286    -0.040136403  
  51240000   0.073010788   -0.1585163      0             -0.10067806     0.065721257  
  51250000   0.076668372   -0.1713947      0             -0.11065897     5.6710635e-05
  51260000   0.079064594   -0.16120988     0             -0.098575895    0.033444082  
  51270000   0.069242245   -0.14155703     0             -0.086704193   -0.11187521   
  51280000   0.069914227   -0.15432272     0             -0.098937544   -0.010277348  
  51290000   0.072423505   -0.14299299     0             -0.085619996   -0.022339824  
  51300000   0.070281002   -0.15352873     0             -0.097853      -0.10575785   
  51310000   0.079250375   -0.15397528     0             -0.091194127   -0.058754955  
  51320000   0.068448393   -0.14597003     0             -0.091746064   -0.049436622  
  51330000   0.074432779   -0.15522971     0             -0.096264996   -0.041628409  
  51340000   0.063819356   -0.16242078     0             -0.11186388    -0.017885239  
  51350000   0.068311667   -0.15444228     0             -0.10032663     0.065745523  
  51360000   0.07199173    -0.14039549     0             -0.083364543   -0.089904283  
  51370000   0.066597715   -0.14756601     0             -0.09480813    -0.039268628  
  51380000   0.070122499   -0.16206923     0             -0.10651907     0.047945591  
  51390000   0.065080815   -0.15370995     0             -0.10215374    -0.029511373  
  51400000   0.070140014   -0.16018936     0             -0.10462532    -0.035788268  
  51410000   0.066404683   -0.15647736     0             -0.1038724     -0.0095581053 
  51420000   0.071800927   -0.15029385     0             -0.09341405    -0.037021283  
  51430000   0.072181071   -0.15994215     0             -0.10276121    -0.017930376  
  51440000   0.07105461    -0.15409998     0             -0.097811406    0.036274305  
  51450000   0.076536966   -0.15805538     0             -0.097423757    0.020147725  
  51460000   0.069349064   -0.15003068     0             -0.095093221   -0.073319655  
  51470000   0.069525994   -0.16215636     0             -0.10707873    -0.08570803   
  51480000   0.066228107   -0.14597035     0             -0.093505275   -0.026057948  
  51490000   0.067667707   -0.15428493     0             -0.10067941    -0.00088299622
  51500000   0.06822767    -0.15383156     0             -0.099782457   -0.032807651  
  51510000   0.082149879   -0.13787423     0             -0.072796124    0.026413123  
  51520000   0.077439011   -0.14773331     0             -0.086387097    0.044129116  
  51530000   0.072344915   -0.16290244     0             -0.1055917     -0.069387425  
  51540000   0.072522566   -0.13965026     0             -0.082198789    0.0067680526 
  51550000   0.067315842   -0.15065253     0             -0.097325765   -0.032310372  
  51560000   0.078388305   -0.13996651     0             -0.077868272   -0.048316259  
  51570000   0.080834927   -0.14932812     0             -0.085291706   -0.056811851  
  51580000   0.077324369   -0.14993922     0             -0.088683823   -0.0054457869 
  51590000   0.069257858   -0.13534629     0             -0.080481077   -0.061486088  
  51600000   0.070284885   -0.15913545     0             -0.10345664     0.10478491   
  51610000   0.069787491   -0.14686732     0             -0.091582545   -0.056250909  
  51620000   0.065309718   -0.13948265     0             -0.087745106   -0.065600183  
  51630000   0.06713818    -0.14948617     0             -0.096300143   -0.026823996  
  51640000   0.0742614     -0.16167954     0             -0.10285058    -0.031296831  
  51650000   0.073851976   -0.1534824      0             -0.094977785    0.031972141  
  51660000   0.075340203   -0.15595858     0             -0.096275013   -0.05518291   
  51670000   0.076692285   -0.14101902     0             -0.080264354   -0.058589632  
  51680000   0.058319042   -0.14389398     0             -0.097694364    0.021023271  
  51690000   0.071642878   -0.14861757     0             -0.091862978    0.0095076146 
  51700000   0.069401323   -0.15032652     0             -0.095347659   -0.03721695   
  51710000   0.073552746   -0.13797083     0             -0.079703266    0.0022228388 
  51720000   0.070689008   -0.13719857     0             -0.081199618    0.028498516  
  51730000   0.071669298   -0.14902293     0             -0.092247411   -0.04234151   
  51740000   0.062992397   -0.13842805     0             -0.088526258   -0.016237035  
  51750000   0.064293402   -0.13332218     0             -0.082389746   -0.030829362  
  51760000   0.066837462   -0.11618719     0             -0.063239385    0.033972652  
  51770000   0.072199903   -0.12512101     0             -0.067925148   -0.09723617   
  51780000   0.065716908   -0.14738483     0             -0.095324716    0.028032987  
  51790000   0.078436104   -0.14657919     0             -0.084443088   -0.034369749  
  51800000   0.075175585   -0.1357606      0             -0.076207444   -0.039320503  
  51810000   0.060908738   -0.14530162     0             -0.097050474    0.012612539  
  51820000   0.071761864   -0.13866051     0             -0.081811655   -0.0056083707 
  51830000   0.070173874   -0.1419631      0             -0.086372231    0.052758337  
  51840000   0.075008636   -0.14366332     0             -0.08424242    -0.048492304  
  51850000   0.081737621   -0.14164257     0             -0.076891051   -0.0041217037 
  51860000   0.069868428   -0.14440971     0             -0.089060818    0.017049847  
  51870000   0.075486782   -0.12830609     0             -0.068506404    0.064372072  
  51880000   0.075963112   -0.13449034     0             -0.074313313   -0.018467889  
  51890000   0.081920343   -0.14904727     0             -0.084150996   -0.013201457  
  51900000   0.083105845   -0.14404544     0             -0.078210031   -0.015497462  
  51910000   0.06781546    -0.13975887     0             -0.086036305   -0.04005259   
  51920000   0.06820747    -0.13897279     0             -0.084939685   -0.084704503  
  51930000   0.068244144   -0.14380122     0             -0.089739064   -0.048386646  
  51940000   0.071201165   -0.13280818     0             -0.076403506    0.025409285  
  51950000   0.07167698    -0.1321913      0             -0.075409695    0.04427081   
  51960000   0.070858726   -0.13642378     0             -0.080290383   -0.047440251  
  51970000   0.069434314   -0.12184831     0             -0.066843315   -0.060364832  
  51980000   0.066119064   -0.15005449     0             -0.097675791    0.0087215891 
  51990000   0.073312061   -0.1453617      0             -0.087284802    0.054034137  
  52000000   0.072123924   -0.16980597     0             -0.1126703     -0.10736195   
  52010000   0.079897407   -0.16358476     0             -0.10029103    -0.062546434  
  52020000   0.073375768   -0.16126739     0             -0.10314002     0.045702301  
  52030000   0.06539736    -0.15170127     0             -0.099894296    0.01848793   
  52040000   0.068871689   -0.15856581     0             -0.10400652     0.057037769  
  52050000   0.071442063   -0.17682841     0             -0.1202329     -0.019609642  
  52060000   0.069501064   -0.1507998      0             -0.095741921   -0.020835773  
  52070000   0.072498799   -0.14386584     0             -0.086433196   -0.017526096  
  52080000   0.072661628   -0.14698521     0             -0.089423581    0.045969839  
  52090000   0.079088258   -0.13965289     0             -0.077000158   -0.033654689  
  52100000   0.072477888   -0.14635965     0             -0.088943571   -0.081039652  
  52110000   0.06581692    -0.1603252      0             -0.10818586     0.014242005  
  52120000   0.070939765   -0.14451005     0             -0.088312458   -0.0043081134 
  52130000   0.066016156   -0.1561646      0             -0.10386743    -0.030220847  
  52140000   0.072014859   -0.14165621     0             -0.08460694     0.033774868  
  52150000   0.071484765   -0.14013912     0             -0.083509784   -0.062436479  
  52160000   0.065736846   -0.13492327     0             -0.082847366   -0.0089294919 
  52170000   0.074773672   -0.16005592     0             -0.10082115     0.023097888  
  52180000   0.071401105   -0.14217998     0             -0.085616921    0.0022295682 
  52190000   0.068544431   -0.14973543     0             -0.095435386   -0.075916861  
  52200000   0.071002565   -0.13860257     0             -0.082355224    0.079435343  
  52210000   0.076241      -0.16489709     0             -0.10449993    -0.13134293   
  52220000   0.077611512   -0.16377185     0             -0.10228898    -0.035372448  
  52230000   0.071726493   -0.1655788      0             -0.10875797     0.00024476221
  52240000   0.073572982   -0.17056113     0             -0.11227754    -0.02210478   
  52250000   0.069688371   -0.17352209     0             -0.11831584    -0.060197151  
  52260000   0.071048692   -0.15963194     0             -0.10334806    -0.087577888  
  52270000   0.075033997   -0.15921745     0             -0.099776456   -0.14262695   
  52280000   0.059477987   -0.15385341     0             -0.10673569    -0.0058338426 
  52290000   0.072463203   -0.15916846     0             -0.10176402     0.0080766006 
  52300000   0.070496437   -0.15417748     0             -0.098331083   -0.079318451  
  52310000   0.069553306   -0.14872832     0             -0.093629062   -0.065953872  
  52320000   0.065368511   -0.15021021     0             -0.098426092   -0.076849258  
  52330000   0.077549621   -0.14621659     0             -0.084782746   -0.021306817  
  52340000   0.079028833   -0.12822702     0             -0.065621365    0.06635472   
  52350000   0.071475167   -0.15104586     0             -0.094424126   -0.031299827  
  52360000   0.06427415    -0.15132047     0             -0.10040329    -0.1304332    
  52370000   0.061007589   -0.16202853     0             -0.11369908    -0.14728929   
  52380000   0.066674445   -0.13225204     0             -0.079433381   -0.10104409   
  52390000   0.082519113   -0.12980986     0             -0.064439254    0.044046553  
  52400000   0.065747317   -0.14542973     0             -0.093345528   -0.011481826  
  52410000   0.079867141   -0.13295523     0             -0.069685483   -0.0010513933 
  52420000   0.066492472   -0.13038298     0             -0.077708477   -0.0840242    
  52430000   0.070859074   -0.13164566     0             -0.07551199    -0.040532891  
  52440000   0.075259142   -0.13593567     0             -0.076316321    0.022082165  
  52450000   0.07292179    -0.15024041     0             -0.092472681   -0.0044574404 
  52460000   0.06779946    -0.14450631     0             -0.090796429   -0.0092094939 
  52470000   0.065938583   -0.15235864     0             -0.10012292    -0.0276147    
  52480000   0.072527614   -0.15257155     0             -0.095116078   -0.078378899  
  52490000   0.082066607   -0.15352223     0             -0.088510087   -0.051208743  
  52500000   0.069970495   -0.15301095     0             -0.097581194   -0.035904412  
  52510000   0.069962654   -0.15085455     0             -0.095431012    0.0049414922 
  52520000   0.076803411   -0.14769883     0             -0.086856127   -0.001791937  
  52530000   0.066417596   -0.15782775     0             -0.10521256     0.029819844  
  52540000   0.067005402   -0.16493678     0             -0.11185594    -0.069177316  
  52550000   0.072616004   -0.17295873     0             -0.11543324     0.033007851  
  52560000   0.062909653   -0.16415778     0             -0.11432154     0.0035614087 
  52570000   0.072012297   -0.15233247     0             -0.095285231    0.026886035  
  52580000   0.062274748   -0.14922924     0             -0.099895961   -0.026627209  
  52590000   0.071637378   -0.1543015      0             -0.097551261   -0.079365154  
  52600000   0.08137951    -0.15514367     0             -0.090675835    0.076910365  
  52610000   0.074287618   -0.16081783     0             -0.1019681     -0.031067197  
  52620000   0.073868878   -0.14612449     0             -0.087606489   -0.013379839  
  52630000   0.06897273    -0.14565129     0             -0.091011955   -0.017966902  
  52640000   0.074546144   -0.15725005     0             -0.098195524   -0.057184402  
  52650000   0.069953099   -0.1532307      0             -0.097814734   -0.027793966  
  52660000   0.072973037   -0.14176806     0             -0.083959735   -0.038873401  
  52670000   0.073873094   -0.14267838     0             -0.084157036    0.048031078  
  52680000   0.073998845   -0.15623795     0             -0.097616988   -0.0025678644 
  52690000   0.07264449    -0.15806305     0             -0.10051499     0.020266709  
  52700000   0.069497506   -0.17821424     0             -0.12315918    -0.019129983  
  52710000   0.067029247   -0.14407488     0             -0.090975145   -0.11673148   
  52720000   0.075309198   -0.14576877     0             -0.08610976    -0.16661416   
  52730000   0.078974038   -0.14322846     0             -0.080666215    0.025101943  
  52740000   0.071350522   -0.13445721     0             -0.077934217    0.037671749  
  52750000   0.086260073   -0.14108857     0             -0.072754423   -0.035210909  
  52760000   0.067029846   -0.1373364      0             -0.084236194    0.0054527965 
  52770000   0.072530135   -0.14706511     0             -0.089607639   -0.021176474  
  52780000   0.073288374   -0.14169768     0             -0.083639541   -0.036034596  
  52790000   0.074413973   -0.14632467     0             -0.087374855    0.069649404  
  52800000   0.066128429   -0.15961805     0             -0.10723193     0.039669615  
  52810000   0.070704931   -0.15941814     0             -0.10340658    -0.033197161  
  52820000   0.068666523   -0.16397961     0             -0.10958285     0.040991424  
  52830000   0.074846704   -0.1506579      0             -0.091365272    0.012585013  
  52840000   0.07169768    -0.15074763     0             -0.093949622    0.069135797  
  52850000   0.066690232   -0.16250409     0             -0.10967292    -0.031436496  
  52860000   0.067595681   -0.1522767      0             -0.09872825    -0.028157038  
  52870000   0.0805648     -0.16477767     0             -0.10095524    -0.090273159  
  52880000   0.065027087   -0.16969393     0             -0.11818028     0.031635827  
  52890000   0.067874      -0.16001702     0             -0.10624809     0.059547479  
  52900000   0.073264695   -0.15799239     0             -0.099953013    0.015784746  
  52910000   0.075709588   -0.16051457     0             -0.10053838    -0.033988201  
  52920000   0.065594846   -0.14602086     0             -0.094057443    0.02298495   
  52930000   0.085432671   -0.13627647     0             -0.068597778   -0.013191506  
  52940000   0.072003189   -0.13912007     0             -0.082080042   -0.017434577  
  52950000   0.067475314   -0.14198222     0             -0.088529119   -0.024860214  
  52960000   0.066743996   -0.13741524     0             -0.084541482    0.035772326  
  52970000   0.070427268   -0.14911389     0             -0.093322287    0.018797514  
  52980000   0.069330841   -0.13468706     0             -0.079764034    0.054860427  
  52990000   0.067726431   -0.13759584     0             -0.083943809    0.032076605  
  53000000   0.081064158   -0.14571553     0             -0.081497519   -0.004926006  
  53010000   0.0760199     -0.13789858     0             -0.07767657     0.025067557  
  53020000   0.07805262    -0.1396094      0             -0.077777085   -0.020677809  
  53030000   0.068824385   -0.15289051     0             -0.098368689   -0.029758028  
  53040000   0.074132394   -0.16070825     0             -0.1019815     -0.037250266  
  53050000   0.070525456   -0.15531019     0             -0.099440803    0.013533598  
  53060000   0.070481745   -0.15743486     0             -0.1016001     -0.12086204   
  53070000   0.075329201   -0.1616109      0             -0.10193605    -0.033510753  
  53080000   0.069630814   -0.14754236     0             -0.092381695    0.011156088  
  53090000   0.079367858   -0.1518677      0             -0.088993477    0.060098683  
  53100000   0.072236147   -0.1677719      0             -0.11054732    -0.037619145  
  53110000   0.073045288   -0.15909199     0             -0.10122643    -0.13594193   
  53120000   0.069946021   -0.15124486     0             -0.095834499   -0.04799304   
  53130000   0.073029208   -0.14711955     0             -0.089266729    0.038419518  
  53140000   0.073159484   -0.13946192     0             -0.081505889    0.0068791481 
  53150000   0.063456621   -0.13978932     0             -0.089519774   -0.067389543  
  53160000   0.061583952   -0.13382363     0             -0.08503759     0.034528472  
  53170000   0.06604089    -0.1510653      0             -0.098748533    0.011778429  
  53180000   0.075901906   -0.14566603     0             -0.085537492    0.01502092   
  53190000   0.067287993   -0.13703183     0             -0.083727121    0.024544172  
  53200000   0.066058194   -0.14370027     0             -0.091369793    0.043141773  
  53210000   0.064583014   -0.14433971     0             -0.093177857    0.04511464   
  53220000   0.070362366   -0.15034592     0             -0.094605733   -0.022892708  
  53230000   0.072553138   -0.14036681     0             -0.082891118    0.027064745  
  53240000   0.0777077     -0.15776554     0             -0.096206468   -0.028733676  
  53250000   0.071714168   -0.13548837     0             -0.078677306   -0.046787232  
  53260000   0.074093138   -0.14679421     0             -0.088098554    0.0028518793 
  53270000   0.071240225   -0.15086806     0             -0.094432448    0.024689232  
  53280000   0.059970239   -0.15111922     0             -0.10361155    -0.011433831  
  53290000   0.06719372    -0.15760142     0             -0.10437139    -0.0065673613 
  53300000   0.069375249   -0.15613992     0             -0.10118172     0.040979475  
  53310000   0.077996748   -0.15687636     0             -0.095088309   -0.0093404572 
  53320000   0.068679426   -0.15204161     0             -0.097634628    0.053134342  
  53330000   0.070007857   -0.14917815     0             -0.093718804   -0.072801918  
  53340000   0.069578773   -0.14084418     0             -0.085724747   -0.040582424  
  53350000   0.077493839   -0.16070779     0             -0.099318135    0.032261756  
  53360000   0.070840853   -0.15833046     0             -0.10221122    -0.066383654  
  53370000   0.071118836   -0.14670344     0             -0.09036399     0.019907398  
  53380000   0.074757779   -0.15586259     0             -0.096640411   -0.009841671  
  53390000   0.078533146   -0.13347302     0             -0.071260041   -0.066502581  
  53400000   0.078602234   -0.12048512     0             -0.058217414   -0.013870777  
  53410000   0.067899592   -0.13516732     0             -0.08137811    -0.034627358  
  53420000   0.077990211   -0.13790094     0             -0.076118066   -0.034030115  
  53430000   0.072569862   -0.13407378     0             -0.076584843   -0.041514767  
  53440000   0.070492518   -0.15247643     0             -0.096633134    0.013391733  
  53450000   0.069396725   -0.12926406     0             -0.074288843   -0.040509759  
  53460000   0.065009617   -0.1149848      0             -0.063484999   -0.039667868  
  53470000   0.080670346   -0.11359318     0             -0.049687138   -0.036409446  
  53480000   0.074560022   -0.10797848     0             -0.048912963    0.039290378  
  53490000   0.070414843   -0.11673046     0             -0.060948703   -0.044750406  
  53500000   0.072612472   -0.13326734     0             -0.075744648    0.0028413843 
  53510000   0.067579519   -0.13393639     0             -0.080400741   -0.050184589  
  53520000   0.068765072   -0.14572157     0             -0.09124674    -0.038463524  
  53530000   0.075575675   -0.14723778     0             -0.087367672   -0.0026188647 
  53540000   0.067190065   -0.14224216     0             -0.089015029   -0.062212839  
  53550000   0.072416456   -0.15025725     0             -0.092889838   -0.014461872  
  53560000   0.068961555   -0.15195984     0             -0.097329363   -0.00070883629
  53570000   0.066580377   -0.14698008     0             -0.09423594    -0.051998696  
  53580000   0.065785391   -0.13499517     0             -0.082880807   -0.045035182  
  53590000   0.069245906   -0.15027305     0             -0.095417313   -0.06468323   
  53600000   0.069667342   -0.13283331     0             -0.077643715    0.046420313  
  53610000   0.068353235   -0.14284871     0             -0.088700132    0.01786115   
  53620000   0.073606513   -0.14354008     0             -0.08522992     0.042467589  
  53630000   0.078481043   -0.12710306     0             -0.064931358   -0.089892907  
  53640000   0.064791063   -0.13296856     0             -0.081641892    0.057025982  
  53650000   0.059948209   -0.14243449     0             -0.094944267   -0.017046261  
  53660000   0.070265475   -0.13182387     0             -0.076160443    0.049112954  
  53670000   0.078849918   -0.13360327     0             -0.071139356   -0.016152597  
  53680000   0.07227243    -0.13204765     0             -0.074794335   -0.034149054  
  53690000   0.071835655   -0.12880694     0             -0.071899628   -0.045347822  
  53700000   0.067563136   -0.14573569     0             -0.092213019    0.05643145   
  53710000   0.072031789   -0.15511023     0             -0.098047552    0.0026249369 
  53720000   0.061962196   -0.15611046     0             -0.10702478    -0.055026933  
  53730000   0.062950359   -0.15709429     0             -0.10722581    -0.054851193  
  53740000   0.068829602   -0.15983284     0             -0.10530689    -0.017613274  
  53750000   0.076118275   -0.15008625     0             -0.089786307    0.072986694  
  53760000   0.066155115   -0.16024642     0             -0.10783917     0.015941183  
  53770000   0.065208193   -0.13929077     0             -0.087633651   -0.0023195528 
  53780000   0.061840428   -0.1452434      0             -0.096254188    0.048758166  
  53790000   0.064653066   -0.16582016     0             -0.11460281    -0.013683144  
  53800000   0.063580535   -0.14291397     0             -0.092546264   -0.12412755   
  53810000   0.073274364   -0.14347802     0             -0.085430986   -0.024205318  
  53820000   0.07233002    -0.14268316     0             -0.085384218   -0.060211188  
  53830000   0.078694414   -0.14508638     0             -0.082745649   -0.0079069172 
  53840000   0.079843703   -0.14513271     0             -0.081881528    0.010151513  
  53850000   0.073581175   -0.12834354     0             -0.070053453   -0.033519385  
  53860000   0.068650115   -0.14024587     0             -0.085862107   -0.10020619   
  53870000   0.06836503    -0.15883249     0             -0.10467457     0.075954504  
  53880000   0.064032674   -0.15016614     0             -0.099440256   -0.017306105  
  53890000   0.079473939   -0.14869229     0             -0.085734025   -0.069042214  
  53900000   0.072826862   -0.14694506     0             -0.089252533    0.017474991  
  53910000   0.080837313   -0.13283771     0             -0.068799401    0.022489164  
  53920000   0.080026646   -0.12843175     0             -0.065035639    0.01457759   
  53930000   0.084197841   -0.11933629     0             -0.052635816    0.028801069  
  53940000   0.070320958   -0.13579564     0             -0.080088256    0.015821087  
  53950000   0.073279633   -0.14387803     0             -0.085826825   -0.037298423  
  53960000   0.074325671   -0.13900488     0             -0.080125016    0.031520878  
  53970000   0.07633874    -0.1238829      0             -0.063408308   -0.016664679  
  53980000   0.07085464    -0.13987685     0             -0.083746688   -0.023225933  
  53990000   0.069519383   -0.1397152      0             -0.084642809    0.07829807   
  54000000   0.057762404   -0.14123974     0             -0.095481085   -0.037776017  
  54010000   0.067155716   -0.1310657      0             -0.077865782   -0.062662565  
  54020000   0.064418169   -0.16153042     0             -0.11049915    -0.013279482  
  54030000   0.071727155   -0.15507882     0             -0.098257469   -0.0041678136 
  54040000   0.077448504   -0.15002508     0             -0.088671348    0.032361752  
  54050000   0.076134811   -0.15859629     0             -0.098283244   -0.12773022   
  54060000   0.070572537   -0.14387185     0             -0.087965165    0.020373415  
  54070000   0.079077257   -0.14900607     0             -0.086362056    0.087221293  
  54080000   0.071640433   -0.14999358     0             -0.093240922    0.086793216  
  54090000   0.070695187   -0.1676023      0             -0.11159846    -0.046725064  
  54100000   0.069627286   -0.1515167      0             -0.096358837   -0.02517288   
  54110000   0.061153545   -0.1536138      0             -0.10516872    -0.0041725854 
  54120000   0.081264814   -0.13225988     0             -0.06788291     0.068461838  
  54130000   0.064805848   -0.12682492     0             -0.075486536    0.061839782  
  54140000   0.077006513   -0.15847438     0             -0.097470779    0.004602912  
  54150000   0.073566563   -0.12901049     0             -0.070731975   -0.045627474  
  54160000   0.075395061   -0.14442829     0             -0.08470127     0.026484688  
  54170000   0.072318766   -0.15200636     0             -0.09471634    -0.03441933   
  54180000   0.071338547   -0.14253251     0             -0.086019      -0.032328362  
  54190000   0.071580444   -0.13944359     0             -0.082738461   -0.022098322  
  54200000   0.074637694   -0.14458131     0             -0.08545426    -0.059825718  
  54210000   0.067863126   -0.13494997     0             -0.081189654    0.075595511  
  54220000   0.075032986   -0.13267059     0             -0.073230393   -0.017722882  
  54230000   0.075706357   -0.14184852     0             -0.081874895    0.0086974195 
  54240000   0.07368626    -0.15137657     0             -0.093003232   -0.099113399  
  54250000   0.068490971   -0.14652722     0             -0.09226953    -0.025872326  
  54260000   0.075667523   -0.14901629     0             -0.089073427    0.05105315   
  54270000   0.071851539   -0.15286157     0             -0.095941675    0.0099952659 
  54280000   0.066660919   -0.14186204     0             -0.089054089   -0.033587085  
  54290000   0.068962006   -0.14623121     0             -0.091600369   -0.050654725  
  54300000   0.066624698   -0.1553431      0             -0.10256385    -0.036927865  
  54310000   0.083987186   -0.15774607     0             -0.09121247    -0.017269732  
  54320000   0.076921302   -0.14832736     0             -0.087391269   -0.054174686  
  54330000   0.073693262   -0.15395775     0             -0.095578866   -0.048641629  
  54340000   0.064199998   -0.15515492     0             -0.10429649    -0.0056510737 
  54350000   0.072768614   -0.15152857     0             -0.093882183    0.014365138  
  54360000   0.075005492   -0.16547747     0             -0.10605905    -0.035241837  
  54370000   0.072377229   -0.14614251     0             -0.08880617    -0.065983456  
  54380000   0.067223811   -0.15871635     0             -0.10546248    -0.026976613  
  54390000   0.067148409   -0.15493587     0             -0.10174174    -0.060965095  
  54400000   0.060088015   -0.16010141     0             -0.11250044    -0.049123466  
  54410000   0.066624536   -0.1522437      0             -0.099464575    0.038204058  
  54420000   0.068402801   -0.13044809     0             -0.076260244   -0.056477934  
  54430000   0.069133332   -0.15150736     0             -0.096740802    0.053828117  
  54440000   0.068898803   -0.15912002     0             -0.10453925     0.057579528  
  54450000   0.066323559   -0.16507879     0             -0.11253809    -0.062091084  
  54460000   0.072522705   -0.16779591     0             -0.11034433    -0.050671023  
  54470000   0.072714428   -0.14961017     0             -0.092006711   -0.021229715  
  54480000   0.065948688   -0.15520566     0             -0.10296194    -0.072476683  
  54490000   0.073240324   -0.13782291     0             -0.079802838    0.058534942  
  54500000   0.07682517    -0.14079821     0             -0.079938275    0.054391427  
  54510000   0.064184874   -0.13859984     0             -0.087753382    0.029358922  
  54520000   0.077364885   -0.14821881     0             -0.086931313    0.0064313623 
  54530000   0.079729197   -0.1326805      0             -0.069520026   -0.011010294  
  54540000   0.073696456   -0.14376376     0             -0.085382351   -0.0037435934 
  54550000   0.072750769   -0.13612204     0             -0.078489793   -0.088997901  
  54560000   0.06302491    -0.15024512     0             -0.10031758    -0.025471818  
  54570000   0.078393815   -0.14993684     0             -0.087834244   -0.046204153  
  54580000   0.068362067   -0.14495876     0             -0.090803185   -0.022345822  
  54590000   0.076460751   -0.1413866      0             -0.080815349    0.034686604  
  54600000   0.069052691   -0.13626012     0             -0.081557445    0.01815156   
  54610000   0.069827131   -0.15489062     0             -0.099574437   -0.016658886  
  54620000   0.06665786    -0.13455999     0             -0.081754463    0.003815921  
  54630000   0.073648467   -0.15687331     0             -0.098529918   -0.057489182  
  54640000   0.072989827   -0.16442435     0             -0.10660272    -0.12458839   
  54650000   0.073806829   -0.13957491     0             -0.081106059    0.0063880133 
  54660000   0.071146401   -0.15354877     0             -0.097187485   -0.046253516  
  54670000   0.070674675   -0.14669677     0             -0.090709175   -0.041877172  
  54680000   0.065277158   -0.15914273     0             -0.10743098     0.05553088   
  54690000   0.063304983   -0.14578366     0             -0.095634246    0.016669891  
  54700000   0.070856094   -0.15943073     0             -0.10329941    -0.06269934   
  54710000   0.062350761   -0.14217365     0             -0.092780154    0.014457142  
  54720000   0.070033511   -0.14497362     0             -0.08949395    -0.044416342  
  54730000   0.077039956   -0.13629982     0             -0.07526973    -0.0089126027 
  54740000   0.078966654   -0.13254945     0             -0.069993056   -0.055715643  
  54750000   0.072647784   -0.12686096     0             -0.069310292   -0.020911526  
  54760000   0.070771257   -0.13107978     0             -0.075015678   -0.026986758  
  54770000   0.074499801   -0.1259775      0             -0.066959684    0.060791293  
  54780000   0.062379868   -0.15311544     0             -0.10369889    -0.048219042  
  54790000   0.069212335   -0.14498381     0             -0.090154668   -0.01325646   
  54800000   0.085641994   -0.15017217     0             -0.082327656    0.10839178   
  54810000   0.080160949   -0.14546845     0             -0.08196595    -0.010958595  
  54820000   0.068150449   -0.15654366     0             -0.10255573    -0.010373851  
  54830000   0.072687973   -0.15230903     0             -0.094726524   -0.054873636  
  54840000   0.07059897    -0.14933176     0             -0.093404141   -0.014643557  
  54850000   0.077278412   -0.14642949     0             -0.085210499   -0.01484061   
  54860000   0.066420493   -0.14645132     0             -0.093833841    0.017486187  
  54870000   0.067342893   -0.15256468     0             -0.099216486   -0.015552359  
  54880000   0.067669162   -0.14787336     0             -0.094266698   -0.062767641  
  54890000   0.074890708   -0.13576085     0             -0.076433372   -0.094310755  
  54900000   0.072925727   -0.14625645     0             -0.088485601    0.020710943  
  54910000   0.07250159    -0.14863013     0             -0.09119528    -0.059540902  
  54920000   0.064830501   -0.13950132     0             -0.08814341    -0.021420516  
  54930000   0.070425184   -0.13775468     0             -0.081964727   -0.013935871  
  54940000   0.067259758   -0.16096        0             -0.10767766    -0.047219117  
  54950000   0.066292281   -0.15475714     0             -0.10224123     0.016733841  
  54960000   0.083938756   -0.15604904     0             -0.089553807   -0.050625784  
  54970000   0.07417481    -0.15991324     0             -0.10115288    -0.050516893  
  54980000   0.083718294   -0.15211625     0             -0.085795662   -0.13878398   
  54990000   0.082023081   -0.15046284     0             -0.085485178    0.038157477  
  55000000   0.065959678   -0.15553383     0             -0.10328139     0.064957482  
  55010000   0.076059628   -0.16519958     0             -0.1049461      0.04730611   
  55020000   0.076665982   -0.16319853     0             -0.1024647      0.022675265  
  55030000   0.069501314   -0.15412456     0             -0.099066486   -0.014526956  
  55040000   0.078766564   -0.14014558     0             -0.077747694   -0.009590455  
  55050000   0.078911174   -0.14289527     0             -0.080382826   -0.02704784   
  55060000   0.070812907   -0.15248563     0             -0.096388533    0.0011595137 
  55070000   0.067911558   -0.16203443     0             -0.10823574     0.0080391249 
  55080000   0.073682453   -0.14233311     0             -0.083962794   -0.036092379  
  55090000   0.067988693   -0.1474563      0             -0.093596503    0.032756682  
  55100000   0.075700078   -0.15367513     0             -0.093706477    0.029579415  
  55110000   0.068734567   -0.1695615      0             -0.11511084    -0.058367879  
  55120000   0.069474498   -0.15658934     0             -0.10155251     0.072742075  
  55130000   0.071998787   -0.16973315     0             -0.11269662    -0.14464995   
  55140000   0.064236204   -0.14905429     0             -0.098167177    0.0051414869 
  55150000   0.063962216   -0.16494263     0             -0.11427256    -0.097944138  
  55160000   0.075651422   -0.1683024      0             -0.10837229    -0.12097654   
  55170000   0.071359922   -0.16787337     0             -0.11134294    -0.077134155  
  55180000   0.081031008   -0.16910389     0             -0.10491213    -0.038657925  
  55190000   0.06752709    -0.15401601     0             -0.1005219      0.11120514   
  55200000   0.075815898   -0.16376139     0             -0.10370098     0.021153413  
  55210000   0.073715318   -0.1554186      0             -0.097022247   -0.073748039  
  55220000   0.069854442   -0.14537229     0             -0.09003447    -0.0099096848 
  55230000   0.066713553   -0.1454431      0             -0.092593457    0.036780507  
  55240000   0.07339589    -0.1465761      0             -0.088432792   -0.019419299  
  55250000   0.07128052    -0.15132608     0             -0.094858542   -0.003582364  
  55260000   0.07841549    -0.159626       0             -0.097506229   -0.064444462  
  55270000   0.068560038   -0.15166422     0             -0.09735182     0.041839552  
  55280000   0.072677299   -0.16185011     0             -0.10427607     0.032610843  
  55290000   0.070813697   -0.14931684     0             -0.093219114    0.02947714   
  55300000   0.070814579   -0.1355943      0             -0.07949588     0.029131255  
  55310000   0.068500599   -0.13357519     0             -0.079309875   -0.053175896  
  55320000   0.060756422   -0.1537134      0             -0.10558292    -0.051978937  
  55330000   0.076451399   -0.1481427      0             -0.087578856    0.046643748  
  55340000   0.06340031    -0.15261154     0             -0.10238661    -0.012258857  
  55350000   0.069546504   -0.15424792     0             -0.099154053   -0.0064726619 
  55360000   0.073572692   -0.15645354     0             -0.098170168    0.021480447  
  55370000   0.064974137   -0.15388059     0             -0.10240889     0.059765842  
  55380000   0.070836873   -0.16159254     0             -0.10547646    -0.021206693  
  55390000   0.074074578   -0.14549467     0             -0.086813718    0.0071979549 
  55400000   0.073689319   -0.13832333     0             -0.079947572   -0.042887407  
  55410000   0.069941954   -0.14482539     0             -0.089418251   -0.030972542  
  55420000   0.070607868   -0.15874877     0             -0.1028141     -0.0010342225 
  55430000   0.061050245   -0.13938025     0             -0.091017009   -0.073256964  
  55440000   0.076064281   -0.13377079     0             -0.073513615    0.012868259  
  55450000   0.074965056   -0.12488718     0             -0.065500796    0.022274448  
  55460000   0.07298017    -0.13422719     0             -0.076413213   -0.020376372  
  55470000   0.067545324   -0.14823709     0             -0.09472853    -0.048176613  
  55480000   0.075146619   -0.15672144     0             -0.097191228   -0.015419673  
  55490000   0.068441298   -0.15245447     0             -0.098236129   -0.088323567  
  55500000   0.066125541   -0.15038531     0             -0.098001484   -0.046876534  
  55510000   0.072965092   -0.15936481     0             -0.10156278    -0.024311059  
  55520000   0.072994557   -0.16374279     0             -0.10591741    -0.0054981228 
  55530000   0.072211763   -0.14701436     0             -0.089809107   -0.040308344  
  55540000   0.083945772   -0.13398981     0             -0.067489021    0.019533221  
  55550000   0.067708049   -0.12453718     0             -0.070899705    0.094221612  
  55560000   0.070953389   -0.13003182     0             -0.073823431    0.018462817  
  55570000   0.071483259   -0.14032838     0             -0.083700234   -0.017394867  
  55580000   0.067818534   -0.13639539     0             -0.082670395    0.0042088066 
  55590000   0.064107886   -0.13788606     0             -0.08710059     0.0087166334 
  55600000   0.081002995   -0.13600073     0             -0.071831168    0.011857568  
  55610000   0.07409425    -0.15173539     0             -0.093038856   -0.076772293  
  55620000   0.066232975   -0.14597536     0             -0.093506426   -0.0012845392 
  55630000   0.080613185   -0.13919967     0             -0.075338917   -0.034458217  
  55640000   0.065628092   -0.14255803     0             -0.090568277   -0.030944331  
  55650000   0.075027313   -0.13848318     0             -0.079047484    0.026109211  
  55660000   0.071317036   -0.14112861     0             -0.084632143   -0.063381292  
  55670000   0.074391521   -0.11952354     0             -0.060591508    0.019217131  
  55680000   0.074229224   -0.15787871     0             -0.099075249   -0.067759311  
  55690000   0.072509591   -0.15070208     0             -0.093260885   -0.10220895   
  55700000   0.078236126   -0.14580073     0             -0.083823045   -0.071517929  
  55710000   0.079999449   -0.14285196     0             -0.079477392   -0.068675384  
  55720000   0.063827858   -0.16999847     0             -0.11943484     0.041187864  
  55730000   0.066464245   -0.16439038     0             -0.11173823     0.05930647   
  55740000   0.071420646   -0.1597594      0             -0.10318086     0.025302919  
  55750000   0.076703065   -0.16445217     0             -0.10368896    -0.0085956518 
  55760000   0.072244133   -0.16398963     0             -0.10675873    -0.0087391537 
  55770000   0.082108456   -0.17080307     0             -0.10575778    -0.11002316   
  55780000   0.066407814   -0.16772211     0             -0.11511467    -0.081978902  
  55790000   0.071894778   -0.1731712      0             -0.11621706    -0.025097854  
  55800000   0.060384958   -0.16550001     0             -0.1176638     -0.11642187   
  55810000   0.07081315    -0.15606611     0             -0.09996882    -0.068910641  
  55820000   0.065407617   -0.15406579     0             -0.10225069    -0.0042054612 
  55830000   0.080151735   -0.14186816     0             -0.078372955    0.12817978   
  55840000   0.077228104   -0.16117486     0             -0.099995721    0.0014112507 
  55850000   0.065584582   -0.15732219     0             -0.1053669      0.015243804  
  55860000   0.078606742   -0.13660835     0             -0.074337071    0.0041965892 
  55870000   0.076137785   -0.14552794     0             -0.085212537    0.0032081539 
  55880000   0.068437653   -0.15092686     0             -0.096711402    0.023587588  
  55890000   0.072392272   -0.17003601     0             -0.11268776    -0.0066976214 
  55900000   0.081450937   -0.15767565     0             -0.093151235    0.034701253  
  55910000   0.073165063   -0.16044584     0             -0.10248539    -0.061566701  
  55920000   0.062357537   -0.13821654     0             -0.088817681    0.02474911   
  55930000   0.070600287   -0.12421206     0             -0.068283398   -0.040869603  
  55940000   0.078200696   -0.15146538     0             -0.089515767    0.008685461  
  55950000   0.072286864   -0.15502424     0             -0.097759494   -0.0071639114 
  55960000   0.065410672   -0.13696819     0             -0.085150673    0.070781089  
  55970000   0.064128293   -0.1511627      0             -0.10036106    -0.039484943  
  55980000   0.075728078   -0.16746524     0             -0.1074744     -0.016662363  
  55990000   0.065915333   -0.17263635     0             -0.12041905    -0.060182692  
  56000000   0.064141908   -0.16991874     0             -0.11910633    -0.015898819  
  56010000   0.071102685   -0.15893432     0             -0.10260766    -0.022407337  
  56020000   0.066422071   -0.16754704     0             -0.11492831     0.03341339   
  56030000   0.068999226   -0.15655226     0             -0.10189194    -0.025269813  
  56040000   0.075719946   -0.15962423     0             -0.099639833   -0.0078012293 
  56050000   0.073307848   -0.17020915     0             -0.11213559     0.023209703  
  56060000   0.075337913   -0.1537307      0             -0.094048949    0.021447335  
  56070000   0.077467796   -0.15316882     0             -0.0917998      0.0031814407 
  56080000   0.078377258   -0.16529029     0             -0.10320081    -0.014580556  
  56090000   0.063103777   -0.1460212      0             -0.096031173    0.031110377  
  56100000   0.069822829   -0.14520131     0             -0.08988854    -0.0063173026 
  56110000   0.072495547   -0.14842219     0             -0.090992127   -0.01593217   
  56120000   0.082428562   -0.1589928      0             -0.093693921   -0.029413358  
  56130000   0.072585049   -0.14355104     0             -0.086050068   -0.042135678  
  56140000   0.066678004   -0.1535176      0             -0.10069612     0.096187885  
  56150000   0.078410148   -0.14054249     0             -0.078426956    0.00098055242
  56160000   0.073157247   -0.13920095     0             -0.08124669    -0.085805886  
  56170000   0.072785239   -0.15120835     0             -0.093548792    0.014681906  
  56180000   0.073729564   -0.15476898     0             -0.096361338    0.027879672  
  56190000   0.079543292   -0.16068778     0             -0.097674578   -0.019043791  
  56200000   0.077387475   -0.14972494     0             -0.088419548   -0.096552344  
  56210000   0.068982259   -0.15117522     0             -0.096528335    0.005852101  
  56220000   0.071698353   -0.14542526     0             -0.088626717   -0.02323949   
  56230000   0.067067635   -0.16175512     0             -0.10862498    -0.15271919   
  56240000   0.080057001   -0.15185871     0             -0.088438553    0.026244699  
  56250000   0.069702651   -0.14978163     0             -0.094564061    0.0090427025 
  56260000   0.073899697   -0.15576847     0             -0.097226051   -0.069063379  
  56270000   0.07259154    -0.13212784     0             -0.074621729   -0.031807317  
  56280000   0.073612663   -0.15029716     0             -0.091982126    0.0049022883 
  56290000   0.072304403   -0.14423406     0             -0.086955412   -0.038094671  
  56300000   0.070239943   -0.15002367     0             -0.094380468   -0.022946178  
  56310000   0.066574683   -0.15348866     0             -0.10074903    -0.10294657   
  56320000   0.075672736   -0.16159621     0             -0.10164921     0.050883719  
  56330000   0.06652962    -0.14076352     0             -0.088059584   -0.084792464  
  56340000   0.059431398   -0.14094857     0             -0.093867759   -0.010314745  
  56350000   0.066568722   -0.14989291     0             -0.097157996   -0.051775542  
  56360000   0.064337912   -0.16560413     0             -0.11463644    -0.019878017  
  56370000   0.064217807   -0.14627787     0             -0.095405325   -0.062960247  
  56380000   0.073474872   -0.15754316     0             -0.099337287   -0.0050378822 
  56390000   0.071838378   -0.16244587     0             -0.1055364     -0.005991583  
  56400000   0.070579882   -0.16313876     0             -0.10722626    -0.074905076  
  56410000   0.067923008   -0.16141549     0             -0.10760773    -0.015316324  
  56420000   0.063118382   -0.16742371     0             -0.11742212    -0.019644628  
  56430000   0.067541011   -0.14564968     0             -0.092144536    0.036041915  
  56440000   0.068365236   -0.16293862     0             -0.10878053     0.026661331  
  56450000   0.065569955   -0.15367049     0             -0.10172679    -0.05734326   
  56460000   0.071144333   -0.13332483     0             -0.076965174   -0.036723293  
  56470000   0.072065336   -0.12798953     0             -0.070900277    0.0084802771 
  56480000   0.072040861   -0.14033719     0             -0.083267321    0.011949295  
  56490000   0.073664197   -0.14788204     0             -0.089526188   -0.013201493  
  56500000   0.065767892   -0.13324433     0             -0.081143827   -0.040122328  
  56510000   0.075347977   -0.13082556     0             -0.071135833    0.044474204  
  56520000   0.068748504   -0.13993436     0             -0.085472659   -0.056269837  
  56530000   0.069201685   -0.14782277     0             -0.09300206    -0.072128172  
  56540000   0.06683607    -0.12747512     0             -0.074528425   -0.0024461629 
  56550000   0.075147157   -0.13828336     0             -0.078752722   -0.086742503  
  56560000   0.068201698   -0.14468447     0             -0.09065594    -0.0060026144 
  56570000   0.069258628   -0.14993249     0             -0.095066674    0.025790527  
  56580000   0.075389622   -0.15541429     0             -0.095691572    0.0061946788 
  56590000   0.064731267   -0.17267754     0             -0.12139824    -0.032928835  
  56600000   0.071990287   -0.14326678     0             -0.086236978   -0.014964491  
  56610000   0.067079371   -0.15387473     0             -0.10073529    -0.0021916918 
  56620000   0.067831002   -0.15869633     0             -0.10496146    -0.047771635  
  56630000   0.065813973   -0.15556444     0             -0.10342743     0.06672068   
  56640000   0.070114569   -0.14921366     0             -0.093669774   -0.052180806  
  56650000   0.067881546   -0.14169834     0             -0.087923431   -0.034289496  
  56660000   0.07618691    -0.14479224     0             -0.08443792    -0.03607149   
  56670000   0.0732802     -0.15796417     0             -0.099912508   -0.045104859  
  56680000   0.0731831     -0.1552631      0             -0.097288365   -0.063344227  
  56690000   0.065920277   -0.13695131     0             -0.084730089    0.02872006   
  56700000   0.074985351   -0.14404699     0             -0.084644537   -0.047172627  
  56710000   0.071023703   -0.14494016     0             -0.088676071    0.026199081  
  56720000   0.075217642   -0.14356631     0             -0.083979834    0.075163182  
  56730000   0.080874007   -0.15151576     0             -0.087448383   -0.043005805  
  56740000   0.070738978   -0.14434565     0             -0.088307118    0.058450853  
  56750000   0.07731224    -0.13692849     0             -0.075682701   -0.038677246  
  56760000   0.066394917   -0.13727154     0             -0.084674315   -0.031422172  
  56770000   0.072071656   -0.13905707     0             -0.081962808   -0.12623513   
  56780000   0.075352363   -0.14024613     0             -0.080552926    0.1027287    
  56790000   0.073488348   -0.14686223     0             -0.088645682   -0.10952469   
  56800000   0.072260324   -0.14030053     0             -0.083056805   -0.085623087  
  56810000   0.06755152    -0.15031017     0             -0.096796696   -0.0017108029 
  56820000   0.064214408   -0.13548128     0             -0.084611432   -0.023697032  
  56830000   0.076756526   -0.15411015     0             -0.093304594   -0.046748254  
  56840000   0.070251366   -0.16017213     0             -0.10451987     0.0073145586 
  56850000   0.069642557   -0.16615407     0             -0.11098411     0.010805227  
  56860000   0.075336057   -0.15516278     0             -0.095482495   -0.006782473  
  56870000   0.072782424   -0.15299791     0             -0.095340588   -0.060544081  
  56880000   0.077988027   -0.15883815     0             -0.097057009    0.016350046  
  56890000   0.062441876   -0.16395057     0             -0.1144849     -0.091560472  
  56900000   0.069891526   -0.1547222      0             -0.099355006   -0.087198899  
  56910000   0.065355817   -0.14699305     0             -0.095218986    0.036883056  
  56920000   0.073385024   -0.16293149     0             -0.10479679    -0.027262773  
  56930000   0.069430681   -0.15617192     0             -0.1011698      0.070269725  
  56940000   0.06951564    -0.13921437     0             -0.084144953   -0.025198115  
  56950000   0.070086501   -0.1485516      0             -0.093029951   -0.066981562  
  56960000   0.069524237   -0.15621732     0             -0.10114109    -0.020085898  
  56970000   0.060761541   -0.14245762     0             -0.094323088    0.028661394  
  56980000   0.069074101   -0.12765323     0             -0.072933591   -0.086754741  
  56990000   0.07110172    -0.14503665     0             -0.088710751   -0.050663686  
  57000000   0.081037574   -0.16610136     0             -0.10190441    -0.083232531  
  57010000   0.068793402   -0.14535662     0             -0.090859344   -0.011340439  
  57020000   0.073152898   -0.12975144     0             -0.071800629    0.027580549  
  57030000   0.067800992   -0.1463912      0             -0.092680106   -0.068640026  
  57040000   0.074587303   -0.13583488     0             -0.07674775    -0.12597823   
  57050000   0.077038577   -0.15356469     0             -0.092535691   -0.083201508  
  57060000   0.072688762   -0.14546609     0             -0.087882962   -0.035241937  
  57070000   0.069467865   -0.15526919     0             -0.10023761     0.01241254   
  57080000   0.080396095   -0.14361784     0             -0.079929063   -0.14748417   
  57090000   0.074383066   -0.14271227     0             -0.08378694    -0.048136929  
  57100000   0.072132777   -0.1601855      0             -0.10304282    -0.077178426  
  57110000   0.065990095   -0.1592237      0             -0.10694718    -0.0037929116 
  57120000   0.078086342   -0.14353438     0             -0.081675351   -0.014285532  
  57130000   0.066086567   -0.15125347     0             -0.098900522   -0.031573692  
  57140000   0.063862543   -0.14709173     0             -0.096500624    0.024623304  
  57150000   0.059206296   -0.13268916     0             -0.085786676    0.022484799  
  57160000   0.071083542   -0.134555       0             -0.07824351    -0.015462121  
  57170000   0.073530055   -0.13476682     0             -0.076517232   -0.037154061  
  57180000   0.072773845   -0.13982256     0             -0.082172032    0.054611019  
  57190000   0.075769945   -0.13194871     0             -0.071924708   -0.048136938  
  57200000   0.071787127   -0.13096842     0             -0.074099552    0.002278177  
  57210000   0.069949089   -0.14890121     0             -0.09348842     0.06292701   
  57220000   0.069881655   -0.14112309     0             -0.085763714    0.041257813  
  57230000   0.080485235   -0.15309593     0             -0.08933653    -0.0094103181 
  57240000   0.066187612   -0.15920641     0             -0.10677341     0.011388515  
  57250000   0.073431264   -0.14478127     0             -0.086609936   -0.10347702   
  57260000   0.063278363   -0.15608845     0             -0.10596012    -0.017329128  
  57270000   0.070182561   -0.15844482     0             -0.10284708    -0.018722844  
  57280000   0.069290354   -0.16252308     0             -0.10763213    -0.014530221  
  57290000   0.060665531   -0.16046857     0             -0.1124101     -0.1119183    
  57300000   0.057145162   -0.1426426      0             -0.097372915   -0.078432082  
  57310000   0.069707808   -0.1472933      0             -0.092071647   -0.1221407    
  57320000   0.07213607    -0.13086437     0             -0.073719075   -0.049012269  
  57330000   0.077910758   -0.13918019     0             -0.077460264   -0.0099732392 
  57340000   0.072672466   -0.1566097      0             -0.099039478    0.022602212  
  57350000   0.069382168   -0.1611957      0             -0.10623201     0.0099235566 
  57360000   0.062292745   -0.1540315      0             -0.10468397    -0.060030718  
  57370000   0.067501592   -0.14664756     0             -0.093173645    0.035361558  
  57380000   0.072193247   -0.15132242     0             -0.094131836   -0.015270985  
  57390000   0.072355181   -0.13561391     0             -0.078295036   -0.049606109  
  57400000   0.073211289   -0.13753767     0             -0.079540605   -0.02832879   
  57410000   0.067227144   -0.15387007     0             -0.10061357    -0.0002257278 
  57420000   0.070207127   -0.15165851     0             -0.096041303    0.00092026154
  57430000   0.067009579   -0.14608479     0             -0.093000639    0.0030124493 
  57440000   0.064401473   -0.15353103     0             -0.10251299    -0.026704467  
  57450000   0.069297522   -0.15832811     0             -0.10343148     0.068386335  
  57460000   0.069260054   -0.15858547     0             -0.10371852     0.047327221  
  57470000   0.073811593   -0.15862978     0             -0.10015716     0.010867663  
  57480000   0.071651163   -0.16309321     0             -0.10633205    -0.071135856  
  57490000   0.067015617   -0.1472452      0             -0.09415627    -0.06334826   
  57500000   0.061156524   -0.14736204     0             -0.098914606   -0.028840815  
  57510000   0.069660256   -0.14417212     0             -0.088988139    0.045070156  
  57520000   0.063620738   -0.16526134     0             -0.11486179    -0.024289388  
  57530000   0.074187508   -0.14410836     0             -0.085337945   -0.0020980368 
  57540000   0.066183358   -0.15595601     0             -0.10352639    -0.046264074  
  57550000   0.061364912   -0.14714796     0             -0.098535439   -0.062922119  
  57560000   0.069052056   -0.14998209     0             -0.095279917   -0.00059543938
  57570000   0.067040333   -0.14669307     0             -0.09358456    -0.043191753  
  57580000   0.064172945   -0.14709002     0             -0.096253013   -0.015690766  
  57590000   0.07263185    -0.14749239     0             -0.089954348   -0.047108795  
  57600000   0.068899024   -0.13576118     0             -0.081180237   -0.011630821  
  57610000   0.075008618   -0.12401618     0             -0.064595294    0.029750843  
  57620000   0.072048098   -0.14011249     0             -0.083036892    0.012825197  
  57630000   0.067212388   -0.15014332     0             -0.09689851     0.056004428  
  57640000   0.071009705   -0.14599437     0             -0.08974137     0.014636179  
  57650000   0.077618261   -0.1519133      0             -0.090425085    0.045866732  
  57660000   0.068787502   -0.15616665     0             -0.10167405     0.024734322  
  57670000   0.074412804   -0.15167747     0             -0.092728575   -0.095604984  
  57680000   0.079274568   -0.15941644     0             -0.096616119   -0.025099662  
  57690000   0.070421337   -0.14174266     0             -0.085955753    0.044524776  
  57700000   0.070197617   -0.14463564     0             -0.089025965   -0.06136113   
  57710000   0.071669132   -0.14321329     0             -0.086437899   -0.073932267  
  57720000   0.075252597   -0.12703293     0             -0.067418766    0.041938544  
  57730000   0.071375114   -0.12841572     0             -0.071873245   -0.010621286  
  57740000   0.067779383   -0.13143841     0             -0.077744429    0.097293815  
  57750000   0.072624549   -0.15148122     0             -0.093948955   -0.042048512  
  57760000   0.071529362   -0.14935569     0             -0.092691019   -0.0040740763 
  57770000   0.073871753   -0.14833462     0             -0.089814336   -0.062135034  
  57780000   0.070251998   -0.1544534      0             -0.098800642   -0.0062022792 
  57790000   0.07390422    -0.13581101     0             -0.077265014   -0.064629714  
  57800000   0.074535876   -0.14353486     0             -0.084488466    0.10257134   
  57810000   0.069131638   -0.13671351     0             -0.081948293    0.020997133  
  57820000   0.070603919   -0.13952025     0             -0.083588709    0.065701533  
  57830000   0.07034463    -0.14354405     0             -0.087817915   -0.043226595  
  57840000   0.069427273   -0.15344172     0             -0.0984423     -0.13446062   
  57850000   0.067088595   -0.16310462     0             -0.10995787    -0.10157343   
  57860000   0.071664796   -0.15512822     0             -0.098356264   -0.07342278   
  57870000   0.078319306   -0.15404963     0             -0.092006059   -0.060697347  
  57880000   0.063883512   -0.15255956     0             -0.10195184    -0.046043426  
  57890000   0.066948544   -0.13967681     0             -0.086641013    0.053954097  
  57900000   0.07155532    -0.14768393     0             -0.090998696   -0.045425816  
  57910000   0.075385352   -0.14314174     0             -0.083422405    0.047501195  
  57920000   0.069012142   -0.15379244     0             -0.099121884   -0.009753389  
  57930000   0.066912974   -0.14842174     0             -0.095414119   -0.069803781  
  57940000   0.059933964   -0.1570048      0             -0.10952586    -0.0094231212 
  57950000   0.07107886    -0.14562851     0             -0.089320724   -0.072503195  
  57960000   0.078631506   -0.15184631     0             -0.089555415   -0.01120253   
  57970000   0.071780725   -0.16269907     0             -0.10583528    -0.03056249   
  57980000   0.075186751   -0.13888913     0             -0.079327121   -0.013838009  
  57990000   0.071415814   -0.13613161     0             -0.079556895   -0.020794014  
  58000000   0.065407611   -0.15198076     0             -0.10016567    -0.042407633  
  58010000   0.062991948   -0.1354174      0             -0.085515964   -0.047606457  
  58020000   0.068816658   -0.15190781     0             -0.097392115    0.015904195  
  58030000   0.070435954   -0.15275241     0             -0.096953931   -0.10205456   
  58040000   0.076927267   -0.15481326     0             -0.093872439   -0.057658324  
  58050000   0.068922652   -0.15887962     0             -0.10427995    -0.0071289769 
  58060000   0.0649655     -0.14513662     0             -0.093671763    0.042413267  
  58070000   0.065964837   -0.1502679      0             -0.098011377    0.0025307581 
  58080000   0.06655359    -0.16615487     0             -0.11343195     0.018779211  
  58090000   0.058550863   -0.15724203     0             -0.11085877    -0.047895705  
  58100000   0.061572715   -0.16460471     0             -0.11582757     0.0026812574 
  58110000   0.081930646   -0.16732433     0             -0.1024199     -0.049298753  
  58120000   0.069501018   -0.15233499     0             -0.097277157   -0.01127764   
  58130000   0.070958471   -0.14663509     0             -0.090422675    0.027328062  
  58140000   0.075783969   -0.13115006     0             -0.071114947   -0.042978545  
  58150000   0.070288091   -0.1380098      0             -0.082328448   -0.010400709  
  58160000   0.071637021   -0.13929821     0             -0.082548255    0.0046906056 
  58170000   0.071838846   -0.13429013     0             -0.077380298    0.012824417  
  58180000   0.065879957   -0.13391477     0             -0.081725489    0.015173952  
  58190000   0.065707365   -0.15265962     0             -0.10060707    -0.063052729  
  58200000   0.072607634   -0.14904517     0             -0.091526306   -4.7250277e-06
  58210000   0.069969085   -0.12812041     0             -0.072691773   -0.019808935  
  58220000   0.074479868   -0.16389512     0             -0.10489309     0.082759573  
  58230000   0.079642743   -0.16289439     0             -0.099802404    0.039922973  
  58240000   0.070232572   -0.16758421     0             -0.11194685     0.044566712  
  58250000   0.068647852   -0.15018048     0             -0.095798506   -0.075546807  
  58260000   0.064963732   -0.13405666     0             -0.082593206   -0.042464613  
  58270000   0.066261294   -0.14937365     0             -0.096882276   -0.030475681  
  58280000   0.071920317   -0.14193176     0             -0.084957381    0.055607344  
  58290000   0.069601658   -0.15469827     0             -0.099560709   -0.015627938  
  58300000   0.065919802   -0.17028177     0             -0.11806093    -0.1329502    
  58310000   0.06660629    -0.16461125     0             -0.11184658     0.04223181   
  58320000   0.066847464   -0.15570035     0             -0.10274463     0.03796908   
  58330000   0.069821191   -0.14336041     0             -0.088048933   -0.050274295  
  58340000   0.063864126   -0.15151254     0             -0.10092018    -0.018491334  
  58350000   0.061732285   -0.14545638     0             -0.096552834    0.0032599984 
  58360000   0.071770865   -0.15109913     0             -0.094243145   -0.078134457  
  58370000   0.0743087     -0.13351984     0             -0.074653414   -0.028220419  
  58380000   0.074675003   -0.12206097     0             -0.062904363    0.025897973  
  58390000   0.068616248   -0.14310876     0             -0.088751831   -0.051638371  
  58400000   0.073601342   -0.13800337     0             -0.079697303   -0.020264203  
  58410000   0.072128007   -0.13185772     0             -0.074718815    0.049148408  
  58420000   0.071762149   -0.14541537     0             -0.088566297    0.029938781  
  58430000   0.068576166   -0.14132873     0             -0.087003553   -0.064737745  
  58440000   0.076962152   -0.16479148     0             -0.10382302     0.035962737  
  58450000   0.074108114   -0.15321136     0             -0.09450384    -0.040829985  
  58460000   0.072252385   -0.17388478     0             -0.11664734    -0.07785962   
  58470000   0.070032785   -0.15793718     0             -0.10245809    -0.03222814   
  58480000   0.071735525   -0.14601209     0             -0.089184105   -0.048204871  
  58490000   0.077513155   -0.15259049     0             -0.091185535   -0.1033561    
  58500000   0.076823185   -0.14198517     0             -0.081126801    0.065298256  
  58510000   0.068561215   -0.14256413     0             -0.088250793    0.033926245  
  58520000   0.08211985    -0.15454767     0             -0.089493352   -0.075493879  
  58530000   0.069049551   -0.16405707     0             -0.10935688    -0.052375108  
  58540000   0.07023941    -0.14779955     0             -0.092156765   -0.00024238362
  58550000   0.07996109    -0.14580687     0             -0.082462694    0.00036680874
  58560000   0.065390796   -0.14938833     0             -0.097586562   -0.090095052  
  58570000   0.07425045    -0.14593192     0             -0.087111644   -0.022893183  
  58580000   0.070169251   -0.16500384     0             -0.10941664     0.077184953  
  58590000   0.083657878   -0.14539625     0             -0.07912352    -0.039318039  
  58600000   0.074472712   -0.13806426     0             -0.079067912   -0.025676255  
  58610000   0.069053713   -0.14213287     0             -0.087429382   -0.079201741  
  58620000   0.077175941   -0.14990031     0             -0.088762499   -0.002266801  
  58630000   0.078553188   -0.15041241     0             -0.088183556   -0.014939318  
  58640000   0.066471562   -0.13998043     0             -0.087322491   -0.050292106  
  58650000   0.072842994   -0.13409291     0             -0.076387598   -0.00062952553
  58660000   0.080485802   -0.1286892      0             -0.064929351   -0.028187289  
  58670000   0.071343008   -0.15798599     0             -0.10146895     0.0062065342 
  58680000   0.066490422   -0.14500633     0             -0.092333453    0.023374047  
  58690000   0.068787084   -0.13553274     0             -0.081040472   -0.0081784453 
  58700000   0.083556457   -0.15300936     0             -0.086816979    0.021933094  
  58710000   0.075869135   -0.14470516     0             -0.08460258    -0.040836781  
  58720000   0.071871905   -0.15285395     0             -0.09591793    -0.11325578   
  58730000   0.075917699   -0.158601       0             -0.098459948    0.0050990164 
  58740000   0.07065018    -0.14664596     0             -0.090677769   -0.0011327953 
  58750000   0.072424046   -0.14644799     0             -0.089074563   -0.0061932148 
  58760000   0.074114357   -0.14765824     0             -0.08894577    -0.029540162  
  58770000   0.080185322   -0.13094744     0             -0.067425634   -0.10228845   
  58780000   0.078090164   -0.12935192     0             -0.067489867   -0.06783691   
  58790000   0.073288646   -0.14119627     0             -0.083137919   -0.057582811  
  58800000   0.066906973   -0.16909278     0             -0.11608992    -0.0042605045 
  58810000   0.071143984   -0.1554317      0             -0.099072322   -0.018289908  
  58820000   0.064782824   -0.15476661     0             -0.10344646     0.019015683  
  58830000   0.070641762   -0.16203638     0             -0.10607486     0.047580304  
  58840000   0.070865493   -0.15018614     0             -0.094047384    0.055217883  
  58850000   0.070515654   -0.13145912     0             -0.075597496    0.0045189878 
  58860000   0.068792933   -0.14052491     0             -0.08602801    -0.017910395  
  58870000   0.06633754    -0.13255811     0             -0.08000634    -0.026975469  
  58880000   0.076033272   -0.12877376     0             -0.068541149    0.11324541   
  58890000   0.069586557   -0.1509953      0             -0.095869699   -0.033113482  
  58900000   0.083412581   -0.1386189      0             -0.0725405     -0.052905171  
  58910000   0.071413418   -0.14632637     0             -0.089753551    0.031116699  
  58920000   0.073601857   -0.13815207     0             -0.079845597    0.026948491  
  58930000   0.067593858   -0.14258164     0             -0.089034629   -0.099524162  
  58940000   0.069504805   -0.14264795     0             -0.087587109    0.040139319  
  58950000   0.063670277   -0.16264632     0             -0.11220753    -0.00054972702
  58960000   0.071255613   -0.15131777     0             -0.094869961   -0.0065394389 
  58970000   0.063549956   -0.15176641     0             -0.10142293    -0.021139117  
  58980000   0.078106618   -0.16015323     0             -0.098278145   -0.092041184  
  58990000   0.079936108   -0.17022429     0             -0.10689991    -0.033479049  
  59000000   0.073365876   -0.14657006     0             -0.088450528   -0.024720305  
  59010000   0.075195439   -0.14343888     0             -0.083869996   -0.037729204  
  59020000   0.067505741   -0.14530078     0             -0.091823578    0.043128721  
  59030000   0.06888333    -0.14152299     0             -0.086954478   -0.0026537233 
  59040000   0.067736673   -0.14408242     0             -0.090422275    0.025836083  
  59050000   0.075140313   -0.1478037      0             -0.088278481   -0.049971686  
  59060000   0.071634105   -0.17702884     0             -0.1202812     -0.081198746  
  59070000   0.069945885   -0.17548105     0             -0.12007079    -0.14990572   
  59080000   0.08462262    -0.14608712     0             -0.079050137    0.016901866  
  59090000   0.071929884   -0.14575459     0             -0.08877264    -0.037769913  
  59100000   0.071304582   -0.14998862     0             -0.09350202    -0.11061766   
  59110000   0.061590548   -0.12770812     0             -0.078916862   -0.046601407  
  59120000   0.07496054    -0.1437656      0             -0.084382801   -0.0034280322 
  59130000   0.073615653   -0.13677011     0             -0.078452706    0.03981805   
  59140000   0.070338392   -0.13663443     0             -0.080913236   -0.0090910207 
  59150000   0.082468439   -0.13324706     0             -0.067916598    0.068758815  
  59160000   0.07153597    -0.13689616     0             -0.080226256   -0.034995807  
  59170000   0.069929694   -0.14240319     0             -0.08700576    -0.039223509  
  59180000   0.076916696   -0.14527545     0             -0.084343       0.071190305  
  59190000   0.070521911   -0.13846253     0             -0.08259595     0.07265731   
  59200000   0.064347556   -0.14754996     0             -0.096574627   -0.047717286  
  59210000   0.06939022    -0.13657239     0             -0.081602328   -0.0081779004 
  59220000   0.068027717   -0.13821199     0             -0.084321282   -0.071489597  
  59230000   0.075323107   -0.15137773     0             -0.091707709    0.031984519  
  59240000   0.069341762   -0.15716786     0             -0.10223618    -0.081539425  
  59250000   0.074376768   -0.14295551     0             -0.084035165    0.078540269  
  59260000   0.078741355   -0.16234288     0             -0.099964958   -0.045230145  
  59270000   0.056589215   -0.14551006     0             -0.10068079    -0.015129669  
  59280000   0.079688864   -0.14672992     0             -0.083601396    0.040342437  
  59290000   0.077425018   -0.13135253     0             -0.070017401    0.023197793  
  59300000   0.07613165    -0.13497138     0             -0.07466084     0.02107094   
  59310000   0.07608642    -0.129553       0             -0.069278292    0.013898632  
  59320000   0.067627115   -0.14275387     0             -0.089180514   -0.0016174808 
  59330000   0.068735974   -0.14807679     0             -0.093625014   -0.044795093  
  59340000   0.064646794   -0.13385984     0             -0.082647453   -0.011321865  
  59350000   0.069878096   -0.14390183     0             -0.088545275   -0.038625764  
  59360000   0.074660997   -0.12950084     0             -0.070355333   -0.052852129  
  59370000   0.072348636   -0.13811283     0             -0.080799141    0.010908574  
  59380000   0.066422576   -0.13932247     0             -0.086703337   -0.13858506   
  59390000   0.069294123   -0.15026362     0             -0.095369684    0.013476191  
  59400000   0.074246251   -0.15290002     0             -0.094083065   -0.013158734  
  59410000   0.071414699   -0.15192091     0             -0.095347074   -0.090284578  
  59420000   0.065774962   -0.15334278     0             -0.10123668    -0.043326221  
  59430000   0.068543767   -0.15164548     0             -0.097345964   -0.054301534  
  59440000   0.064626204   -0.16499159     0             -0.11379552    -0.1233578    
  59450000   0.073720056   -0.14421025     0             -0.085810144   -0.098384726  
  59460000   0.070505277   -0.13754489     0             -0.081691488   -0.028923661  
  59470000   0.075141071   -0.14793251     0             -0.088406696    0.040570591  
  59480000   0.069609939   -0.13843622     0             -0.083292098   -0.059405354  
  59490000   0.062628098   -0.15059166     0             -0.10097846     0.00092436865
  59500000   0.075626266   -0.13619133     0             -0.076281151   -0.14599268   
  59510000   0.064581696   -0.12884133     0             -0.077680521    0.019923951  
  59520000   0.074226059   -0.12861378     0             -0.069812827    0.0045837526 
  59530000   0.066928537   -0.13717786     0             -0.084157911   -0.021648664  
  59540000   0.073662491   -0.13839247     0             -0.080037965    0.017775744  
  59550000   0.065519583   -0.13676541     0             -0.084861619    0.015994445  
  59560000   0.076911669   -0.1506206      0             -0.089692133    0.026654895  
  59570000   0.073605871   -0.13401941     0             -0.07570976     0.051070524  
  59580000   0.079334331   -0.15114976     0             -0.088302095    0.0084530399 
  59590000   0.066570146   -0.14763231     0             -0.094896271    0.051918987  
  59600000   0.079938132   -0.14114994     0             -0.077823951   -0.012216716  
  59610000   0.074186463   -0.14690289     0             -0.088133302    0.013199298  
  59620000   0.069097392   -0.14033594     0             -0.085597849    0.0071701235 
  59630000   0.075267628   -0.15003885     0             -0.090412775   -0.028449157  
  59640000   0.070270432   -0.14210531     0             -0.086437951    0.018549079  
  59650000   0.068287481   -0.12968902     0             -0.075592531   -0.0054990874 
  59660000   0.072580834   -0.1199673      0             -0.062469673    0.04629144   
  59670000   0.075510495   -0.14574018     0             -0.08592171    -0.016532178  
  59680000   0.071926653   -0.12101649     0             -0.064037094   -0.057302285  
  59690000   0.069048778   -0.13282562     0             -0.07812604     0.028211699  
  59700000   0.077020968   -0.12541649     0             -0.064401444   -0.078331131  
  59710000   0.066664263   -0.14072306     0             -0.087912469    0.0085840371 
  59720000   0.080369332   -0.15176429     0             -0.08809671    -0.00093924228
  59730000   0.071139079   -0.1512563      0             -0.094900808   -0.042533863  
  59740000   0.07676669    -0.14767613     0             -0.08686252    -0.050289025  
  59750000   0.076615476   -0.13492131     0             -0.074227482   -0.018894434  
  59760000   0.073014535   -0.13044584     0             -0.072604635   -0.03186333   
  59770000   0.067770625   -0.13351928     0             -0.079832241   -0.058133259  
  59780000   0.0739747     -0.12924093     0             -0.070639096    0.071766101  
  59790000   0.073713144   -0.12577364     0             -0.067379012    0.05011404   
  59800000   0.072732232   -0.15917289     0             -0.10155533     0.023736424  
  59810000   0.061515415   -0.15689245     0             -0.10816071    -0.062317567  
  59820000   0.06422604    -0.15775149     0             -0.10687243    -0.07552522   
  59830000   0.072068703   -0.14009444     0             -0.083002517    0.015262272  
  59840000   0.063308926   -0.15383708     0             -0.10368454    -0.070216158  
  59850000   0.076369088   -0.14039877     0             -0.07990013     0.045915804  
  59860000   0.072349019   -0.17459935     0             -0.11728536    -0.13824051   
  59870000   0.065199022   -0.16484867     0             -0.11319882    -0.080291844  
  59880000   0.077709091   -0.15475697     0             -0.093196802   -0.036533893  
  59890000   0.072129979   -0.15389562     0             -0.096755154   -0.049073322  
  59900000   0.064764144   -0.1465331      0             -0.095227755   -0.014314175  
  59910000   0.075991152   -0.15047769     0             -0.09027845     0.032170674  
  59920000   0.075679406   -0.16031327     0             -0.10036099    -0.067664341  
  59930000   0.069674785   -0.15879906     0             -0.10360357    -0.064997633  
  59940000   0.063720306   -0.17155632     0             -0.12107789    -0.035755783  
  59950000   0.072367468   -0.16670254     0             -0.10937394    -0.040262385  
  59960000   0.076075909   -0.17059183     0             -0.11032545    -0.070312349  
  59970000   0.072431165   -0.15361256     0             -0.096233497   -0.012301084  
  59980000   0.068114624   -0.17039601     0             -0.11643646    -0.02213649   
  59990000   0.078009486   -0.16565788     0             -0.10385974    -0.080514252  
  60000000   0.067695749   -0.15737281     0             -0.10374509    -0.049022733  
Loop time of 7135.04 on 2 procs for 60000000 steps with 320 atoms

Performance: 3632773.559 tau/day, 8409.198 timesteps/s, 2.691 Matom-step/s
91.1% CPU use with 2 MPI tasks x 1 OpenMP threads

MPI task timing breakdown:
Section |  min time  |  avg time  |  max time  |%varavg| %total
---------------------------------------------------------------
Pair    | 2362.9     | 2407.5     | 2452       |  90.8 | 33.74
Bond    | 2.3272     | 2.4708     | 2.6143     |   9.1 |  0.03
Neigh   | 91.998     | 92.003     | 92.008     |   0.1 |  1.29
Comm    | 1489.5     | 1532.5     | 1575.5     | 109.9 | 21.48
Output  | 0.84833    | 0.85859    | 0.86886    |   1.1 |  0.01
Modify  | 3043.1     | 3044.2     | 3045.3     |   2.0 | 42.67
Other   |            | 55.54      |            |       |  0.78

Nlocal:            160 ave         235 max          85 min
Histogram: 1 0 0 0 0 0 0 0 0 1
Nghost:            716 ave         843 max         589 min
Histogram: 1 0 0 0 0 0 0 0 0 1
Neighs:              0 ave           0 max           0 min
Histogram: 2 0 0 0 0 0 0 0 0 0
FullNghs:         5265 ave        7733 max        2797 min
Histogram: 1 0 0 0 0 0 0 0 0 1

Total # of neighbors = 10530
Ave neighs/atom = 32.90625
Ave special neighs/atom = 2.3125
Neighbor list builds = 140363
Dangerous builds = 0

#delete_atoms group Patches compress yes bond yes
#create_bonds many CL MO 1 0.0 1.56
#reset_atoms id
#resete_atoms mol all
#write_data data.test
Total wall time: 1:58:55
