LAMMPS (27 Jun 2024)
  using 2 OpenMP thread(s) per MPI task
package omp 0
using multi-threaded neighbor list subroutines
# Script to create a Polymer using Patchy Particles (PP)
# It saves the last position of the particles with a cluster ID
# Types of Particles:
#   Cross linker:   PPA
#   Monomer:        PPB

# Parallel configuration with pacakge OPENMP
# RUN: env OMP_NUM_THREADS=Nthreads mpirun -np NProcs lmp -sf omp -in

# Initialization
units lj
dimension 3
boundary p p p

# Styles of atoms and that stuff
atom_style bond
bond_style zero nocoeff
#pair_style hybrid/overlay lj/cut 1.12 sw threebody off
pair_style hybrid/overlay/omp lj/cut/omp 1.12 sw/omp threebody off
newton on

# Varaibles
variable L equal 5
variable NCL equal 10
variable NMO equal 90
variable seed1 equal 1234
variable seed2 equal 4321
variable seed3 equal 3124
variable steps equal 60000000
variable tstep equal 0.005
variable sstep equal 10000

# Create simulaiton box
region simulation_box block -$L $L -$L $L -$L $L
region simulation_box block -5 $L -$L $L -$L $L
region simulation_box block -5 5 -$L $L -$L $L
region simulation_box block -5 5 -5 $L -$L $L
region simulation_box block -5 5 -5 5 -$L $L
region simulation_box block -5 5 -5 5 -5 $L
region simulation_box block -5 5 -5 5 -5 5
# N-atom-types region-ID keyword value Is necesesary the extra/special/per/atom (# of special neighbors per atom)
create_box 4 simulation_box     bond/types 1     extra/bond/per/atom 4     extra/special/per/atom 5
Created orthogonal box = (-5 -5 -5) to (5 5 5)
  1 by 1 by 3 MPI processor grid

# Atom types
mass 1 1.0      # CL
mass 2 1.0      # MO
mass 3 0.5      # PA
mass 4 0.5      # PB

# Coefficients
bond_coeff * nocoeff
pair_coeff 1 1 lj/cut/omp 1.0 1.0 1.12 # i-type j-type pair-style eps sigma cutoff
pair_coeff 2 2 lj/cut/omp 1.0 1.0 1.12 # i-type j-type pair-style eps sigma cutoff
pair_coeff 1 2 lj/cut/omp 1.0 1.0 1.12 # i-type j-type pair-style eps sigma cutoff
pair_coeff 1 3 none
pair_coeff 1 4 none
pair_coeff 2 3 none
pair_coeff 2 4 none
pair_coeff 3 4 sw/omp patchyPot.ws NULL NULL PA PB # i-type j-type pair-style
  disabling sw potential three-body terms
pair_coeff 3 3 sw/omp patchyPot.ws NULL NULL PA PA
pair_coeff 4 4 sw/omp patchyPot.ws NULL NULL PB PB # i-type j-type eps sigma cutoff wca

pair_modify shift yes

# Molecules
molecule CL molecule.patchy.CL
Read molecule template CL:
# Patchy Cross-Linker
  1 molecules
  0 fragments
  5 atoms with max type 3
  4 bonds with max type 1
  0 angles with max type 0
  0 dihedrals with max type 0
  0 impropers with max type 0
molecule MO molecule.patchy.MO
Read molecule template MO:
# Patchy Monomer
  1 molecules
  0 fragments
  3 atoms with max type 4
  2 bonds with max type 1
  0 angles with max type 0
  0 dihedrals with max type 0
  0 impropers with max type 0

# Introduce the molecules
# ID style args keyword arg
region spawn_box block -$L $L -$L $L -$L $L
region spawn_box block -5 $L -$L $L -$L $L
region spawn_box block -5 5 -$L $L -$L $L
region spawn_box block -5 5 -5 $L -$L $L
region spawn_box block -5 5 -5 5 -$L $L
region spawn_box block -5 5 -5 5 -5 $L
region spawn_box block -5 5 -5 5 -5 5

# create_atoms type style args keyword values
# style_random: N seed region-ID
# keyword_mol: template-ID seed
# keyword_overlap: overlap value = only insert if at least this distance from all existing atoms
# keyword_maxtry: maxtry value = number of attempts to insert a particle before failure
create_atoms 0 random ${NCL} ${seed1} spawn_box mol CL ${seed1} overlap 0.5 maxtry 5000 #xls
create_atoms 0 random 10 ${seed1} spawn_box mol CL ${seed1} overlap 0.5 maxtry 5000 
create_atoms 0 random 10 1234 spawn_box mol CL ${seed1} overlap 0.5 maxtry 5000 
create_atoms 0 random 10 1234 spawn_box mol CL 1234 overlap 0.5 maxtry 5000 
Created 50 atoms
  using lattice units in orthogonal box = (-5 -5 -5) to (5 5 5)
  create_atoms CPU = 0.001 seconds
create_atoms 0 random ${NMO} ${seed2} spawn_box mol MO ${seed2} overlap 0.5 maxtry 5000 #mon
create_atoms 0 random 90 ${seed2} spawn_box mol MO ${seed2} overlap 0.5 maxtry 5000 
create_atoms 0 random 90 4321 spawn_box mol MO ${seed2} overlap 0.5 maxtry 5000 
create_atoms 0 random 90 4321 spawn_box mol MO 4321 overlap 0.5 maxtry 5000 
Created 270 atoms
  using lattice units in orthogonal box = (-5 -5 -5) to (5 5 5)
  create_atoms CPU = 0.000 seconds

# Create patchy particles
group CrossLinker type 1 3
50 atoms in group CrossLinker
group Monomer type 2 4
270 atoms in group Monomer
group Patches type 3 4
220 atoms in group Patches
group CL type 1
10 atoms in group CL
group MO type 2
90 atoms in group MO
fix pCL CrossLinker rigid/small/omp molecule #langevin 1.0 1.0 100.0 ${seed3}
  create bodies CPU = 0.000 seconds
  10 rigid bodies with 50 atoms
  0.31 = max distance from body owner to body atom
fix pMO Monomer rigid/small/omp molecule #langevin 1.0 1.0 100.0 ${seed3}
  create bodies CPU = 0.000 seconds
  90 rigid bodies with 270 atoms
  0.33 = max distance from body owner to body atom

# Neighbor list
neighbor 1.8 bin # extra-distance style
neigh_modify exclude molecule/intra CrossLinker
neigh_modify exclude molecule/intra Monomer

fix langevinFix all langevin 0.05 0.05 0.5 12345 # ID group-ID langevin Tstart Tstop damp seed

thermo ${sstep}
thermo 10000

# COMPUTES

# Compute global kinetic and potential energy and temperature
compute t all temp
compute ep all pe
compute ek all ke

# Compute Cluster sizes
# compute ID group-ID cluster/atom cutoff
# compute ID group-ID chunk/atom style args keyword value
# compute ID group-ID property/chunk chunkID input1 input2
compute cluster all aggregate/atom 0.625
compute cc1 all chunk/atom c_cluster compress yes pbc yes
compute size all property/chunk cc1 count

# DUMPS and FIXES

# Save atom positions
dump dumpID all atom ${sstep} info/patchyParticles_assembly.dumpf
dump dumpID all atom 10000 info/patchyParticles_assembly.dumpf
dump_modify dumpID pbc yes # remap atoms via periodic boundary conditions
#dump dumpCID all custom 1 info/patchyParticlesCluster_assembly.dumpf id type mol xs ys zs c_cluster
#dump_modify dumpCID pbc yes # remap atoms via periodic boundary conditions

# Write dump file of the last configuration
dump dumpNew all custom ${steps} newdata_assembly.dumpf id type mol x y z c_cluster
dump dumpNew all custom 60000000 newdata_assembly.dumpf id type mol x y z c_cluster
dump_modify dumpNew delay ${steps}
dump_modify dumpNew delay 60000000

# Save global energies and temperature
group Energy empty
0 atoms in group Energy
fix fixEng Energy ave/time 1 1 10 c_t c_ep c_ek file info/energy_assembly.fixf

# Save the cluster sizes
#fix ID group-ID style Nevery Nrepeat Nfreq lo hi Nbin value1 value2
fix 1 all ave/time 1 1 ${sstep} c_size file info/sizeCluster_assembly.fixf mode vector
fix 1 all ave/time 1 1 10000 c_size file info/sizeCluster_assembly.fixf mode vector

# RUN SIMULATION

timestep ${tstep}
timestep 0.005
run ${steps}
run 60000000
Generated 0 of 6 mixed pair_coeff terms from geometric mixing rule
Hybrid pair style last /omp style sw/omp
Last active /omp style is pair_style sw/omp
WARNING: More than one fix rigid command (src/RIGID/fix_rigid_small.cpp:529)
WARNING: More than one fix rigid command (src/RIGID/fix_rigid_small.cpp:529)
Neighbor list info ...
  update: every = 1 steps, delay = 0 steps, check = yes
  max neighbors/atom: 2000, page size: 100000
  master list distance cutoff = 2.92
  ghost atom cutoff = 2.92
  binsize = 1.46, bins = 7 7 7
  4 neighbor lists, perpetual/occasional/extra = 3 1 0
  (1) pair lj/cut/omp, perpetual, skip from (4)
      attributes: half, newton on, omp
      pair build: skip/omp
      stencil: none
      bin: none
  (2) pair sw/omp, perpetual, skip from (4)
      attributes: half, newton on, omp, cut 2.55
      pair build: skip/omp
      stencil: none
      bin: none
  (3) compute aggregate/atom, occasional
      attributes: full, newton on, omp
      pair build: full/bin/omp
      stencil: full/bin/3d
      bin: standard
  (4) neighbor class addition, perpetual
      attributes: half, newton on, omp
      pair build: half/bin/newton/omp
      stencil: half/bin/3d
      bin: standard
Per MPI rank memory allocation (min/avg/max) = 20.1 | 20.11 | 20.12 Mbytes
   Step          Temp          E_pair         E_mol          TotEng         Press     
         0   0              2.7545242      0              2.7545242      23.843487    
     10000   0.049998343   -0.058191588    0             -0.018583526    0.0019423481 
     20000   0.050901414   -0.084906091    0             -0.044582627   -0.011049324  
     30000   0.052766061   -0.10188926     0             -0.060088647   -0.00065151664
     40000   0.05431147    -0.099554963    0             -0.056530095    0.0027645803 
     50000   0.054441299   -0.11137602     0             -0.068248299    0.0071510377 
     60000   0.054352369   -0.11440579     0             -0.071348527   -0.0056680347 
     70000   0.044950368   -0.1207708      0             -0.085161684    0.028121138  
     80000   0.056110471   -0.12731361     0             -0.0828636      0.00773527   
     90000   0.056062296   -0.12068191     0             -0.076270058   -0.0085732844 
    100000   0.050606045   -0.12565195     0             -0.085562471   -0.013342823  
    110000   0.050182764   -0.12282918     0             -0.083075026    0.0044393925 
    120000   0.047668096   -0.11915562     0             -0.081393552    0.0026246709 
    130000   0.04953848    -0.12461621     0             -0.085372449   -0.011838715  
    140000   0.05364447    -0.12964263     0             -0.087146152    0.019715193  
    150000   0.052116001   -0.13109367     0             -0.089808023    0.018630599  
    160000   0.047417292   -0.12784555     0             -0.090282161   -0.029211893  
    170000   0.047116256   -0.13314911     0             -0.095824198    0.0065695442 
    180000   0.052229517   -0.13460006     0             -0.093224489   -0.010535499  
    190000   0.049473369   -0.13410325     0             -0.094911065   -0.0077617583 
    200000   0.05164902    -0.13104902     0             -0.090133313    0.0082670963 
    210000   0.047017864   -0.12568346     0             -0.088436493    0.0042936117 
    220000   0.04891608    -0.12858769     0             -0.089836984    0.0017237191 
    230000   0.047414001   -0.12028675     0             -0.082725969    0.0034394145 
    240000   0.04827794    -0.12765778     0             -0.089412603   -0.0052212277 
    250000   0.049219606   -0.12901382     0             -0.090022662    0.026812712  
    260000   0.05509587    -0.12037485     0             -0.076728593   -0.0084224477 
    270000   0.048597158   -0.12442216     0             -0.085924101   -0.016190382  
    280000   0.052027046   -0.12839189     0             -0.087176711   -0.014159639  
    290000   0.049236194   -0.13101285     0             -0.092008549    0.0024104719 
    300000   0.049826904   -0.13190859     0             -0.092436342   -0.020886151  
    310000   0.051937361   -0.12004451     0             -0.07890038    -0.001026355  
    320000   0.054207026   -0.12183216     0             -0.078890029   -0.0074650193 
    330000   0.049187776   -0.11448931     0             -0.075523364    0.014824058  
    340000   0.045383914   -0.12048723     0             -0.084534659    0.030848282  
    350000   0.048542084   -0.12427942     0             -0.085824983   -0.00032124939
    360000   0.052463946   -0.12108277     0             -0.079521489    0.0025502057 
    370000   0.053105253   -0.12195963     0             -0.079890307    0.0018250886 
    380000   0.049030082   -0.12877891     0             -0.089937896   -0.00049501002
    390000   0.045342111   -0.11536218     0             -0.079442723   -0.005027564  
    400000   0.046103922   -0.11462664     0             -0.078103692    0.028516461  
    410000   0.049700263   -0.12451748     0             -0.085145551   -0.020822573  
    420000   0.048788772   -0.12676106     0             -0.088111203   -0.016271593  
    430000   0.051491539   -0.12854488     0             -0.087753929   -0.011335581  
    440000   0.052030137   -0.13419758     0             -0.092979954   -0.0040821452 
    450000   0.049559229   -0.13607732     0             -0.096817118   -0.0087384753 
    460000   0.045964977   -0.13452657     0             -0.098113691   -0.0013064303 
    470000   0.050377916   -0.13689208     0             -0.096983322   -0.0057752589 
    480000   0.049377102   -0.13666629     0             -0.097550362    0.0056972531 
    490000   0.050183077   -0.13965119     0             -0.099896788   -0.0058863056 
    500000   0.057193314   -0.13623489     0             -0.090927057   -0.024681051  
    510000   0.050124873   -0.13956711     0             -0.099858815   -0.015771959  
    520000   0.052839084   -0.1376021      0             -0.095743643   -0.026310253  
    530000   0.050329704   -0.14235262     0             -0.10248206     0.028507708  
    540000   0.052939325   -0.14682036     0             -0.10488249     0.003846816  
    550000   0.050671275   -0.13938234     0             -0.099241185    0.0022183779 
    560000   0.050519448   -0.13886575     0             -0.098844873   -0.0049678736 
    570000   0.04961711    -0.1473908      0             -0.10808474     0.012889878  
    580000   0.049989685   -0.14471961     0             -0.10511841    -0.010522261  
    590000   0.053214055   -0.14926366     0             -0.10710815    -0.0087094129 
    600000   0.055184468   -0.15072561     0             -0.10700916    -0.012770898  
    610000   0.048330114   -0.15594149     0             -0.11765498    -0.0031825225 
    620000   0.046617942   -0.15125773     0             -0.11432758    -0.011219508  
    630000   0.046651525   -0.14463245     0             -0.10767569     0.016619628  
    640000   0.051698828   -0.14613605     0             -0.10518089     0.024915821  
    650000   0.046164319   -0.13586928     0             -0.099298479   -0.016144192  
    660000   0.049663536   -0.13508213     0             -0.095739296    0.01571445   
    670000   0.049200409   -0.14201963     0             -0.10304368    -0.0043263175 
    680000   0.048646527   -0.13358513     0             -0.09504796     0.0039059539 
    690000   0.046637867   -0.13510151     0             -0.098155575    0.022308362  
    700000   0.052951696   -0.13961663     0             -0.097668961   -0.00099545124
    710000   0.050645693   -0.14992459     0             -0.1098037     -0.0040768594 
    720000   0.051653988   -0.14856289     0             -0.10764325    -0.0059537871 
    730000   0.04763137    -0.15600543     0             -0.11827246    -0.0066030972 
    740000   0.053540785   -0.15000812     0             -0.10759378    -0.021371719  
    750000   0.054788622   -0.1481832      0             -0.10478034     0.010184951  
    760000   0.051382253   -0.1548299      0             -0.11412552     0.024052621  
    770000   0.054326724   -0.1579067      0             -0.11486975     0.012431647  
    780000   0.050630645   -0.16395442     0             -0.12384546    -0.01510992   
    790000   0.05355671    -0.16492969     0             -0.12250273     0.0046748369 
    800000   0.055597348   -0.16087355     0             -0.11683002    -0.0044391799 
    810000   0.055169791   -0.15561601     0             -0.1119112      0.0058837986 
    820000   0.051312      -0.16198347     0             -0.12133474    -0.012191772  
    830000   0.050897226   -0.16912507     0             -0.12880492    -0.0013168594 
    840000   0.049357918   -0.16723997     0             -0.12813924    -0.013793461  
    850000   0.047181414   -0.16242176     0             -0.12504523     0.004999225  
    860000   0.055548141   -0.16699374     0             -0.1229892      0.017444449  
    870000   0.055282751   -0.16951536     0             -0.12572106    -0.024224685  
    880000   0.051770584   -0.17050096     0             -0.12948895     0.017371947  
    890000   0.044079961   -0.17257501     0             -0.13765541    -0.021784541  
    900000   0.050677079   -0.16941656     0             -0.12927081    -0.0030254143 
    910000   0.050613273   -0.16366054     0             -0.12356534    -0.0041571916 
    920000   0.046959493   -0.16509249     0             -0.12789177    -0.0096795929 
    930000   0.046173096   -0.16680138     0             -0.13022364    -0.0078425661 
    940000   0.045744866   -0.16632798     0             -0.13008947     0.027781986  
    950000   0.051923742   -0.16895047     0             -0.12781713     0.016262819  
    960000   0.043302598   -0.16362319     0             -0.12931941     0.0054898642 
    970000   0.053676372   -0.16920354     0             -0.12668179    -0.012838184  
    980000   0.046004317   -0.17010307     0             -0.13365902     0.0026759702 
    990000   0.045401924   -0.16902462     0             -0.13305779     0.010035385  
   1000000   0.054719418   -0.17116054     0             -0.1278125     -0.02553224   
   1010000   0.0479132     -0.17679038     0             -0.13883414    -0.0080008982 
   1020000   0.048271876   -0.16880112     0             -0.13056074    -0.011598532  
   1030000   0.058173533   -0.16395537     0             -0.11787103    -0.027957025  
   1040000   0.048833034   -0.16234261     0             -0.12365769     0.0061667587 
   1050000   0.055578873   -0.16784282     0             -0.12381394     0.0075322581 
   1060000   0.051845169   -0.16602897     0             -0.12495788     0.01263138   
   1070000   0.056211992   -0.16985911     0             -0.12532867    -0.0037093507 
   1080000   0.051682157   -0.16462241     0             -0.12368045    -0.011081431  
   1090000   0.04192455    -0.16102214     0             -0.12781003     0.017152293  
   1100000   0.045356501   -0.16300656     0             -0.1270757      0.019031313  
   1110000   0.047940577   -0.17101688     0             -0.13303896     0.0071426943 
   1120000   0.045947137   -0.16148055     0             -0.1250818      0.00029920493
   1130000   0.05300797    -0.15988198     0             -0.11788973     0.011280102  
   1140000   0.052281871   -0.16588502     0             -0.12446798     0.0095775826 
   1150000   0.046190755   -0.16778834     0             -0.1311966      0.014535217  
   1160000   0.052700729   -0.17243778     0             -0.13068893     0.02089603   
   1170000   0.049171922   -0.15973014     0             -0.12077676     0.01447613   
   1180000   0.048059841   -0.16030159     0             -0.12222918     0.010437813  
   1190000   0.052451833   -0.16376812     0             -0.12221644     0.0034446759 
   1200000   0.055135298   -0.16590735     0             -0.12222986    -0.017756624  
   1210000   0.053946608   -0.168863       0             -0.12612717    -0.0035512127 
   1220000   0.047501717   -0.16329877     0             -0.1256685      0.0090186521 
   1230000   0.050953989   -0.1571092      0             -0.11674409     0.004923027  
   1240000   0.053235306   -0.16318501     0             -0.12101266    -0.006709491  
   1250000   0.05636569    -0.1612434      0             -0.11659121     0.012000019  
   1260000   0.049611612   -0.16163583     0             -0.12233414     0.024905886  
   1270000   0.047887372   -0.16018206     0             -0.12224628    -0.0071302514 
   1280000   0.052888667   -0.16949526     0             -0.12759752     0.017910376  
   1290000   0.050108328   -0.17454956     0             -0.13485437    -0.017985267  
   1300000   0.046502752   -0.17219006     0             -0.13535116     0.0081732925 
   1310000   0.045084885   -0.16852593     0             -0.13281025    -0.0045007096 
   1320000   0.048439592   -0.17003577     0             -0.13166253    -0.0043232393 
   1330000   0.049555463   -0.16618373     0             -0.12692651    -0.032419706  
   1340000   0.05142969    -0.16697104     0             -0.12622908    -0.0141942    
   1350000   0.048571309   -0.16330355     0             -0.12482597     0.011299854  
   1360000   0.050053323   -0.1644816      0             -0.12482998    -0.024848269  
   1370000   0.049954985   -0.16858382     0             -0.12901011    -0.0087361509 
   1380000   0.047610798   -0.16966482     0             -0.13194814    -0.018055054  
   1390000   0.046227477   -0.17023465     0             -0.13361382    -0.010593038  
   1400000   0.049430937   -0.16754967     0             -0.1283911     -0.021933432  
   1410000   0.048509786   -0.17618261     0             -0.13775376     0.0032856348 
   1420000   0.052992376   -0.17289335     0             -0.13091345     0.014782606  
   1430000   0.047517489   -0.17423618     0             -0.13659342     0.022512596  
   1440000   0.045724221   -0.17548272     0             -0.13926057    -0.01971032   
   1450000   0.053143527   -0.17390765     0             -0.13180802    -0.018806478  
   1460000   0.048043476   -0.16631087     0             -0.12825143    -0.0036769909 
   1470000   0.053272666   -0.17178946     0             -0.12958752     0.023128655  
   1480000   0.053209779   -0.17025893     0             -0.12810681     0.0028385119 
   1490000   0.048505438   -0.17272375     0             -0.13429834    -0.0020199938 
   1500000   0.044896235   -0.17428985     0             -0.13872361    -0.0072661156 
   1510000   0.051715971   -0.16445879     0             -0.12349005     0.026443647  
   1520000   0.050011226   -0.16446162     0             -0.12484335     0.00667697   
   1530000   0.056012579   -0.16285033     0             -0.11847787    -0.015987931  
   1540000   0.048033994   -0.16165037     0             -0.12359844    -0.011574231  
   1550000   0.043960135   -0.16720136     0             -0.13237669     0.011291269  
   1560000   0.049886337   -0.16677635     0             -0.12725702    -0.0034526858 
   1570000   0.04812166    -0.1665999      0             -0.12847852     0.0092428087 
   1580000   0.048257616   -0.16667175     0             -0.12844267    -0.023509579  
   1590000   0.050757875   -0.15833877     0             -0.11812901    -0.025005076  
   1600000   0.060286959   -0.16285806     0             -0.11509948    -0.018010399  
   1610000   0.051765664   -0.16743132     0             -0.12642321     0.0012499828 
   1620000   0.052719091   -0.15657049     0             -0.11480708    -0.024368486  
   1630000   0.049930678   -0.15701195     0             -0.11745749    -0.010040449  
   1640000   0.047366976   -0.16325503     0             -0.12573151    -0.01166771   
   1650000   0.049564965   -0.15357044     0             -0.11430569     0.022634579  
   1660000   0.055231373   -0.1520931      0             -0.1083395      0.012691199  
   1670000   0.054150535   -0.16072876     0             -0.11783139    -0.011446709  
   1680000   0.049871713   -0.15718859     0             -0.11768084     0.013212362  
   1690000   0.045397369   -0.15541782     0             -0.11945459     0.0097065113 
   1700000   0.051302122   -0.15784836     0             -0.11720746    -0.019120428  
   1710000   0.052514584   -0.15487627     0             -0.11327488    -0.00031174489
   1720000   0.050777155   -0.16808627     0             -0.12786124    -0.020445144  
   1730000   0.049631311   -0.16740357     0             -0.12808627     0.0015439733 
   1740000   0.051924358   -0.16439616     0             -0.12326233     0.012223014  
   1750000   0.050713952   -0.16222018     0             -0.12204522    -0.0092897565 
   1760000   0.044707963   -0.16734076     0             -0.13192367    -4.3535398e-05
   1770000   0.04707278    -0.16429605     0             -0.12700558     0.0012794589 
   1780000   0.045804057   -0.16841002     0             -0.13212462    -0.0011446302 
   1790000   0.052350044   -0.16442909     0             -0.12295804     0.007618174  
   1800000   0.048602937   -0.15272497     0             -0.11422233    -0.022267592  
   1810000   0.056146953   -0.15851342     0             -0.11403451    -0.01733608   
   1820000   0.05043159    -0.16063348     0             -0.12068221    -0.014742476  
   1830000   0.048905772   -0.16306532     0             -0.12432278    -0.0018770009 
   1840000   0.053272584   -0.16038919     0             -0.11818732     0.03664394   
   1850000   0.054951924   -0.15221087     0             -0.10867865     0.0065610152 
   1860000   0.053287657   -0.15792124     0             -0.11570742     0.010428825  
   1870000   0.052471792   -0.1559854      0             -0.1144179      0.024534447  
   1880000   0.050867136   -0.15368408     0             -0.11338777    -0.021919239  
   1890000   0.056771017   -0.15870544     0             -0.11373215     0.007236268  
   1900000   0.050655171   -0.16807417     0             -0.12794578    -0.005894779  
   1910000   0.051189606   -0.16316469     0             -0.12261292    -0.0033214154 
   1920000   0.049427847   -0.16274538     0             -0.12358926     0.0013633187 
   1930000   0.051848022   -0.16354024     0             -0.12246688    -0.0087875858 
   1940000   0.047362991   -0.16213225     0             -0.12461188     0.0085002093 
   1950000   0.053282659   -0.1646122      0             -0.12240234     0.013627996  
   1960000   0.054269563   -0.15727478     0             -0.11428311     0.012113578  
   1970000   0.05444174    -0.15759985     0             -0.11447178     0.00010729821
   1980000   0.052513195   -0.15742772     0             -0.11582743    -0.0054671149 
   1990000   0.054681016   -0.15697448     0             -0.11365686     8.6171242e-05
   2000000   0.051008509   -0.15515653     0             -0.11474823    -0.023536527  
   2010000   0.048477709   -0.15636977     0             -0.11796633    -0.0013544236 
   2020000   0.048633847   -0.15148174     0             -0.11295462     0.033871761  
   2030000   0.05293576    -0.15452901     0             -0.11259396    -0.0016811652 
   2040000   0.050821896   -0.16008554     0             -0.11982507    -0.003305104  
   2050000   0.047732196   -0.15638413     0             -0.11857128     0.014362288  
   2060000   0.050055173   -0.16133843     0             -0.12168535     0.0015217987 
   2070000   0.049575943   -0.1604369      0             -0.12116346    -0.016716678  
   2080000   0.04775359    -0.15477197     0             -0.11694218     0.0035084839 
   2090000   0.052722903   -0.15956574     0             -0.11779931    -0.012960313  
   2100000   0.048796976   -0.15523695     0             -0.1165806     -0.018580676  
   2110000   0.052490545   -0.16627669     0             -0.12469434     0.02251571   
   2120000   0.048226616   -0.16686969     0             -0.12866517    -0.015174777  
   2130000   0.043020472   -0.16788207     0             -0.13380179     0.0055675568 
   2140000   0.04821857    -0.16441302     0             -0.12621487     0.0052154391 
   2150000   0.046601022   -0.16818179     0             -0.13126504    -0.002356391  
   2160000   0.048620902   -0.15961044     0             -0.12109356     0.0035683557 
   2170000   0.052471706   -0.16323452     0             -0.12166709    -0.0077608952 
   2180000   0.05197619    -0.1711305      0             -0.12995561    -0.0024086141 
   2190000   0.049221862   -0.17245213     0             -0.13345919     0.02281156   
   2200000   0.059397187   -0.17301642     0             -0.12596271    -0.018503601  
   2210000   0.053062507   -0.16897366     0             -0.12693821     0.0048489632 
   2220000   0.047183233   -0.16490076     0             -0.12752279     0.009974731  
   2230000   0.054666247   -0.17330934     0             -0.13000342     0.0029253651 
   2240000   0.050357863   -0.17029638     0             -0.13040351     0.0020184955 
   2250000   0.050351212   -0.15497812     0             -0.11509052     0.022447518  
   2260000   0.051013796   -0.15742844     0             -0.11701595     0.020627342  
   2270000   0.045773306   -0.16574464     0             -0.12948359     0.019920976  
   2280000   0.046306416   -0.16022738     0             -0.12354401    -0.0081010701 
   2290000   0.049238949   -0.15551227     0             -0.11650579     0.0035334693 
   2300000   0.048399932   -0.15612709     0             -0.11778527     0.021939956  
   2310000   0.044339599   -0.15440894     0             -0.11928366     0.0010691338 
   2320000   0.0470854     -0.15045323     0             -0.11315277     0.030656849  
   2330000   0.046704023   -0.16100075     0             -0.12400241    -0.014036255  
   2340000   0.048642514   -0.14710631     0             -0.10857232     0.013392987  
   2350000   0.047326452   -0.15607863     0             -0.1185872     -0.0058857908 
   2360000   0.049659548   -0.15810828     0             -0.11876861     0.015276101  
   2370000   0.054664641   -0.15161137     0             -0.10830673     0.032246846  
   2380000   0.056047686   -0.15151329     0             -0.10711301     0.019830764  
   2390000   0.052387161   -0.15600698     0             -0.11450653    -0.016424923  
   2400000   0.045886775   -0.15521478     0             -0.11886385    -0.016960221  
   2410000   0.045784038   -0.16296897     0             -0.12669943     0.010480224  
   2420000   0.049201093   -0.16532253     0             -0.12634604    -0.027117478  
   2430000   0.0514531     -0.16072728     0             -0.11996678    -0.0071928747 
   2440000   0.049992436   -0.15991182     0             -0.12030843     0.0074395495 
   2450000   0.047803558   -0.15979148     0             -0.1219221      0.026810228  
   2460000   0.052131573   -0.15851593     0             -0.11721795    -0.014078349  
   2470000   0.050459566   -0.15458821     0             -0.11461478    -0.0023511871 
   2480000   0.046482839   -0.15941043     0             -0.1225873      0.016353404  
   2490000   0.049394797   -0.1529664      0             -0.11383646     0.0033531584 
   2500000   0.05446105    -0.15944558     0             -0.11630222    -0.010942774  
   2510000   0.051383451   -0.15418572     0             -0.1134804     -0.010190753  
   2520000   0.048548      -0.15360766     0             -0.11514855     0.013737823  
   2530000   0.047270928   -0.15485615     0             -0.11740871    -0.0052814319 
   2540000   0.048810792   -0.15306976     0             -0.11440246    -0.010757025  
   2550000   0.049563525   -0.15263085     0             -0.11336725     0.0031622247 
   2560000   0.045765386   -0.15209582     0             -0.11584105     0.0073858816 
   2570000   0.055090276   -0.16102896     0             -0.11738713    -0.016868158  
   2580000   0.050540919   -0.14811698     0             -0.1080791      0.012512417  
   2590000   0.052120496   -0.16180577     0             -0.12051656    -0.010445103  
   2600000   0.047049238   -0.15401079     0             -0.11673897     0.020549152  
   2610000   0.051359126   -0.15702607     0             -0.11634001     0.020836326  
   2620000   0.045477676   -0.15813856     0             -0.12211171    -0.022264465  
   2630000   0.051367558   -0.15001572     0             -0.10932299    -0.010899674  
   2640000   0.050066543   -0.15569882     0             -0.11603673     0.01231949   
   2650000   0.050169471   -0.15428445     0             -0.11454082     0.039897164  
   2660000   0.045326985   -0.15643982     0             -0.12053235     0.025184687  
   2670000   0.057429704   -0.14931223     0             -0.10381713    -0.0039293541 
   2680000   0.053105808   -0.15065803     0             -0.10858827    -0.024055437  
   2690000   0.045886144   -0.15496649     0             -0.11861606     3.0453853e-05
   2700000   0.048648742   -0.15198384     0             -0.11344492     0.018530343  
   2710000   0.053475352   -0.14422676     0             -0.10186426     0.025319831  
   2720000   0.045082126   -0.14814877     0             -0.11243527    -0.023481587  
   2730000   0.046742566   -0.15671099     0             -0.11968211     0.032830128  
   2740000   0.053869717   -0.14683785     0             -0.10416294     0.035578845  
   2750000   0.04816811    -0.15536522     0             -0.11720705    -0.003950044  
   2760000   0.048747132   -0.16190709     0             -0.12329022    -0.0046065468 
   2770000   0.04969145    -0.16098129     0             -0.12161634    -0.01816422   
   2780000   0.054532598   -0.15611789     0             -0.11291785    -0.0081804563 
   2790000   0.048469915   -0.15855347     0             -0.12015621    -0.0098328238 
   2800000   0.053980166   -0.160646       0             -0.11788359    -0.0048263184 
   2810000   0.048078334   -0.15641381     0             -0.11832675     0.011070253  
   2820000   0.048559231   -0.16275909     0             -0.12429108     0.016884014  
   2830000   0.047805468   -0.16518196     0             -0.12731107    -0.0060109625 
   2840000   0.053398318   -0.16452233     0             -0.12222085     0.021348516  
   2850000   0.051143055   -0.16572923     0             -0.12521434    -0.010215406  
   2860000   0.051569278   -0.16981729     0             -0.12896475    -0.016928319  
   2870000   0.053937727   -0.16373034     0             -0.12100154    -0.014171997  
   2880000   0.049576586   -0.165536       0             -0.12626204    -0.011769017  
   2890000   0.051540878   -0.16735968     0             -0.12652964    -0.0059806951 
   2900000   0.049590393   -0.16968492     0             -0.13040003    -0.0046777793 
   2910000   0.048964437   -0.1708759      0             -0.13208688    -0.009310645  
   2920000   0.047019984   -0.17551163     0             -0.13826298     0.0088980892 
   2930000   0.050942815   -0.16940144     0             -0.12904518    -0.021582573  
   2940000   0.051368222   -0.16849087     0             -0.12779761     0.012545629  
   2950000   0.049859672   -0.17680681     0             -0.1373086     -0.0069914783 
   2960000   0.048389169   -0.17812905     0             -0.13979575    -0.010058613  
   2970000   0.048795294   -0.17363746     0             -0.13498244     0.0028463073 
   2980000   0.046406473   -0.1732461      0             -0.13648347    -0.016200271  
   2990000   0.052034625   -0.1768501      0             -0.13562892    -0.0012297241 
   3000000   0.048669167   -0.17618241     0             -0.13762731     0.0059682726 
   3010000   0.052128376   -0.17693202     0             -0.13563657     0.0058721718 
   3020000   0.051132849   -0.17706571     0             -0.13655891    -0.013588714  
   3030000   0.053632321   -0.17787317     0             -0.13538632    -0.013642661  
   3040000   0.052973057   -0.17562847     0             -0.13366387    -0.0037347675 
   3050000   0.047715879   -0.1762664      0             -0.13846648    -0.00048900466
   3060000   0.047096712   -0.17285723     0             -0.1355478     -0.01732637   
   3070000   0.048576893   -0.17577722     0             -0.13729521    -0.0068915881 
   3080000   0.047620221   -0.17238722     0             -0.13466308    -5.3274182e-05
   3090000   0.046883059   -0.17126146     0             -0.13412128    -0.013506442  
   3100000   0.048229454   -0.17796761     0             -0.13976084     0.017320559  
   3110000   0.050523311   -0.17759159     0             -0.13756765     0.011826624  
   3120000   0.047032821   -0.17604421     0             -0.13878539    -0.014233842  
   3130000   0.048639957   -0.17641347     0             -0.1378815     -0.0080361245 
   3140000   0.059179524   -0.17139346     0             -0.12451218    -0.022707702  
   3150000   0.050507899   -0.17757078     0             -0.13755906     0.015113783  
   3160000   0.053057187   -0.18224834     0             -0.1402171      0.0048370138 
   3170000   0.052329413   -0.17846602     0             -0.13701131    -0.0030673219 
   3180000   0.046727181   -0.17278469     0             -0.135768       0.0083802874 
   3190000   0.047128083   -0.18111837     0             -0.14378409    -0.019886119  
   3200000   0.050372122   -0.18191739     0             -0.14201322     0.017125181  
   3210000   0.047209022   -0.17859679     0             -0.14119839    -0.016062746  
   3220000   0.049310496   -0.1801828      0             -0.14111965     0.02568069   
   3230000   0.045630193   -0.17867186     0             -0.1425242     -0.0024281161 
   3240000   0.049241131   -0.17420392     0             -0.13519572    -0.017030258  
   3250000   0.052874743   -0.1739221      0             -0.13203539    -0.012428134  
   3260000   0.049732576   -0.17100947     0             -0.13161194     0.024789932  
   3270000   0.053057799   -0.1714888      0             -0.12945708     0.008800631  
   3280000   0.049323987   -0.17149355     0             -0.1324197      0.024843624  
   3290000   0.051093281   -0.17558843     0             -0.13511297     0.0010056509 
   3300000   0.046260467   -0.16638836     0             -0.12974139    -0.002612078  
   3310000   0.049583145   -0.15842523     0             -0.11914608    -0.01079059   
   3320000   0.046721332   -0.16448676     0             -0.12747471    -0.0036779499 
   3330000   0.052565706   -0.17139064     0             -0.12974875    -0.0020835264 
   3340000   0.054813897   -0.16703442     0             -0.12361154     0.010071988  
   3350000   0.051620566   -0.1602935      0             -0.11940033     0.014806332  
   3360000   0.053333478   -0.16287352     0             -0.1206234      0.0070913769 
   3370000   0.046369193   -0.16492563     0             -0.12819253    -0.0078958058 
   3380000   0.049923539   -0.16118431     0             -0.12163551    -0.0011467174 
   3390000   0.04872718    -0.1693827      0             -0.13078164    -0.0098662884 
   3400000   0.049486195   -0.16519472     0             -0.12599238    -0.01153086   
   3410000   0.055192849   -0.16028628     0             -0.11656319    -0.011237492  
   3420000   0.048153513   -0.1528907      0             -0.11474409    -0.00029113766
   3430000   0.053123546   -0.15947004     0             -0.11738623    -0.005450701  
   3440000   0.049431109   -0.15863651     0             -0.1194778     -0.0027489453 
   3450000   0.045395812   -0.16820421     0             -0.13224222     0.0021090127 
   3460000   0.05838188    -0.1615726      0             -0.11532321    -0.0016887059 
   3470000   0.054873666   -0.16463445     0             -0.12116422     0.010361757  
   3480000   0.046432424   -0.16715671     0             -0.13037352    -0.0094147632 
   3490000   0.049479959   -0.169259       0             -0.1300616      0.056139924  
   3500000   0.053632164   -0.15997903     0             -0.1174923     -0.030650713  
   3510000   0.048456526   -0.16344332     0             -0.12505667    -0.0083376892 
   3520000   0.047519403   -0.1630855      0             -0.12544123    -0.0112755    
   3530000   0.051747191   -0.15814313     0             -0.11714965     0.013694607  
   3540000   0.051824133   -0.16524504     0             -0.12419061     0.0055774229 
   3550000   0.048817272   -0.16129185     0             -0.12261942    -0.018472062  
   3560000   0.049547629   -0.16593318     0             -0.12668217     0.018862595  
   3570000   0.045091768   -0.16643098     0             -0.13070985    -0.0012000591 
   3580000   0.04754046    -0.16832883     0             -0.13066787    -0.00046554155
   3590000   0.047937223   -0.18061892     0             -0.14264365     0.0015935209 
   3600000   0.05220666    -0.17457895     0             -0.13322149     0.022202867  
   3610000   0.044827356   -0.17086628     0             -0.13535461    -0.047233794  
   3620000   0.049866536   -0.16973689     0             -0.13023325     0.011661104  
   3630000   0.053648666   -0.16896065     0             -0.12646084     0.0010007935 
   3640000   0.050033924   -0.17442562     0             -0.13478937     0.019166081  
   3650000   0.050265692   -0.16549317     0             -0.12567331     0.024598031  
   3660000   0.048253988   -0.16592817     0             -0.12770196     0.0019443943 
   3670000   0.051586282   -0.16863989     0             -0.12777388    -0.0026246843 
   3680000   0.050389965   -0.17192053     0             -0.13200223     0.0092043108 
   3690000   0.050591517   -0.16647637     0             -0.1263984      0.0076485977 
   3700000   0.049025754   -0.16389397     0             -0.12505638    -0.0086385254 
   3710000   0.0516962     -0.17014478     0             -0.1291917      0.013336078  
   3720000   0.044755057   -0.17093552     0             -0.13548112    -0.0078035648 
   3730000   0.049939262   -0.1644903      0             -0.12492904     0.0039302753 
   3740000   0.046787789   -0.17213408     0             -0.13506938     0.0036958663 
   3750000   0.046083394   -0.18018173     0             -0.14367504     0.0012059158 
   3760000   0.047215693   -0.1744188      0             -0.13701512     0.023960738  
   3770000   0.052318002   -0.17312713     0             -0.13168146     0.041194302  
   3780000   0.052817036   -0.18082359     0             -0.13898259    -0.018127641  
   3790000   0.052430203   -0.177911       0             -0.13637644     0.0019415921 
   3800000   0.049722662   -0.17346921     0             -0.13407954    -0.012772841  
   3810000   0.056662565   -0.17717439     0             -0.13228702    -0.0083548263 
   3820000   0.049361235   -0.17191154     0             -0.13280819     0.020646739  
   3830000   0.054803084   -0.16520123     0             -0.12178691     0.01591881   
   3840000   0.049225098   -0.1724505      0             -0.13345499    -0.015251956  
   3850000   0.04921462    -0.17120409     0             -0.13221688    -0.00090549758
   3860000   0.047972607   -0.16872401     0             -0.13072071    -0.016616778  
   3870000   0.052241282   -0.17239547     0             -0.13101058     0.014158482  
   3880000   0.046220992   -0.16694925     0             -0.13033356    -0.0090101956 
   3890000   0.051807047   -0.17332713     0             -0.13228623    -0.01163859   
   3900000   0.046703937   -0.17152836     0             -0.13453009    -0.026663873  
   3910000   0.05094278    -0.16974466     0             -0.12938843     0.013870164  
   3920000   0.046289957   -0.17493822     0             -0.1382679      0.010509403  
   3930000   0.048405886   -0.17115425     0             -0.13280771    -0.011697235  
   3940000   0.051382344   -0.16796079     0             -0.12725634     0.014266034  
   3950000   0.052619201   -0.1669807      0             -0.12529642    -0.0074049429 
   3960000   0.042538672   -0.16073089     0             -0.12703229    -0.030337316  
   3970000   0.051013715   -0.16705934     0             -0.12664691     0.0067346282 
   3980000   0.048911566   -0.16241037     0             -0.12366324     0.015556046  
   3990000   0.05080385    -0.16614343     0             -0.12589726     0.0059568364 
   4000000   0.048354468   -0.17407695     0             -0.13577114    -0.0062552428 
   4010000   0.054309122   -0.17767369     0             -0.13465068     0.02914048   
   4020000   0.046304729   -0.17616987     0             -0.13948784    -0.0044571973 
   4030000   0.051714353   -0.17176521     0             -0.13079774     0.012695487  
   4040000   0.052464201   -0.16893614     0             -0.12737466     0.0087655669 
   4050000   0.048371058   -0.17030311     0             -0.13198417     0.015348907  
   4060000   0.047547311   -0.16819549     0             -0.13052911    -0.011403793  
   4070000   0.052677635   -0.16933842     0             -0.12760786    -0.010286083  
   4080000   0.052687255   -0.17647417     0             -0.13473599     0.013403338  
   4090000   0.055385964   -0.17537281     0             -0.13149674    -0.00098046316
   4100000   0.047008789   -0.17139139     0             -0.13415161     0.011158673  
   4110000   0.04737763    -0.1770122      0             -0.13948024     0.014030811  
   4120000   0.051792339   -0.17939988     0             -0.13837064    -0.011119829  
   4130000   0.043003772   -0.17531932     0             -0.14125227     0.0050000015 
   4140000   0.050552014   -0.17656042     0             -0.13651375    -0.0048954017 
   4150000   0.052174924   -0.17438728     0             -0.13305495     0.00019841048
   4160000   0.049167802   -0.17257688     0             -0.13362676    -0.017679008  
   4170000   0.051074074   -0.17191576     0             -0.13145552     0.0080183895 
   4180000   0.04726294    -0.16746643     0             -0.13002532    -0.0099468384 
   4190000   0.046370303   -0.17350965     0             -0.13677567    -0.0096388241 
   4200000   0.04991543    -0.17442908     0             -0.1348867      0.010720959  
   4210000   0.046506835   -0.17446928     0             -0.13762715    -0.0012329683 
   4220000   0.050812321   -0.17154148     0             -0.13128859    -0.011715475  
   4230000   0.047994842   -0.17104677     0             -0.13302586    -0.014164641  
   4240000   0.052321011   -0.1730676      0             -0.13161955     0.02253733   
   4250000   0.050220368   -0.17773612     0             -0.13795217    -0.0034852633 
   4260000   0.046280345   -0.17289362     0             -0.13623091    -0.00024688761
   4270000   0.047986164   -0.17376663     0             -0.13575259    -7.7894997e-05
   4280000   0.046368442   -0.17265375     0             -0.13592125    -0.012132696  
   4290000   0.047663417   -0.17836614     0             -0.14060778     0.037784669  
   4300000   0.053698812   -0.18326558     0             -0.14072605    -0.004864199  
   4310000   0.057553978   -0.17837314     0             -0.1327796      0.0076194164 
   4320000   0.050657905   -0.17755493     0             -0.13742437     0.0079618756 
   4330000   0.051810009   -0.1701546      0             -0.12911135    -0.031857527  
   4340000   0.050566692   -0.17872643     0             -0.13866813    -0.039084356  
   4350000   0.051459389   -0.17536946     0             -0.13460397     0.0019711138 
   4360000   0.049596602   -0.17053005     0             -0.13124024     0.016537531  
   4370000   0.05563389    -0.17391144     0             -0.12983897    -0.011058765  
   4380000   0.050047779   -0.16342762     0             -0.1237804     -0.032392837  
   4390000   0.047129407   -0.16735124     0             -0.13001591    -0.015009107  
   4400000   0.052015213   -0.16906427     0             -0.12785847    -0.011261674  
   4410000   0.051110602   -0.16669006     0             -0.12620088    -0.0056086713 
   4420000   0.054588      -0.16997374     0             -0.12672981     0.01289668   
   4430000   0.048336365   -0.1722577      0             -0.13396624     0.016869637  
   4440000   0.04601       -0.17506811     0             -0.13861956     0.0090950104 
   4450000   0.052046392   -0.16980458     0             -0.12857408     0.002704707  
   4460000   0.052712357   -0.16968442     0             -0.12792635     0.0084595469 
   4470000   0.057676792   -0.16852826     0             -0.12283742     0.015274174  
   4480000   0.049661177   -0.17145452     0             -0.13211356    -0.024729568  
   4490000   0.047538211   -0.17640651     0             -0.13874733     0.00030547945
   4500000   0.049411763   -0.18013294     0             -0.14098955    -0.0054302395 
   4510000   0.049700266   -0.1749676      0             -0.13559567    -0.023673198  
   4520000   0.054254205   -0.17491593     0             -0.13193643     0.012822776  
   4530000   0.047073836   -0.17377966     0             -0.13648836     0.0091066426 
   4540000   0.046939268   -0.17861608     0             -0.14143138    -0.020006163  
   4550000   0.051323363   -0.17581358     0             -0.13515585     0.0015028728 
   4560000   0.054438283   -0.17492838     0             -0.13180305    -0.011245296  
   4570000   0.055236609   -0.16857912     0             -0.12482137    -0.0057280507 
   4580000   0.053573242   -0.16648683     0             -0.12404677    -0.013057421  
   4590000   0.053495391   -0.16355812     0             -0.12117974     0.0021762837 
   4600000   0.050029211   -0.16482772     0             -0.1251952     -0.0064948957 
   4610000   0.052037127   -0.16986025     0             -0.12863709     0.00051152462
   4620000   0.049361559   -0.15979456     0             -0.12069095     0.011197994  
   4630000   0.051823373   -0.1675286      0             -0.12647478     0.017172961  
   4640000   0.047830203   -0.16969543     0             -0.13180494    -0.019923332  
   4650000   0.046231531   -0.17366625     0             -0.13704221    -0.0038219234 
   4660000   0.050762083   -0.17613484     0             -0.13592175     0.0094411803 
   4670000   0.051990621   -0.17315884     0             -0.13197252     0.0034027918 
   4680000   0.051723616   -0.1825672      0             -0.1415924     -0.008893525  
   4690000   0.048055765   -0.18274486     0             -0.14467568    -0.0010386391 
   4700000   0.047526646   -0.17876571     0             -0.1411157      0.0044191548 
   4710000   0.052355376   -0.17720724     0             -0.13573197    -0.00077761012
   4720000   0.048323053   -0.17588272     0             -0.13760181    -0.029751335  
   4730000   0.055512878   -0.17726267     0             -0.13328606    -0.0011969285 
   4740000   0.05207983    -0.18108209     0             -0.1398251      0.002459942  
   4750000   0.046950907   -0.18522057     0             -0.14802664    -0.023670232  
   4760000   0.049542815   -0.18354111     0             -0.14429391    -0.0018032822 
   4770000   0.051908582   -0.18468784     0             -0.14356651     0.00051855036
   4780000   0.057475732   -0.17789729     0             -0.13236574     0.024393022  
   4790000   0.050475081   -0.18541886     0             -0.14543313     0.0072404725 
   4800000   0.046792067   -0.18141306     0             -0.14434497     0.0045465709 
   4810000   0.054926235   -0.17610902     0             -0.13259714     0.0042137686 
   4820000   0.050281706   -0.1778363      0             -0.13800376     0.0094996281 
   4830000   0.050736801   -0.17097299     0             -0.13077993     0.0096649633 
   4840000   0.054902515   -0.18085691     0             -0.13736382    -0.013060083  
   4850000   0.046518956   -0.16235761     0             -0.12550587    -0.0023822222 
   4860000   0.052539354   -0.16232914     0             -0.12070812     0.013874007  
   4870000   0.056167918   -0.16027849     0             -0.11578297    -0.0069042534 
   4880000   0.048327301   -0.15974431     0             -0.12146002     0.015978372  
   4890000   0.055878341   -0.16158641     0             -0.11732029     0.011273172  
   4900000   0.046754262   -0.16427342     0             -0.12723528    -0.018849902  
   4910000   0.049271137   -0.15677521     0             -0.11774323    -0.018011232  
   4920000   0.053583585   -0.16459662     0             -0.12214837    -0.011254419  
   4930000   0.051334593   -0.15899104     0             -0.11832442     0.0099586918 
   4940000   0.051230496   -0.15647001     0             -0.11588585     0.01286621   
   4950000   0.052985787   -0.16049571     0             -0.11852103    -0.0050191416 
   4960000   0.052872856   -0.1644135      0             -0.12252829    -0.0027685851 
   4970000   0.054016525   -0.16177649     0             -0.11898527     0.022470012  
   4980000   0.048297652   -0.16534614     0             -0.12708535     0.019413943  
   4990000   0.051037075   -0.16725782     0             -0.12682689    -0.0041626223 
   5000000   0.051871134   -0.16610807     0             -0.12501641    -0.017880497  
   5010000   0.047356636   -0.16804004     0             -0.1305247     -0.023794832  
   5020000   0.052063208   -0.1660591      0             -0.12481528     0.019017856  
   5030000   0.046204412   -0.17298492     0             -0.13638236    -0.025598261  
   5040000   0.053440873   -0.1688948      0             -0.12655961    -0.0084432635 
   5050000   0.046421573   -0.17238681     0             -0.13561222    -0.039423411  
   5060000   0.048953322   -0.17059386     0             -0.13181366     0.028174769  
   5070000   0.054960638   -0.16978327     0             -0.12624414     0.0039788098 
   5080000   0.048090525   -0.18235683     0             -0.14426011    -0.00056636956
   5090000   0.055228743   -0.17570839     0             -0.13195687    -0.017065098  
   5100000   0.05206428    -0.17039489     0             -0.12915022     0.0097266459 
   5110000   0.056111875   -0.17823309     0             -0.13378197    -0.024626359  
   5120000   0.052265872   -0.17126229     0             -0.12985791     0.025708934  
   5130000   0.047544292   -0.17525986     0             -0.13759587     0.0048701262 
   5140000   0.045517973   -0.17473803     0             -0.13867926    -0.0070022646 
   5150000   0.049867449   -0.17408869     0             -0.13458432     0.00046108309
   5160000   0.051619741   -0.17664533     0             -0.13575281     0.0047620378 
   5170000   0.049349237   -0.17920695     0             -0.1401131      0.027011305  
   5180000   0.049314369   -0.1800066      0             -0.14094038    -0.013927586  
   5190000   0.052245591   -0.18022813     0             -0.13883983    -0.014023631  
   5200000   0.048033339   -0.17757584     0             -0.13952443    -0.025492225  
   5210000   0.045804855   -0.19000164     0             -0.1537156      0.038044204  
   5220000   0.04564301    -0.18333698     0             -0.14717916     0.033371922  
   5230000   0.047210211   -0.18988992     0             -0.15249058     0.027811236  
   5240000   0.050132573   -0.17711817     0             -0.13740378     0.023656431  
   5250000   0.049702092   -0.17886351     0             -0.13949014    -0.0037572344 
   5260000   0.050992341   -0.18017002     0             -0.13977453    -0.015769662  
   5270000   0.051926205   -0.18684334     0             -0.14570805     0.00050786383
   5280000   0.050604604   -0.18445683     0             -0.1443685      0.021312254  
   5290000   0.044504174   -0.18189754     0             -0.14664189    -0.010425855  
   5300000   0.05492669    -0.17560464     0             -0.1320924     -0.0087117909 
   5310000   0.046691104   -0.18527599     0             -0.14828788    -0.0054623922 
   5320000   0.055334975   -0.18746095     0             -0.14362527    -0.024146714  
   5330000   0.059626538   -0.18727564     0             -0.14004024    -0.0054062149 
   5340000   0.048567126   -0.1840661      0             -0.14559183     0.01549331   
   5350000   0.047499356   -0.18305845     0             -0.14543005     0.011284693  
   5360000   0.050991059   -0.18067654     0             -0.14028206    -0.011759411  
   5370000   0.046496315   -0.1895782      0             -0.1527444     -0.01740828   
   5380000   0.049632668   -0.18210139     0             -0.14278301    -0.0056993529 
   5390000   0.050326407   -0.17877969     0             -0.13891174    -0.015513256  
   5400000   0.04486141    -0.18923481     0             -0.15369616     0.0025050863 
   5410000   0.048208799   -0.19192847     0             -0.15373806     0.011509686  
   5420000   0.05293611    -0.18944141     0             -0.14750609    -0.018457147  
   5430000   0.057475963   -0.19536455     0             -0.14983281    -0.00081675477
   5440000   0.044015386   -0.19922842     0             -0.16435998     0.006007086  
   5450000   0.04851397    -0.19440491     0             -0.15597274    -0.0069097288 
   5460000   0.054763583   -0.1887633      0             -0.14538028     0.022621421  
   5470000   0.046538601   -0.19334484     0             -0.15647754     0.010864085  
   5480000   0.049830827   -0.18986388     0             -0.15038852     0.0030329375 
   5490000   0.054985025   -0.19003485     0             -0.1464764      0.0049875002 
   5500000   0.049090073   -0.19294693     0             -0.15405839    -0.024379636  
   5510000   0.048092894   -0.19530995     0             -0.15721137     0.0089134054 
   5520000   0.051780843   -0.19103942     0             -0.15001928     0.016899067  
   5530000   0.047526739   -0.18710885     0             -0.14945876     0.01858314   
   5540000   0.050737884   -0.18272754     0             -0.14253362    -0.01079424   
   5550000   0.050871077   -0.1872331      0             -0.14693367     0.008489862  
   5560000   0.050539662   -0.18988859     0             -0.1498517      0.031082523  
   5570000   0.050429381   -0.17900543     0             -0.13905591     0.0081263858 
   5580000   0.050886371   -0.18715049     0             -0.14683895     0.042712644  
   5590000   0.045116024   -0.1816607      0             -0.14592035    -0.0032213706 
   5600000   0.050596238   -0.17844908     0             -0.13836737    -0.0026213099 
   5610000   0.05134116    -0.18985546     0             -0.14918363    -0.0012033178 
   5620000   0.058846835   -0.18513902     0             -0.1385213      0.012677461  
   5630000   0.046057757   -0.18391407     0             -0.14742769    -0.010833649  
   5640000   0.051789586   -0.18154248     0             -0.14051542    -0.018073984  
   5650000   0.049438911   -0.191439       0             -0.15227411     0.01173521   
   5660000   0.047229111   -0.18262609     0             -0.14521178    -0.010020938  
   5670000   0.05386316    -0.18672502     0             -0.1440553     -0.012344519  
   5680000   0.050379695   -0.18329082     0             -0.14338066    -0.010858849  
   5690000   0.0535677     -0.19156674     0             -0.14913107     0.0018356986 
   5700000   0.048452469   -0.19045345     0             -0.15207001     0.013470537  
   5710000   0.053001368   -0.18622133     0             -0.14423431    -0.013779677  
   5720000   0.054322856   -0.18963094     0             -0.14659706     0.0044356609 
   5730000   0.049949529   -0.19096679     0             -0.15139739     0.021300014  
   5740000   0.048101833   -0.19125928     0             -0.15315361    -0.017713808  
   5750000   0.051300092   -0.19046555     0             -0.14982626     0.009572551  
   5760000   0.051110689   -0.19078309     0             -0.15029384    -0.0069647931 
   5770000   0.049115678   -0.18424387     0             -0.14533504    -0.020637749  
   5780000   0.046586445   -0.18780787     0             -0.15090267     0.012656037  
   5790000   0.04857552    -0.18475937     0             -0.14627845    -0.014223843  
   5800000   0.050325734   -0.18482993     0             -0.14496251    -0.016168919  
   5810000   0.045469999   -0.18072781     0             -0.14470705    -0.013132866  
   5820000   0.048302769   -0.18771961     0             -0.14945476    -0.0097143313 
   5830000   0.047078056   -0.18150352     0             -0.14420888     0.01298437   
   5840000   0.05104232    -0.18178712     0             -0.14135204     0.017430157  
   5850000   0.049270627   -0.18100356     0             -0.14197199    -0.014428839  
   5860000   0.049452195   -0.17333911     0             -0.1341637     -0.020721464  
   5870000   0.044851726   -0.17283379     0             -0.13730281     0.027697187  
   5880000   0.051384436   -0.18113429     0             -0.14042818    -0.0097718645 
   5890000   0.0532135     -0.17924026     0             -0.13708519     0.00029785834
   5900000   0.043443864   -0.17108406     0             -0.13666838     0.00089862777
   5910000   0.055235392   -0.17672864     0             -0.13297186     0.0067202188 
   5920000   0.048760744   -0.17088285     0             -0.1322552     -0.001257964  
   5930000   0.053215275   -0.16379439     0             -0.12163792     0.022575992  
   5940000   0.048637082   -0.16484774     0             -0.12631805    -0.014590908  
   5950000   0.048427972   -0.16848211     0             -0.13011807    -0.0010475022 
   5960000   0.049581539   -0.17369523     0             -0.13441735    -0.0084899967 
   5970000   0.046959489   -0.17319686     0             -0.13599614    -0.012630611  
   5980000   0.04887806    -0.17342447     0             -0.13470388    -0.0089033316 
   5990000   0.048307847   -0.1688346      0             -0.13056573     0.00099182166
   6000000   0.052325011   -0.16805311     0             -0.12660189    -0.020030782  
   6010000   0.049043326   -0.17193357     0             -0.13308206    -0.016891434  
   6020000   0.051901511   -0.16430962     0             -0.1231939     -0.011640105  
   6030000   0.047541747   -0.16308745     0             -0.12542547    -0.010667093  
   6040000   0.045268637   -0.16564113     0             -0.12977988     0.01666736   
   6050000   0.049165724   -0.1708595      0             -0.13191103     0.021840873  
   6060000   0.049910953   -0.17420835     0             -0.13466951    -0.00063012223
   6070000   0.046359031   -0.16795086     0             -0.13122581     0.0022929981 
   6080000   0.049552244   -0.1669048      0             -0.12765013    -0.0038895923 
   6090000   0.047737577   -0.16491111     0             -0.127094       0.021039626  
   6100000   0.052391123   -0.17197604     0             -0.13047245     0.0068680073 
   6110000   0.051238291   -0.16581309     0             -0.12522276     0.013374991  
   6120000   0.048561536   -0.16780066     0             -0.12933082    -0.022041555  
   6130000   0.048184205   -0.16045993     0             -0.12228901     0.00018183937
   6140000   0.050324804   -0.16600749     0             -0.12614081     0.013788325  
   6150000   0.048673338   -0.16592051     0             -0.1273621     -0.0017366706 
   6160000   0.057597582   -0.16383249     0             -0.1182044      0.032549093  
   6170000   0.049522853   -0.16868602     0             -0.12945463     0.018981415  
   6180000   0.047405366   -0.1599166      0             -0.12236267     0.0086870726 
   6190000   0.054557069   -0.16077836     0             -0.11755893     0.0080383204 
   6200000   0.049096978   -0.17494535     0             -0.13605133     0.007371024  
   6210000   0.054675184   -0.17090613     0             -0.12759314    -0.021497891  
   6220000   0.055298345   -0.17213691     0             -0.12833025     0.0021016306 
   6230000   0.051902345   -0.16847245     0             -0.12735606    -0.015966748  
   6240000   0.052034719   -0.1732599      0             -0.13203864     0.018088419  
   6250000   0.04626778    -0.178351       0             -0.14169825    -0.025103516  
   6260000   0.048041167   -0.18116203     0             -0.14310442     0.0056473063 
   6270000   0.050204516   -0.18485915     0             -0.14508776    -0.0052480378 
   6280000   0.056108236   -0.18189285     0             -0.13744461     0.020849353  
   6290000   0.046716482   -0.17791947     0             -0.14091125    -0.016727197  
   6300000   0.052484939   -0.17560363     0             -0.13402572    -0.027005548  
   6310000   0.04687786    -0.17955473     0             -0.14241868     0.0072202573 
   6320000   0.05069073    -0.18319029     0             -0.14303373     0.00052984018
   6330000   0.049887227   -0.18464832     0             -0.14512828     0.0069784399 
   6340000   0.047327064   -0.17858408     0             -0.14109217     0.0018874208 
   6350000   0.046312052   -0.17829206     0             -0.14160423    -0.018408218  
   6360000   0.047342841   -0.18612825     0             -0.14862385    -0.020049659  
   6370000   0.050165356   -0.1824478      0             -0.14270743     0.0038949347 
   6380000   0.053006452   -0.17840371     0             -0.13641266     0.0098438783 
   6390000   0.05239336    -0.18196892     0             -0.14046356    -0.0017959588 
   6400000   0.047008624   -0.17578377     0             -0.13854412     0.0029521789 
   6410000   0.050702359   -0.17282747     0             -0.1326617     -0.00056907518
   6420000   0.052396391   -0.18026773     0             -0.13875996    -0.010426155  
   6430000   0.050087487   -0.18503189     0             -0.14535321    -0.017870927  
   6440000   0.050591663   -0.18583413     0             -0.14575605     0.026273992  
   6450000   0.050020414   -0.17779494     0             -0.1381694     -0.0016110001 
   6460000   0.050568735   -0.18234094     0             -0.14228102    -0.031037647  
   6470000   0.048799952   -0.18203629     0             -0.14337758    -0.0072454581 
   6480000   0.048534572   -0.17984305     0             -0.14139457    -0.012409626  
   6490000   0.050410854   -0.18057437     0             -0.14063952    -0.014656216  
   6500000   0.052797277   -0.18048454     0             -0.13865919     0.0095271339 
   6510000   0.050112194   -0.17710864     0             -0.13741039    -0.0092797126 
   6520000   0.05240961    -0.18123757     0             -0.13971933     0.025402694  
   6530000   0.045781781   -0.17666848     0             -0.14040073     0.02124938   
   6540000   0.049696191   -0.17752538     0             -0.13815668     0.01352873   
   6550000   0.051767027   -0.177829       0             -0.13681981     0.0122028    
   6560000   0.052296158   -0.18400881     0             -0.14258045     0.019950569  
   6570000   0.043310706   -0.18858688     0             -0.15427668    -0.012720595  
   6580000   0.057685078   -0.17861652     0             -0.13291912     0.012642292  
   6590000   0.047277021   -0.17749062     0             -0.14003835     0.011761756  
   6600000   0.049363329   -0.17911091     0             -0.14000589    -0.01038186   
   6610000   0.051026092   -0.17751226     0             -0.13709003     0.016552046  
   6620000   0.046563011   -0.18858502     0             -0.15169839    -0.0084015767 
   6630000   0.046224867   -0.18635827     0             -0.14973951     0.014358314  
   6640000   0.054172525   -0.1862927      0             -0.14337791    -0.0137851    
   6650000   0.050948135   -0.17577582     0             -0.13541535    -0.032519485  
   6660000   0.053927893   -0.18624835     0             -0.14352735    -0.0084207369 
   6670000   0.046867869   -0.18728027     0             -0.15015213    -0.0045273105 
   6680000   0.049869739   -0.18588754     0             -0.14638136    -0.016810836  
   6690000   0.048144128   -0.18315495     0             -0.14501578    -0.018387394  
   6700000   0.04350886    -0.1890659      0             -0.15459873    -0.022948934  
   6710000   0.049989582   -0.18214029     0             -0.14253917     0.0093958802 
   6720000   0.046981304   -0.17589709     0             -0.13867909     0.0022959831 
   6730000   0.050029467   -0.18123736     0             -0.14160464     0.012020918  
   6740000   0.049980007   -0.18184859     0             -0.14225505     0.033596318  
   6750000   0.056835936   -0.18380582     0             -0.1387811     -0.021080133  
   6760000   0.04875846    -0.17887655     0             -0.14025071    -0.0029851749 
   6770000   0.048847388   -0.17859314     0             -0.13989685     0.026956941  
   6780000   0.047945286   -0.18326054     0             -0.14527888     0.010238135  
   6790000   0.050764825   -0.17555611     0             -0.13534085    -0.0073206232 
   6800000   0.046083022   -0.17539496     0             -0.13888857    -0.004749258  
   6810000   0.04809262    -0.18080129     0             -0.14270292    -0.021182886  
   6820000   0.056164639   -0.18603852     0             -0.14154559    -0.021648443  
   6830000   0.050830978   -0.18559914     0             -0.14533147    -0.0032852259 
   6840000   0.046909706   -0.18221487     0             -0.14505359     0.022674247  
   6850000   0.047909959   -0.18020612     0             -0.14225244     0.020324987  
   6860000   0.05185223    -0.17625868     0             -0.13518199    -0.010932232  
   6870000   0.056644574   -0.17913076     0             -0.13425763     0.0080114724 
   6880000   0.049515299   -0.18481668     0             -0.14559128     0.0022397401 
   6890000   0.043557009   -0.18297286     0             -0.14846754     0.0048540773 
   6900000   0.054830438   -0.18271991     0             -0.13928392    -0.016963306  
   6910000   0.054442966   -0.18149952     0             -0.13837048    -0.022206645  
   6920000   0.048874969   -0.18449577     0             -0.14577763     0.02177654   
   6930000   0.048358609   -0.1790611      0             -0.14075201    -0.007770614  
   6940000   0.051640443   -0.1855879      0             -0.14467899    -0.030824706  
   6950000   0.042857364   -0.18543682     0             -0.15148575    -0.0090119703 
   6960000   0.054014094   -0.1812208      0             -0.13843151     0.012419843  
   6970000   0.047920315   -0.17595031     0             -0.13798844     0.016616477  
   6980000   0.056741998   -0.18316992     0             -0.13821962    -0.024968566  
   6990000   0.051930671   -0.18715122     0             -0.1460124      0.018549242  
   7000000   0.051061711   -0.18439079     0             -0.14394034    -0.012080858  
   7010000   0.052548774   -0.18317538     0             -0.1415469      0.0060808835 
   7020000   0.046734572   -0.18705275     0             -0.15003021     0.012525324  
   7030000   0.053051982   -0.18902783     0             -0.14700071     0.0099516283 
   7040000   0.050106212   -0.18956882     0             -0.14987531    -0.0057561749 
   7050000   0.051160239   -0.18617447     0             -0.14564597    -0.0027720539 
   7060000   0.047561547   -0.18680168     0             -0.14912402    -0.0055175602 
   7070000   0.048651802   -0.1828398      0             -0.14429845     0.013665888  
   7080000   0.050910993   -0.1916548      0             -0.15132375     0.023614468  
   7090000   0.046168735   -0.1856313      0             -0.149057       0.011233278  
   7100000   0.056804142   -0.1835491      0             -0.13854956     0.0055905722 
   7110000   0.053306673   -0.18658378     0             -0.1443549     -0.015945568  
   7120000   0.050257354   -0.18442808     0             -0.14461483     0.026232682  
   7130000   0.05559802    -0.19805333     0             -0.15400928     0.002767632  
   7140000   0.047264411   -0.19008656     0             -0.15264428     0.01206163   
   7150000   0.053429784   -0.19194804     0             -0.14962163     0.021041868  
   7160000   0.054693246   -0.19109073     0             -0.14776342     0.0097307462 
   7170000   0.049298604   -0.18689851     0             -0.14784477    -0.0015782715 
   7180000   0.051648282   -0.18818519     0             -0.14727006     0.020825917  
   7190000   0.051992837   -0.18258012     0             -0.14139204    -0.0022054404 
   7200000   0.04811629    -0.18032073     0             -0.14220361     0.0080734995 
   7210000   0.050576376   -0.18558031     0             -0.14551433     0.0078705508 
   7220000   0.050958383   -0.17692782     0             -0.13655922     0.0199594    
   7230000   0.043946148   -0.18211821     0             -0.14730462     0.026351074  
   7240000   0.04708778    -0.18184389     0             -0.14454154    -0.0030130379 
   7250000   0.046516637   -0.18292029     0             -0.1460704      0.00074656842
   7260000   0.053254485   -0.18390383     0             -0.14171629     0.015438266  
   7270000   0.05069281    -0.17906677     0             -0.13890855     0.020530341  
   7280000   0.047664046   -0.18400027     0             -0.14624141    -0.0067320298 
   7290000   0.050291272   -0.17957039     0             -0.13973028     0.01030942   
   7300000   0.056660217   -0.18355663     0             -0.13867112     0.030807621  
   7310000   0.051079895   -0.18473075     0             -0.14426589     0.035098607  
   7320000   0.05413768    -0.18623767     0             -0.14335048     0.0072971904 
   7330000   0.053690325   -0.18825488     0             -0.14572207    -0.010135849  
   7340000   0.04606605    -0.18782968     0             -0.15133673     0.031901072  
   7350000   0.050588016   -0.18582428     0             -0.14574908     0.0011869258 
   7360000   0.050414511   -0.1862426      0             -0.14630486    -0.002001893  
   7370000   0.049191423   -0.1718816      0             -0.13291277     0.0051532181 
   7380000   0.046196137   -0.16881148     0             -0.13221547     0.0290697    
   7390000   0.052748368   -0.17759963     0             -0.13581303    -0.025148139  
   7400000   0.052436726   -0.18371245     0             -0.14217273     0.01874521   
   7410000   0.052899023   -0.18004233     0             -0.13813639     0.016197804  
   7420000   0.050678543   -0.18061112     0             -0.14046422     0.027148386  
   7430000   0.055695134   -0.19019355     0             -0.14607256    -0.0040232589 
   7440000   0.044622866   -0.1888442      0             -0.15349453     0.0091443991 
   7450000   0.049163334   -0.18082271     0             -0.14187613    -0.01933193   
   7460000   0.047449911   -0.18056751     0             -0.14297829    -0.012098849  
   7470000   0.048837527   -0.1794634      0             -0.14077492    -0.014211612  
   7480000   0.052515689   -0.18091683     0             -0.13931456     0.010430261  
   7490000   0.052302437   -0.18746213     0             -0.1460288     -0.015421941  
   7500000   0.051417841   -0.18520011     0             -0.14446754     0.0030895033 
   7510000   0.046806191   -0.19018998     0             -0.1531107      0.0023100916 
   7520000   0.055188711   -0.19316466     0             -0.14944485    -0.0065645272 
   7530000   0.049556332   -0.18195281     0             -0.1426949      0.049093502  
   7540000   0.052113583   -0.18283809     0             -0.14155436    -0.0032756978 
   7550000   0.047228582   -0.1802317      0             -0.1428178      0.0074633317 
   7560000   0.051097062   -0.18745854     0             -0.14698009     0.010478298  
   7570000   0.052404988   -0.18468033     0             -0.14316575     0.013532711  
   7580000   0.047298044   -0.18423017     0             -0.14676125    -0.019469207  
   7590000   0.047855713   -0.19051027     0             -0.15259958     0.033726917  
   7600000   0.051468934   -0.18945354     0             -0.14868049     0.020553337  
   7610000   0.051019088   -0.18498584     0             -0.14456915     0.011326143  
   7620000   0.044595551   -0.19367222     0             -0.15834418    -0.024150762  
   7630000   0.053143825   -0.19080936     0             -0.14870948    -0.036252986  
   7640000   0.051015692   -0.1905587      0             -0.15014471    -0.023159211  
   7650000   0.046314627   -0.18839564     0             -0.15170577     0.011373742  
   7660000   0.058202406   -0.18849355     0             -0.14238634    -0.014813724  
   7670000   0.047626846   -0.1874408      0             -0.1497114      0.019878746  
   7680000   0.052296148   -0.17896334     0             -0.13753499    -0.017947117  
   7690000   0.049167272   -0.18751812     0             -0.14856842     0.0064758117 
   7700000   0.050195748   -0.17888431     0             -0.13911986    -0.0099762995 
   7710000   0.047874139   -0.1790071      0             -0.14108181     0.017676103  
   7720000   0.049525895   -0.17737934     0             -0.13814554     0.00010069606
   7730000   0.043846355   -0.17634658     0             -0.14161205    -0.03751173   
   7740000   0.052249649   -0.16638709     0             -0.12499558    -0.025856331  
   7750000   0.0483259     -0.16868601     0             -0.13040284    -0.011652246  
   7760000   0.054661214   -0.17581881     0             -0.13251688     0.016317021  
   7770000   0.047897456   -0.17352775     0             -0.13558398    -0.0061789383 
   7780000   0.047370626   -0.17710603     0             -0.13957961     0.01852816   
   7790000   0.050405986   -0.17551112     0             -0.13558013     0.0050463938 
   7800000   0.052612937   -0.17156114     0             -0.12988183     0.020904703  
   7810000   0.053710878   -0.17583256     0             -0.13328348    -0.01771373   
   7820000   0.04927835    -0.1783617      0             -0.13932401     0.012458337  
   7830000   0.054263298   -0.18299422     0             -0.14000751    -0.011195238  
   7840000   0.051789614   -0.18759682     0             -0.14656973     0.018156369  
   7850000   0.047201781   -0.19424932     0             -0.15685666    -0.011980889  
   7860000   0.04992305    -0.18934267     0             -0.14979425    -0.003277873  
   7870000   0.051999391   -0.1937586      0             -0.15256534    -0.0019581873 
   7880000   0.048770524   -0.19463675     0             -0.15600135    -0.021589238  
   7890000   0.048051656   -0.19519911     0             -0.15713319     0.0047069881 
   7900000   0.052360945   -0.19119176     0             -0.14971208     0.027567823  
   7910000   0.051387802   -0.19495651     0             -0.15424773     0.0058278575 
   7920000   0.046622934   -0.18580091     0             -0.14886681     0.01537443   
   7930000   0.050367883   -0.19375023     0             -0.15384942     0.0058974435 
   7940000   0.04944191    -0.19285466     0             -0.1536874      0.008840126  
   7950000   0.047761309   -0.1932585      0             -0.15542259     0.018535141  
   7960000   0.044632333   -0.19104365     0             -0.15568647    -0.017394135  
   7970000   0.051096511   -0.19044744     0             -0.14996942    -0.0029196218 
   7980000   0.043905439   -0.1913428      0             -0.15656146     0.021528158  
   7990000   0.051244984   -0.1876959      0             -0.14710026     0.026369834  
   8000000   0.043977287   -0.19392769     0             -0.15908944    -0.02633234   
   8010000   0.053198068   -0.19779245     0             -0.15564961     0.0068663328 
   8020000   0.049105182   -0.19928889     0             -0.16038838     0.014302772  
   8030000   0.047189066   -0.19523169     0             -0.15784911    -0.0021062982 
   8040000   0.050714087   -0.19106929     0             -0.15089423    -0.0098373444 
   8050000   0.052298927   -0.19135262     0             -0.14992206     0.00095245002
   8060000   0.049122851   -0.19079439     0             -0.15187988     0.046357479  
   8070000   0.050574224   -0.19180018     0             -0.15173591     0.013704051  
   8080000   0.046699867   -0.19339769     0             -0.15640264    -0.013051574  
   8090000   0.051043116   -0.19527363     0             -0.15483791    -0.002793013  
   8100000   0.045747137   -0.19161401     0             -0.1553737      0.0036760249 
   8110000   0.05141113    -0.18876771     0             -0.14804046    -0.019425899  
   8120000   0.051867365   -0.19644129     0             -0.15535261     0.018579173  
   8130000   0.051737902   -0.19131973     0             -0.15033361    -0.012424604  
   8140000   0.049134364   -0.19373631     0             -0.15481268    -0.035186376  
   8150000   0.047491954   -0.19290665     0             -0.15528412    -0.0077719428 
   8160000   0.049991534   -0.18884099     0             -0.14923832     0.0017238837 
   8170000   0.049770549   -0.19221855     0             -0.15279094     0.0035510409 
   8180000   0.051276382   -0.19127613     0             -0.15065562     0.0010143864 
   8190000   0.050933686   -0.187363       0             -0.14701397     0.024240357  
   8200000   0.044842507   -0.18288541     0             -0.14736173    -0.0070273927 
   8210000   0.050828798   -0.18195774     0             -0.1416918      0.012286077  
   8220000   0.048283532   -0.18288813     0             -0.14463852    -0.0073348113 
   8230000   0.052290104   -0.18369512     0             -0.14227156     0.010848092  
   8240000   0.052808561   -0.18146124     0             -0.13962696     0.018219036  
   8250000   0.050485797   -0.18538559     0             -0.14539137    -0.014640485  
   8260000   0.050626716   -0.19191122     0             -0.15180536    -0.010001605  
   8270000   0.049944907   -0.18757539     0             -0.14800966     0.019421095  
   8280000   0.049044434   -0.18950326     0             -0.15065087     0.0087526495 
   8290000   0.049974804   -0.18972319     0             -0.15013378    -0.032840838  
   8300000   0.054473682   -0.1874091      0             -0.14425573    -0.0040046747 
   8310000   0.053175955   -0.189162       0             -0.14703667     0.0079116906 
   8320000   0.05035668    -0.18730902     0             -0.14741709    -0.0075378231 
   8330000   0.056192793   -0.18512477     0             -0.14060955     0.0024913529 
   8340000   0.045932415   -0.18477204     0             -0.14838495    -0.00084576235
   8350000   0.049825535   -0.18497798     0             -0.14550681     0.0053079282 
   8360000   0.051633822   -0.18788913     0             -0.14698547    -0.014266921  
   8370000   0.045310327   -0.1811104      0             -0.14521613     0.01750106   
   8380000   0.046610369   -0.18256503     0             -0.14564088     0.00045900791
   8390000   0.050924671   -0.1841759      0             -0.14383401    -0.002568581  
   8400000   0.049296226   -0.18326956     0             -0.14421771     0.012972105  
   8410000   0.051510404   -0.1843477      0             -0.14354181     0.021588192  
   8420000   0.050990831   -0.18173131     0             -0.14133701    -0.0075554096 
   8430000   0.055038883   -0.18171792     0             -0.13811681     0.028070628  
   8440000   0.041861866   -0.18217224     0             -0.1490098     -0.0094019057 
   8450000   0.046339185   -0.18623167     0             -0.14952235     0.016430864  
   8460000   0.048118014   -0.18838991     0             -0.15027142    -0.025618295  
   8470000   0.0500324     -0.18615358     0             -0.14651854     0.014274282  
   8480000   0.050041065   -0.18646843     0             -0.14682652     0.020477801  
   8490000   0.048162784   -0.19432898     0             -0.15617503     0.0051787274 
   8500000   0.054211325   -0.18384124     0             -0.1408957     -0.030291214  
   8510000   0.057552334   -0.18958094     0             -0.1439887     -0.0073429741 
   8520000   0.048383071   -0.18636186     0             -0.1480334      0.0094855027 
   8530000   0.045945264   -0.18833657     0             -0.15193931     0.0039105481 
   8540000   0.050401641   -0.19573187     0             -0.15580432    -0.010831744  
   8550000   0.052462803   -0.18813743     0             -0.14657706     0.0044959797 
   8560000   0.054337888   -0.18642656     0             -0.14338076     0.004784555  
   8570000   0.051963783   -0.1916015      0             -0.15043644     0.011632959  
   8580000   0.052462561   -0.19085963     0             -0.14929944    -0.0033009512 
   8590000   0.049629408   -0.1840729      0             -0.14475711    -0.011409465  
   8600000   0.05367721    -0.18578223     0             -0.14325981     0.0023492773 
   8610000   0.048842652   -0.19251094     0             -0.15381841     0.02052861   
   8620000   0.048757713   -0.19177761     0             -0.15315236     0.0033867477 
   8630000   0.049072845   -0.19019898     0             -0.15132409    -0.001943     
   8640000   0.053625348   -0.19337765     0             -0.15089632    -0.0035553058 
   8650000   0.048484101   -0.18787185     0             -0.14946335     0.040995994  
   8660000   0.047872973   -0.20413751     0             -0.16621314     0.015240341  
   8670000   0.04929033    -0.19716615     0             -0.15811897    -0.030127101  
   8680000   0.053164927   -0.19864658     0             -0.15652999     0.0037949748 
   8690000   0.043545261   -0.19239835     0             -0.15790234    -0.039049901  
   8700000   0.05156702    -0.1995322      0             -0.15868145    -0.0080478454 
   8710000   0.050749025   -0.1958892      0             -0.15568646    -0.0005581239 
   8720000   0.049378858   -0.19537947     0             -0.15626216     0.022454     
   8730000   0.051456592   -0.19328501     0             -0.15252174     0.0043242379 
   8740000   0.053891059   -0.19081368     0             -0.14812186     0.013983489  
   8750000   0.047356177   -0.19420336     0             -0.15668839    -0.0020022404 
   8760000   0.051205971   -0.19206205     0             -0.15149732     0.019438985  
   8770000   0.056582423   -0.19342304     0             -0.14859915    -0.010949667  
   8780000   0.049711017   -0.18976852     0             -0.15038807    -0.0094438275 
   8790000   0.055502293   -0.1949837      0             -0.15101548     0.019942748  
   8800000   0.046078639   -0.1950157      0             -0.15851278    -0.0046701949 
   8810000   0.048354998   -0.20740974     0             -0.16910351     0.045319998  
   8820000   0.049093319   -0.1943895      0             -0.15549839     0.015170479  
   8830000   0.052055861   -0.20331533     0             -0.16207733     0.024937361  
   8840000   0.050050871   -0.20275879     0             -0.16310911    -0.010968334  
   8850000   0.053119738   -0.19927379     0             -0.157193       0.014141573  
   8860000   0.051489763   -0.20160532     0             -0.16081578    -0.0076315871 
   8870000   0.052394244   -0.19764224     0             -0.15613618    -0.027927546  
   8880000   0.050195096   -0.19126843     0             -0.1515045      0.021188805  
   8890000   0.049333938   -0.18739604     0             -0.14831431    -0.0017404981 
   8900000   0.058412696   -0.19273791     0             -0.1464641     -0.0085524398 
   8910000   0.050978468   -0.18106936     0             -0.14068486     0.011380891  
   8920000   0.046765018   -0.19218875     0             -0.15514208    -0.014018734  
   8930000   0.05372608    -0.19312497     0             -0.15056384     0.021014711  
   8940000   0.051550755   -0.18854728     0             -0.14770942    -0.031381977  
   8950000   0.051417164   -0.18766733     0             -0.14693529    -0.024154378  
   8960000   0.049481847   -0.18955074     0             -0.15035183    -0.013083302  
   8970000   0.053765445   -0.18749299     0             -0.14490068    -0.017530653  
   8980000   0.055401002   -0.18474407     0             -0.14085609     0.022203111  
   8990000   0.052328499   -0.18855853     0             -0.14710454    -0.012040691  
   9000000   0.047301257   -0.19013678     0             -0.15266532    -0.023486372  
   9010000   0.048917526   -0.18600928     0             -0.14725743     0.031757381  
   9020000   0.048250001   -0.18443857     0             -0.14621553    -0.0035453302 
   9030000   0.052123156   -0.18835314     0             -0.14706183     0.021015422  
   9040000   0.050715031   -0.184519       0             -0.14434319     0.0022104927 
   9050000   0.051341731   -0.18313485     0             -0.14246257    -0.017183264  
   9060000   0.057795008   -0.18273748     0             -0.136953       0.017813588  
   9070000   0.050183235   -0.18230072     0             -0.14254619     0.006442601  
   9080000   0.0395183     -0.18886041     0             -0.15755451     0.010590613  
   9090000   0.049833272   -0.18457708     0             -0.14509979    -0.0081694419 
   9100000   0.053873642   -0.18888622     0             -0.14620819     0.016536771  
   9110000   0.051468559   -0.1920985      0             -0.15132575    -0.016549919  
   9120000   0.050326944   -0.18715661     0             -0.14728823    -0.0058561281 
   9130000   0.048457747   -0.18176072     0             -0.1433731      0.024016202  
   9140000   0.053992411   -0.18418567     0             -0.14141355    -0.0062174388 
   9150000   0.053476007   -0.1790298      0             -0.13666677    -0.0059877666 
   9160000   0.053636479   -0.18048325     0             -0.1379931     -0.018319312  
   9170000   0.053280258   -0.18727329     0             -0.14506534     0.018242941  
   9180000   0.046066104   -0.18295634     0             -0.14646335    -0.0054611203 
   9190000   0.050482071   -0.1910055      0             -0.15101424     7.2877348e-06
   9200000   0.050259058   -0.19528743     0             -0.15547283    -0.022332954  
   9210000   0.052587112   -0.19174056     0             -0.1500817     -0.010599352  
   9220000   0.043056865   -0.19616099     0             -0.16205188     0.0043145892 
   9230000   0.049658739   -0.19622238     0             -0.15688335     0.0065396017 
   9240000   0.048845734   -0.18956887     0             -0.15087389    -0.0082741199 
   9250000   0.047606554   -0.19026819     0             -0.15255487     0.014317587  
   9260000   0.051986889   -0.19132499     0             -0.15014162     0.0096342174 
   9270000   0.050852475   -0.18825989     0             -0.1479752      0.025867322  
   9280000   0.053761625   -0.1920542      0             -0.14946491    -0.0021923007 
   9290000   0.045400078   -0.18738275     0             -0.15141737     0.0019308162 
   9300000   0.050119264   -0.19205459     0             -0.15235073     0.00017569907
   9310000   0.049723547   -0.19354117     0             -0.1541508     -0.027677087  
   9320000   0.051922443   -0.19837863     0             -0.15724632    -0.0047234171 
   9330000   0.045938682   -0.19270878     0             -0.15631673     0.0097179654 
   9340000   0.052578416   -0.19008014     0             -0.14842818    -0.0053413134 
   9350000   0.052336465   -0.19421441     0             -0.15275412    -0.027700398  
   9360000   0.057149483   -0.19787714     0             -0.15260404    -0.023084098  
   9370000   0.049133263   -0.19062        0             -0.15169724     0.002663833  
   9380000   0.043067538   -0.18894924     0             -0.15483167    -0.0016322745 
   9390000   0.050129296   -0.19209687     0             -0.15238506    -0.0030887387 
   9400000   0.053976864   -0.19420333     0             -0.15144353    -0.0047582879 
   9410000   0.052514113   -0.18775182     0             -0.14615079    -0.0079255537 
   9420000   0.053543519   -0.19676748     0             -0.15435097     0.013728388  
   9430000   0.043887351   -0.19565263     0             -0.16088562     0.0037974878 
   9440000   0.050202302   -0.19963114     0             -0.1598615      0.0040774657 
   9450000   0.051502329   -0.19650516     0             -0.15570566     0.0097671743 
   9460000   0.051979229   -0.19248519     0             -0.1513079     -0.0081164389 
   9470000   0.053660672   -0.20614624     0             -0.16363693    -0.0055243926 
   9480000   0.049039106   -0.19592826     0             -0.1570801     -0.0036125927 
   9490000   0.045523779   -0.20312884     0             -0.16706547     0.025192518  
   9500000   0.053580446   -0.20876256     0             -0.1663168     -0.011648279  
   9510000   0.04774638    -0.19363624     0             -0.15581215     0.0069868118 
   9520000   0.0506952     -0.19645106     0             -0.15629095    -0.018055567  
   9530000   0.049693034   -0.19651277     0             -0.15714657     0.0098342199 
   9540000   0.047232724   -0.1911979      0             -0.15378072     0.0055750701 
   9550000   0.049870851   -0.19018331     0             -0.15067624    -0.018052965  
   9560000   0.055581428   -0.18933939     0             -0.14530848     0.010603612  
   9570000   0.050324078   -0.19657865     0             -0.15671255     0.013763235  
   9580000   0.047285728   -0.19658945     0             -0.15913029    -0.0045007453 
   9590000   0.047788664   -0.19084247     0             -0.15298489    -0.0042951484 
   9600000   0.051733941   -0.19150222     0             -0.15051924    -0.0012038586 
   9610000   0.053157359   -0.19054721     0             -0.14843661    -0.0072016961 
   9620000   0.049673479   -0.18899271     0             -0.149642      -0.00032870335
   9630000   0.04563451    -0.19628627     0             -0.16013518    -0.002264467  
   9640000   0.04820885    -0.19363513     0             -0.15544468     0.006249749  
   9650000   0.051637268   -0.18568368     0             -0.14477728     0.0067146218 
   9660000   0.05116893    -0.18296005     0             -0.14242467    -0.0053188421 
   9670000   0.049119503   -0.18411841     0             -0.14520655    -0.0055207172 
   9680000   0.046410094   -0.18966954     0             -0.15290405    -0.0016516559 
   9690000   0.049695359   -0.19070512     0             -0.15133708    -0.0078120807 
   9700000   0.047575924   -0.18651169     0             -0.14882263     0.01320449   
   9710000   0.049944306   -0.18402161     0             -0.14445635     0.023420851  
   9720000   0.051934179   -0.19476793     0             -0.15362632    -0.01586211   
   9730000   0.051937112   -0.18895907     0             -0.14781514    -0.005021664  
   9740000   0.050975727   -0.19219174     0             -0.15180941     0.027348352  
   9750000   0.043464306   -0.19419454     0             -0.15976265    -0.0068507916 
   9760000   0.050891367   -0.18691066     0             -0.14659516     0.0011670553 
   9770000   0.051951702   -0.19020887     0             -0.14905338    -0.0001148807 
   9780000   0.050461724   -0.18906526     0             -0.14909012     0.0073965563 
   9790000   0.052512847   -0.18713464     0             -0.14553462    -0.040166375  
   9800000   0.046732038   -0.18803528     0             -0.15101475    -0.002216568  
   9810000   0.049763709   -0.19150045     0             -0.15207826     0.027003214  
   9820000   0.045415165   -0.19169863     0             -0.1557213      0.019880622  
   9830000   0.046694654   -0.19470822     0             -0.15771729     0.012898328  
   9840000   0.053290756   -0.19806167     0             -0.1558454     -0.0023113921 
   9850000   0.047858889   -0.19293707     0             -0.15502386     0.0092709196 
   9860000   0.05060643    -0.19730541     0             -0.15721563    -0.0017034683 
   9870000   0.050026132   -0.19475773     0             -0.15512766    -0.006594273  
   9880000   0.044870816   -0.18905625     0             -0.15351015     0.011193397  
   9890000   0.050527554   -0.19463276     0             -0.15460546    -0.0011176795 
   9900000   0.048173938   -0.1890948      0             -0.15093201    -0.024318628  
   9910000   0.049181616   -0.18710658     0             -0.14814552    -0.018844996  
   9920000   0.051669691   -0.19663576     0             -0.15570367    -0.016688407  
   9930000   0.049875039   -0.18897134     0             -0.14946096     0.024960559  
   9940000   0.049914801   -0.19156082     0             -0.15201894     0.0032366865 
   9950000   0.054620861   -0.19100831     0             -0.14773835     0.028208413  
   9960000   0.054917649   -0.18793357     0             -0.1444285     -0.018101368  
   9970000   0.04768663    -0.19457114     0             -0.15679439    -0.00043601461
   9980000   0.046604424   -0.19034087     0             -0.15342143    -0.0042495348 
   9990000   0.04915776    -0.19160117     0             -0.15265901     0.012177565  
  10000000   0.054746273   -0.19515387     0             -0.15178456    -0.024478942  
  10010000   0.048471815   -0.1947572      0             -0.15635844    -0.011660442  
  10020000   0.047729207   -0.19192448     0             -0.154114       0.047471004  
  10030000   0.050444204   -0.1961064      0             -0.15614513     0.019653167  
  10040000   0.050811077   -0.20084738     0             -0.16059548     0.024620335  
  10050000   0.051658503   -0.18421125     0             -0.14328803    -0.0055944615 
  10060000   0.054983961   -0.19246881     0             -0.1489112      0.0051910928 
  10070000   0.049768679   -0.19904838     0             -0.15962226    -0.030665575  
  10080000   0.053698005   -0.19144966     0             -0.14891077     0.0077699066 
  10090000   0.045118701   -0.19282494     0             -0.15708247    -0.022045753  
  10100000   0.046866429   -0.19346426     0             -0.15633726    -0.0021291981 
  10110000   0.047674998   -0.19334509     0             -0.15557755    -0.008809433  
  10120000   0.046779974   -0.19739449     0             -0.16033598     0.0026619781 
  10130000   0.050111593   -0.19510087     0             -0.15540309     0.02332456   
  10140000   0.044448165   -0.19469978     0             -0.1594885     -0.018444812  
  10150000   0.053900554   -0.19243767     0             -0.14973833     0.016782557  
  10160000   0.048759329   -0.19224076     0             -0.15361423     0.027641239  
  10170000   0.054043402   -0.19678107     0             -0.15396856     0.0011182564 
  10180000   0.044899426   -0.19131603     0             -0.15574726     0.020440639  
  10190000   0.056655416   -0.19255133     0             -0.14766962     0.013848053  
  10200000   0.050523412   -0.1946556      0             -0.15463158    -0.0034709919 
  10210000   0.048734553   -0.18979291     0             -0.15118601     0.0083314996 
  10220000   0.051063399   -0.18962585     0             -0.14917406    -0.00055113045
  10230000   0.05283253    -0.19487288     0             -0.15301961    -0.013836162  
  10240000   0.05170991    -0.19871611     0             -0.15775217    -0.019854057  
  10250000   0.051411623   -0.19342196     0             -0.15269431    -0.0047706865 
  10260000   0.05152126    -0.19995658     0             -0.15914208     0.0066325634 
  10270000   0.054123099   -0.19831998     0             -0.15544434    -0.031504757  
  10280000   0.050549523   -0.20077322     0             -0.16072852    -0.020173081  
  10290000   0.050962267   -0.19620498     0             -0.15583331    -0.014676793  
  10300000   0.054204108   -0.19223604     0             -0.14929623    -0.0089460523 
  10310000   0.044863499   -0.20134048     0             -0.16580017     0.009454102  
  10320000   0.046866365   -0.20219234     0             -0.16506539     0.023665496  
  10330000   0.053231384   -0.20234604     0             -0.1601768      0.031161685  
  10340000   0.051293365   -0.2002292      0             -0.15959524     0.0071037014 
  10350000   0.047944664   -0.19813037     0             -0.16014921    -0.019797063  
  10360000   0.048282512   -0.19958418     0             -0.16133538    -0.0048894801 
  10370000   0.054407182   -0.20314143     0             -0.16004074     0.030288304  
  10380000   0.052431715   -0.20234512     0             -0.16080937    -0.0035969749 
  10390000   0.047288774   -0.20070876     0             -0.16324718    -0.002806614  
  10400000   0.047195529   -0.20013085     0             -0.16274314     0.005189116  
  10410000   0.050290586   -0.2002203      0             -0.16038072     0.020109335  
  10420000   0.050583578   -0.20068953     0             -0.16061785     0.017131445  
  10430000   0.04949681    -0.19200229     0             -0.15279154    -0.0093293467 
  10440000   0.051455701   -0.19238445     0             -0.15162188    -0.0058403304 
  10450000   0.046609356   -0.19542876     0             -0.15850541     0.0072119004 
  10460000   0.048107516   -0.19032303     0             -0.15221286    -0.0079178099 
  10470000   0.053361599   -0.19140617     0             -0.14913378     0.00065315987
  10480000   0.052478401   -0.1898719      0             -0.14829917     0.0098743111 
  10490000   0.052104358   -0.19898686     0             -0.15771044    -0.041267444  
  10500000   0.052253553   -0.19349821     0             -0.1521036     -0.012868716  
  10510000   0.052249325   -0.19803564     0             -0.15664438    -0.031182391  
  10520000   0.046363171   -0.19367576     0             -0.15694744     0.0015431645 
  10530000   0.047724071   -0.19507279     0             -0.15726637     0.013987873  
  10540000   0.045748617   -0.18746041     0             -0.15121892    -0.020280291  
  10550000   0.051843446   -0.18542813     0             -0.1443584     -0.004205098  
  10560000   0.053497299   -0.18922402     0             -0.14684413     0.02348276   
  10570000   0.050076111   -0.18824651     0             -0.14857685    -0.023668092  
  10580000   0.045467729   -0.18832544     0             -0.15230647     0.010752624  
  10590000   0.052974311   -0.18798922     0             -0.14602363    -0.00069138238
  10600000   0.051322562   -0.18557686     0             -0.14491977    -0.012228457  
  10610000   0.047462726   -0.18996654     0             -0.15236716    -0.035453436  
  10620000   0.046662025   -0.17917215     0             -0.14220708    -0.002139004  
  10630000   0.051595899   -0.18516188     0             -0.14428825    -0.038780297  
  10640000   0.054972422   -0.1801902      0             -0.13664174    -0.013295503  
  10650000   0.046262029   -0.18390273     0             -0.14725453    -0.010377679  
  10660000   0.046563891   -0.18088663     0             -0.1439993     -0.01038729   
  10670000   0.050154847   -0.18683293     0             -0.14710089    -0.0032778254 
  10680000   0.048119815   -0.19229591     0             -0.15417599     0.019057519  
  10690000   0.049485943   -0.18606228     0             -0.14686013     0.0052688381 
  10700000   0.052481835   -0.1883124      0             -0.14673695     0.0020042531 
  10710000   0.04800702    -0.19166036     0             -0.15362979    -0.0079781664 
  10720000   0.056933829   -0.1915921      0             -0.14648983     0.018611038  
  10730000   0.051895155   -0.19629468     0             -0.15518399     0.013524124  
  10740000   0.049671212   -0.18259441     0             -0.1432455     -0.0099266794 
  10750000   0.047751889   -0.18841777     0             -0.15058932    -0.015831427  
  10760000   0.046752063   -0.19513152     0             -0.15809512     0.0069310026 
  10770000   0.052094726   -0.19639045     0             -0.15512166     0.020132975  
  10780000   0.054165185   -0.18769282     0             -0.14478384     0.0082972026 
  10790000   0.050781294   -0.19499727     0             -0.15476896    -0.0049091727 
  10800000   0.045863447   -0.19110975     0             -0.1547773      0.020135458  
  10810000   0.050431591   -0.19508918     0             -0.1551379      0.023744758  
  10820000   0.046554336   -0.20058621     0             -0.16370644    -0.002639086  
  10830000   0.048203398   -0.206611       0             -0.16842487     0.028939748  
  10840000   0.05332214    -0.20351079     0             -0.16126966     0.014486782  
  10850000   0.045275213   -0.20340809     0             -0.16754163     0.011975573  
  10860000   0.047915996   -0.20223352     0             -0.16427506    -0.02575362   
  10870000   0.051237536   -0.19973837     0             -0.15914863     0.026635751  
  10880000   0.04819785    -0.19930981     0             -0.16112808     0.0050710597 
  10890000   0.054754153   -0.20298676     0             -0.1596112     -0.00085811014
  10900000   0.05173139    -0.19579345     0             -0.15481249    -0.038654305  
  10910000   0.051875055   -0.19821164     0             -0.15711687     0.0079968571 
  10920000   0.050298608   -0.20078363     0             -0.1609377      0.032655689  
  10930000   0.046251205   -0.19643864     0             -0.15979902    -0.0027571821 
  10940000   0.054530794   -0.19202021     0             -0.1488216      0.013710934  
  10950000   0.051783718   -0.20020438     0             -0.15918196    -0.012541678  
  10960000   0.051700509   -0.19888993     0             -0.15793343    -0.00299126   
  10970000   0.047612654   -0.20054471     0             -0.16282657    -0.032090217  
  10980000   0.054821335   -0.20294544     0             -0.15951666     0.017533857  
  10990000   0.048050519   -0.19907231     0             -0.16100729    -0.012889302  
  11000000   0.053735224   -0.20203617     0             -0.15946779     0.0015023213 
  11010000   0.045950413   -0.19993018     0             -0.16352884     0.015939555  
  11020000   0.050397282   -0.19440384     0             -0.15447974    -0.012724634  
  11030000   0.047273624   -0.198631       0             -0.16118142     0.0080190596 
  11040000   0.048419301   -0.19342357     0             -0.1550664      0.00028811804
  11050000   0.053183935   -0.19677031     0             -0.15463866    -0.0080092872 
  11060000   0.052821138   -0.19790353     0             -0.15605929    -0.022839741  
  11070000   0.0499477     -0.19979008     0             -0.16022213     0.011606584  
  11080000   0.049649347   -0.19653785     0             -0.15720626    -0.0099102016 
  11090000   0.055951405   -0.1922463      0             -0.1479223     -0.0056769654 
  11100000   0.055202715   -0.18740224     0             -0.14367134     0.023188573  
  11110000   0.041958864   -0.17969317     0             -0.14645388    -0.017082685  
  11120000   0.054809112   -0.17915765     0             -0.13573856    -0.014770784  
  11130000   0.051855651   -0.18585827     0             -0.14477887    -0.017355791  
  11140000   0.050285981   -0.19132273     0             -0.1514868     -0.013984854  
  11150000   0.045416793   -0.19181279     0             -0.15583418    -0.01253982   
  11160000   0.057338804   -0.17808799     0             -0.1326649     -0.0094421741 
  11170000   0.047346131   -0.18100715     0             -0.14350013    -0.019759487  
  11180000   0.049425867   -0.18297937     0             -0.14382482    -0.00016692642
  11190000   0.051197126   -0.17846825     0             -0.13791053     0.0031484975 
  11200000   0.051586294   -0.18907872     0             -0.14821271    -0.0050229088 
  11210000   0.047748386   -0.18342547     0             -0.14559979    -0.043867641  
  11220000   0.055391764   -0.18513249     0             -0.14125183    -0.01941875   
  11230000   0.051268139   -0.19275189     0             -0.15213791    -0.005187276  
  11240000   0.049620619   -0.18816909     0             -0.14886026    -0.016889494  
  11250000   0.050070034   -0.1842778      0             -0.14461294    -0.040917636  
  11260000   0.053073621   -0.19051066     0             -0.1484664     -0.032191185  
  11270000   0.045610794   -0.18114113     0             -0.14500883     0.020153496  
  11280000   0.050435599   -0.18699822     0             -0.14704377     0.0042568072 
  11290000   0.047975236   -0.190915       0             -0.15290961    -0.00091731405
  11300000   0.048824711   -0.18976987     0             -0.15109155     0.0099992469 
  11310000   0.05151877    -0.18665849     0             -0.14584597     0.0073967162 
  11320000   0.050843051   -0.19638511     0             -0.15610788     0.0018989891 
  11330000   0.055635196   -0.19420648     0             -0.15013297    -0.022580691  
  11340000   0.050231523   -0.19327886     0             -0.15348607    -0.020000937  
  11350000   0.049810289   -0.19024549     0             -0.1507864     -0.017692539  
  11360000   0.051204794   -0.19193362     0             -0.15136982     0.0062713609 
  11370000   0.047140326   -0.18626467     0             -0.14892069    -0.012203302  
  11380000   0.049879408   -0.19276154     0             -0.1532477     -0.010942144  
  11390000   0.051216664   -0.19230786     0             -0.15173466     0.011570922  
  11400000   0.050920284   -0.18507546     0             -0.14473704    -0.017770433  
  11410000   0.051644281   -0.18405084     0             -0.14313889    -0.021011269  
  11420000   0.04609154    -0.18845891     0             -0.15194577     0.015619887  
  11430000   0.046040348   -0.18785361     0             -0.15138102     0.014815928  
  11440000   0.047845369   -0.18643614     0             -0.14853363     0.01611411   
  11450000   0.059250954   -0.19158851     0             -0.14465064    -0.00056300537
  11460000   0.054827921   -0.18674422     0             -0.14331023     0.0082784942 
  11470000   0.050676615   -0.19533733     0             -0.15519195     0.0007102997 
  11480000   0.048954896   -0.19256994     0             -0.15378848     0.019164237  
  11490000   0.052266176   -0.19981972     0             -0.15841511    -0.023239024  
  11500000   0.051887002   -0.19037323     0             -0.14926899    -0.0080772275 
  11510000   0.052561911   -0.19273831     0             -0.15109942    -0.013398035  
  11520000   0.05337447    -0.1964125      0             -0.15412991    -0.0057343292 
  11530000   0.056409524   -0.19882094     0             -0.15413402     0.020199917  
  11540000   0.047525913   -0.19342144     0             -0.155772       0.043019226  
  11550000   0.043164853   -0.18661519     0             -0.15242053     0.019033695  
  11560000   0.05086686    -0.18331348     0             -0.14301739    -0.0087474943 
  11570000   0.046734481   -0.18952078     0             -0.15249831    -0.024986048  
  11580000   0.050820966   -0.18749261     0             -0.14723287    -0.019043948  
  11590000   0.051374681   -0.19048781     0             -0.14978943    -0.015144656  
  11600000   0.048834589   -0.18866197     0             -0.14997582     0.020275188  
  11610000   0.047378914   -0.18771642     0             -0.15018343     0.018427618  
  11620000   0.050228213   -0.18926746     0             -0.1494773     -0.005469949  
  11630000   0.053089877   -0.17948072     0             -0.13742358     0.025163041  
  11640000   0.047751207   -0.18414779     0             -0.14631988    -0.023886765  
  11650000   0.048377382   -0.18121962     0             -0.14289567    -0.0057234131 
  11660000   0.047106919   -0.18071118     0             -0.14339367    -0.0020945463 
  11670000   0.04877444    -0.18407027     0             -0.14543177    -0.031656524  
  11680000   0.051098186   -0.18627203     0             -0.14579268    -0.0035269178 
  11690000   0.0455989     -0.18546326     0             -0.14934038     0.0045625669 
  11700000   0.044748596   -0.18128615     0             -0.14583687    -0.0080651635 
  11710000   0.054928521   -0.17566821     0             -0.13215452    -0.00039990666
  11720000   0.054575822   -0.18161732     0             -0.13838304     0.035668278  
  11730000   0.047924225   -0.18942087     0             -0.1514559     -0.025564841  
  11740000   0.04576139    -0.17770755     0             -0.14145595     0.020027777  
  11750000   0.05310241    -0.18326391     0             -0.14119684    -0.016117868  
  11760000   0.052978578   -0.18919667     0             -0.1472277     -0.023554436  
  11770000   0.052668565   -0.18522647     0             -0.1435031     -0.012274884  
  11780000   0.050471091   -0.18551361     0             -0.14553104    -0.033697765  
  11790000   0.05064539    -0.18716753     0             -0.14704688     0.014715246  
  11800000   0.05254778    -0.18321412     0             -0.14158643     0.01042663   
  11810000   0.048889682   -0.18443688     0             -0.14570709     0.014517191  
  11820000   0.048246079   -0.18510983     0             -0.14688989     0.01530264   
  11830000   0.050783907   -0.17663698     0             -0.13640661    -0.012979199  
  11840000   0.050510257   -0.17787864     0             -0.13786505    -0.0055969638 
  11850000   0.047257146   -0.18154738     0             -0.14411085     0.0077667093 
  11860000   0.047402564   -0.18504007     0             -0.14748835    -0.0050507411 
  11870000   0.048762059   -0.18156805     0             -0.14293936    -0.01145287   
  11880000   0.052823486   -0.18473957     0             -0.14289346     0.026654435  
  11890000   0.053061643   -0.19018945     0             -0.14815468     0.021267931  
  11900000   0.056549072   -0.18674534     0             -0.14194788    -0.0077305643 
  11910000   0.052990828   -0.18597859     0             -0.14399991     0.001701532  
  11920000   0.049893322   -0.18583029     0             -0.14630543    -0.0076378744 
  11930000   0.050015155   -0.18329947     0             -0.14367809    -0.0071114866 
  11940000   0.055845852   -0.18557727     0             -0.14133689    -0.015232606  
  11950000   0.053366515   -0.17890965     0             -0.13663336    -0.00017474115
  11960000   0.048984146   -0.1908625      0             -0.15205787     0.019256935  
  11970000   0.056270543   -0.18322258     0             -0.13864576     0.024781726  
  11980000   0.050121185   -0.18746815     0             -0.14776277    -0.011914038  
  11990000   0.049486558   -0.19312996     0             -0.15392733    -0.035162244  
  12000000   0.044015043   -0.18803549     0             -0.15316732    -0.017419572  
  12010000   0.053126046   -0.19101667     0             -0.14893089    -0.040482769  
  12020000   0.046771369   -0.19051446     0             -0.15346277    -0.020955576  
  12030000   0.051068422   -0.18879398     0             -0.14833821     0.00092976678
  12040000   0.051454219   -0.19003193     0             -0.14927054    -0.0096582961 
  12050000   0.054471132   -0.19561889     0             -0.15246754     0.0061598498 
  12060000   0.048626206   -0.18358722     0             -0.14506615     0.037073445  
  12070000   0.045291367   -0.19409084     0             -0.15821158    -0.0050795853 
  12080000   0.048740991   -0.19025934     0             -0.15164734    -0.025564313  
  12090000   0.050306452   -0.1900397      0             -0.15018755     0.031277261  
  12100000   0.052322356   -0.19357576     0             -0.15212664    -0.033945995  
  12110000   0.051079182   -0.19156372     0             -0.15109943    -0.011400656  
  12120000   0.044983276   -0.18707632     0             -0.15144113     0.021730776  
  12130000   0.05189704    -0.19172566     0             -0.15061347    -0.015961644  
  12140000   0.050326846   -0.19450969     0             -0.15464139     0.026110254  
  12150000   0.051586217   -0.1915508      0             -0.15068485    -0.0022692056 
  12160000   0.046934715   -0.1911171      0             -0.15393601     0.0047976975 
  12170000   0.048004767   -0.19001194     0             -0.15198317    -0.0092239375 
  12180000   0.04900917    -0.19760601     0             -0.15878155    -0.0014204528 
  12190000   0.056079903   -0.18672112     0             -0.14229532     0.0030551293 
  12200000   0.04824511    -0.19177316     0             -0.15355399    -0.025003579  
  12210000   0.053440824   -0.19176281     0             -0.14942765     0.0017579134 
  12220000   0.053659525   -0.19546675     0             -0.15295834    -0.0069828451 
  12230000   0.04584005    -0.1836568      0             -0.14734289     0.0014705301 
  12240000   0.048266705   -0.18965817     0             -0.15142189    -0.016325758  
  12250000   0.054081362   -0.19083586     0             -0.14799328    -0.030868078  
  12260000   0.051154353   -0.18961837     0             -0.14909453     0.020781826  
  12270000   0.04966455    -0.18709237     0             -0.14774873    -0.022068294  
  12280000   0.052734079   -0.18769778     0             -0.1459225     -0.003863287  
  12290000   0.05240795    -0.18798541     0             -0.14646848    -0.012985038  
  12300000   0.051744657   -0.192841       0             -0.15184953    -0.002419721  
  12310000   0.051939613   -0.18802353     0             -0.14687762     0.010851714  
  12320000   0.054164491   -0.18455183     0             -0.1416434      0.019467634  
  12330000   0.05327343    -0.18728814     0             -0.14508559    -0.013554679  
  12340000   0.049577682   -0.18879374     0             -0.14951892    -0.011280178  
  12350000   0.051796668   -0.19165981     0             -0.15062714    -0.017048796  
  12360000   0.052677898   -0.18297299     0             -0.14124222     0.019102907  
  12370000   0.052252048   -0.18814256     0             -0.14674914    -0.014877689  
  12380000   0.047012287   -0.18681233     0             -0.14956978    -0.00094054867
  12390000   0.055235233   -0.18500401     0             -0.14124735     0.034440755  
  12400000   0.046895786   -0.1854209      0             -0.14827065    -0.019644734  
  12410000   0.05739468    -0.18836777     0             -0.14290042     0.005914973  
  12420000   0.049434937   -0.18545832     0             -0.14629658     0.0036782467 
  12430000   0.050201896   -0.18086594     0             -0.14109662     0.018768163  
  12440000   0.047859948   -0.18425182     0             -0.14633777    -0.0082777817 
  12450000   0.049170809   -0.18294771     0             -0.14399521     0.022094912  
  12460000   0.047461359   -0.17791942     0             -0.14032112    -0.0013151807 
  12470000   0.050319567   -0.17215537     0             -0.13229284    -0.0028247085 
  12480000   0.054702439   -0.17137474     0             -0.12804015    -0.02831328   
  12490000   0.048457323   -0.17344611     0             -0.13505882    -0.013808084  
  12500000   0.055094433   -0.17093488     0             -0.12728975     0.026670788  
  12510000   0.049521057   -0.16676361     0             -0.12753365    -0.015409492  
  12520000   0.044556146   -0.17135554     0             -0.13605872    -0.0002542937 
  12530000   0.052746276   -0.17229625     0             -0.13051131    -0.004984037  
  12540000   0.046102208   -0.16794295     0             -0.13142136    -0.021601814  
  12550000   0.054041185   -0.16591646     0             -0.1231057      0.019222373  
  12560000   0.048802344   -0.17143618     0             -0.13277557    -0.0083835446 
  12570000   0.052543654   -0.18168854     0             -0.14006412    -0.0094569037 
  12580000   0.045975333   -0.17975052     0             -0.14332944    -0.020583119  
  12590000   0.051499624   -0.17606303     0             -0.13526567     0.006231537  
  12600000   0.047509726   -0.17672797     0             -0.13909136     0.020285392  
  12610000   0.04784742    -0.17951331     0             -0.14160918    -0.016465334  
  12620000   0.045422507   -0.17745547     0             -0.14147232     0.011051527  
  12630000   0.054404022   -0.17878033     0             -0.13568215     0.03020038   
  12640000   0.05260455    -0.17774576     0             -0.13607309     0.010961221  
  12650000   0.046148563   -0.17611628     0             -0.13955797    -0.0070565397 
  12660000   0.050786915   -0.17701547     0             -0.13678271     0.0032944965 
  12670000   0.046876855   -0.18556313     0             -0.14842787     0.023937148  
  12680000   0.051549814   -0.17366588     0             -0.13282876     0.00060584542
  12690000   0.056445455   -0.18098674     0             -0.13627136     0.0013959004 
  12700000   0.05110274    -0.17360379     0             -0.13312084     0.027080573  
  12710000   0.048744466   -0.17013024     0             -0.13151549    -0.012164063  
  12720000   0.047117191   -0.16670742     0             -0.12938177     0.0058894688 
  12730000   0.055008281   -0.16464215     0             -0.12106527    -0.014343452  
  12740000   0.052087025   -0.16916226     0             -0.12789957    -0.015809565  
  12750000   0.047998014   -0.16803863     0             -0.1300152      0.017301714  
  12760000   0.051172362   -0.16969867     0             -0.12916057    -0.0042284108 
  12770000   0.050521146   -0.17616069     0             -0.13613847     0.008964505  
  12780000   0.048636527   -0.1775058      0             -0.13897656    -0.019709161  
  12790000   0.052370383   -0.16924685     0             -0.12775969     0.0036622974 
  12800000   0.050611155   -0.17094419     0             -0.13085066     0.0084142219 
  12810000   0.048348214   -0.17090469     0             -0.13260384     0.024322742  
  12820000   0.049067738   -0.17102956     0             -0.13215871     0.026457982  
  12830000   0.045381492   -0.17081547     0             -0.13486482    -0.004009158  
  12840000   0.049607607   -0.17885325     0             -0.13955472     0.014485672  
  12850000   0.050157978   -0.1749868      0             -0.13525228    -0.01112521   
  12860000   0.049631228   -0.17570943     0             -0.13639219    -0.021632051  
  12870000   0.053650936   -0.17619837     0             -0.13369677     0.031192513  
  12880000   0.051992103   -0.17106418     0             -0.12987669     0.013166248  
  12890000   0.048418502   -0.17858309     0             -0.14022656     0.0069245813 
  12900000   0.047074748   -0.1737159      0             -0.13642388     0.0036494847 
  12910000   0.051534125   -0.17536053     0             -0.13453584    -0.025477273  
  12920000   0.049997444   -0.1737311      0             -0.13412375    -0.0017403331 
  12930000   0.04925936    -0.17951766     0             -0.14049501    -0.001302799  
  12940000   0.052785733   -0.16740254     0             -0.12558634    -0.001870581  
  12950000   0.045276632   -0.16873309     0             -0.1328655     -0.012881942  
  12960000   0.050096231   -0.17147511     0             -0.1317895      0.015258951  
  12970000   0.052225445   -0.17350986     0             -0.13213751     0.00098407852
  12980000   0.050272486   -0.16569034     0             -0.1258651      0.013801347  
  12990000   0.050259807   -0.16939996     0             -0.12958477    -0.014179854  
  13000000   0.051284497   -0.16922072     0             -0.12859378    -0.021245458  
  13010000   0.04860048    -0.16967579     0             -0.13117509     0.029147306  
  13020000   0.045683231   -0.17322635     0             -0.13703667     0.0078584895 
  13030000   0.045817269   -0.17147154     0             -0.13517567     0.0029106645 
  13040000   0.047893592   -0.17382328     0             -0.13588258     0.020210703  
  13050000   0.049172008   -0.16869003     0             -0.12973658     0.0064576166 
  13060000   0.048741495   -0.17634274     0             -0.13773033     0.002866526  
  13070000   0.045935358   -0.17329548     0             -0.13690606     0.0068286511 
  13080000   0.043704323   -0.17377918     0             -0.13915716    -0.0038119369 
  13090000   0.043651979   -0.18177556     0             -0.147195      -0.0089796761 
  13100000   0.051354007   -0.17840914     0             -0.13772714    -0.01122134   
  13110000   0.052228759   -0.17338773     0             -0.13201276     0.019715602  
  13120000   0.048943166   -0.17727311     0             -0.13850095    -0.0060452652 
  13130000   0.053019954   -0.17630354     0             -0.1343018     -0.028301561  
  13140000   0.051839799   -0.18639487     0             -0.14532803    -0.033789625  
  13150000   0.048988973   -0.17469987     0             -0.13589142    -0.030156367  
  13160000   0.049797775   -0.18034995     0             -0.14090078     0.011591637  
  13170000   0.046624259   -0.18333009     0             -0.14639494    -0.016027092  
  13180000   0.049241894   -0.18080826     0             -0.14179945     0.0092107878 
  13190000   0.046446312   -0.18753763     0             -0.15074344    -0.012406089  
  13200000   0.054163413   -0.18487809     0             -0.14197051     0.02071597   
  13210000   0.04971736    -0.18842169     0             -0.14903621    -0.00043473227
  13220000   0.053053871   -0.18150545     0             -0.13947684    -0.016462682  
  13230000   0.049675871   -0.17153336     0             -0.13218076    -0.0046347074 
  13240000   0.051715306   -0.1788671      0             -0.13789888    -0.0038341078 
  13250000   0.053569548   -0.17336409     0             -0.13092697    -0.0019921973 
  13260000   0.050836724   -0.17896951     0             -0.1386973     -0.00031568207
  13270000   0.049544612   -0.18099325     0             -0.14174463     0.002303012  
  13280000   0.05363215    -0.1806573      0             -0.13817058     0.017288511  
  13290000   0.051451501   -0.17609701     0             -0.13533778     0.015879855  
  13300000   0.050877168   -0.18365205     0             -0.14334779     0.021182977  
  13310000   0.048224163   -0.18167767     0             -0.14347509     0.0017562736 
  13320000   0.050748027   -0.18278376     0             -0.14258181    -0.011363423  
  13330000   0.046310211   -0.18563579     0             -0.14894942    -0.019944018  
  13340000   0.050517264   -0.18009379     0             -0.14007465    -0.022950071  
  13350000   0.050526787   -0.17609373     0             -0.13606704    -0.032127074  
  13360000   0.047846524   -0.18314744     0             -0.14524403     0.01215342   
  13370000   0.054009272   -0.18181429     0             -0.13902882    -0.0040412009 
  13380000   0.047041703   -0.18694842     0             -0.14968257    -0.018512409  
  13390000   0.047463228   -0.17652933     0             -0.13892955    -0.006642844  
  13400000   0.054026657   -0.16800145     0             -0.12520221     0.0093558608 
  13410000   0.052900613   -0.16900499     0             -0.12709779     0.028003189  
  13420000   0.050648635   -0.18017751     0             -0.1400543     -0.015186308  
  13430000   0.045963812   -0.18227471     0             -0.14586276     0.011810757  
  13440000   0.049953385   -0.17921773     0             -0.13964528    -0.012365183  
  13450000   0.047277484   -0.17683616     0             -0.13938353     0.014333494  
  13460000   0.047381549   -0.17679469     0             -0.13925961    -0.0092806741 
  13470000   0.045810241   -0.17385374     0             -0.13756344     0.0019326532 
  13480000   0.048505724   -0.17727017     0             -0.13884454     0.0098464817 
  13490000   0.047398463   -0.17709817     0             -0.1395497      0.0050529526 
  13500000   0.05123483    -0.18018094     0             -0.13959335    -0.0038595478 
  13510000   0.047295269   -0.17641817     0             -0.13895144     0.0028580027 
  13520000   0.050402842   -0.16913716     0             -0.12920866     0.013591693  
  13530000   0.050460048   -0.17483295     0             -0.13485913     0.011058031  
  13540000   0.050582801   -0.1733901      0             -0.13331904    -0.0066254292 
  13550000   0.051997088   -0.17079229     0             -0.12960085    -0.0012208121 
  13560000   0.052081063   -0.17584531     0             -0.13458735    -0.0065095535 
  13570000   0.048339851   -0.16881389     0             -0.13051967     0.013971027  
  13580000   0.047395426   -0.17257377     0             -0.13502771     0.021207508  
  13590000   0.045391064   -0.17235441     0             -0.13639618     0.004914383  
  13600000   0.053283131   -0.17095186     0             -0.12874163    -0.020508592  
  13610000   0.04772508    -0.16998986     0             -0.13218265    -0.013943414  
  13620000   0.051545718   -0.17684245     0             -0.13600858     0.0023076309 
  13630000   0.051975198   -0.17002381     0             -0.1288497     -0.016630814  
  13640000   0.050079727   -0.17445121     0             -0.13477868     0.010639414  
  13650000   0.050137612   -0.17104385     0             -0.13132546     0.0033907883 
  13660000   0.049625771   -0.16894327     0             -0.12963035     0.0031883496 
  13670000   0.04966379    -0.17212952     0             -0.13278649    -0.011610718  
  13680000   0.056011825   -0.17207768     0             -0.12770581     0.013574919  
  13690000   0.045457903   -0.16998689     0             -0.13397571    -0.012451081  
  13700000   0.043260649   -0.16762612     0             -0.13335557    -0.017036288  
  13710000   0.047085645   -0.16863833     0             -0.13133767     0.013103256  
  13720000   0.049983495   -0.17309471     0             -0.13349841    -0.014928605  
  13730000   0.051377394   -0.17243499     0             -0.13173446     0.011188847  
  13740000   0.048648878   -0.17533355     0             -0.13679452     0.036108889  
  13750000   0.050195341   -0.16851809     0             -0.12875397    -0.015768855  
  13760000   0.054386912   -0.16091772     0             -0.11783308    -0.0028926    
  13770000   0.047753211   -0.1710952      0             -0.1332657     -0.0062821061 
  13780000   0.053136051   -0.16843952     0             -0.1263458     -0.016551241  
  13790000   0.049562993   -0.17315119     0             -0.133888       0.018862078  
  13800000   0.050472019   -0.15844999     0             -0.11846669    -0.015251721  
  13810000   0.048321492   -0.17489954     0             -0.13661986     0.0037845172 
  13820000   0.044972831   -0.16641909     0             -0.13079217     0.0045181584 
  13830000   0.050378526   -0.17220479     0             -0.13229555    -0.0032795555 
  13840000   0.050325409   -0.16938115     0             -0.12951399    -0.0045760881 
  13850000   0.046304766   -0.1660846      0             -0.12940254     0.0091421031 
  13860000   0.045279493   -0.15902853     0             -0.12315868    -0.019650358  
  13870000   0.050730124   -0.16022787     0             -0.1200401     -0.02014342   
  13880000   0.047942125   -0.16797374     0             -0.12999459     0.035553715  
  13890000   0.050319458   -0.16403824     0             -0.12417579    -0.028763261  
  13900000   0.052443099   -0.16079495     0             -0.11925018    -0.010161321  
  13910000   0.054804148   -0.15358911     0             -0.11017394    -0.016904369  
  13920000   0.049344105   -0.15459252     0             -0.11550274     0.040414823  
  13930000   0.047755714   -0.15678498     0             -0.1189535      0.023527371  
  13940000   0.049064329   -0.16244466     0             -0.12357651    -0.037320047  
  13950000   0.047034252   -0.16226268     0             -0.12500274     0.008419439  
  13960000   0.053568988   -0.16360495     0             -0.12116827     0.01021839   
  13970000   0.05151023    -0.15350384     0             -0.11269808    -0.0081312023 
  13980000   0.049931675   -0.15585132     0             -0.11629607     0.020082885  
  13990000   0.053779268   -0.15581527     0             -0.11321201     0.019891179  
  14000000   0.053131514   -0.15903464     0             -0.11694452    -0.0087269373 
  14010000   0.053953014   -0.15161862     0             -0.10887772     0.012093631  
  14020000   0.044548483   -0.15939597     0             -0.12410522     0.00044039175
  14030000   0.050564203   -0.16449694     0             -0.12444061     0.028752667  
  14040000   0.046319105   -0.16184604     0             -0.12515262     0.022692024  
  14050000   0.055531163   -0.17456752     0             -0.13057642    -0.021869499  
  14060000   0.045467336   -0.17062268     0             -0.13460403    -0.0034336643 
  14070000   0.048627429   -0.16299799     0             -0.12447595    -0.0064755102 
  14080000   0.047110384   -0.16359757     0             -0.12627732    -0.010697854  
  14090000   0.0491875     -0.16300041     0             -0.12403468     0.00061645718
  14100000   0.045126486   -0.16496918     0             -0.12922054    -0.012605012  
  14110000   0.046794575   -0.15636267     0             -0.11929259     0.017518669  
  14120000   0.051863293   -0.16231541     0             -0.12122996    -0.00027827647
  14130000   0.043233368   -0.16095503     0             -0.1267061      0.022790835  
  14140000   0.050117178   -0.15955885     0             -0.11985665     0.00041267421
  14150000   0.054128496   -0.16293828     0             -0.12005836    -0.011642653  
  14160000   0.048493519   -0.15893638     0             -0.12052042    -0.012165184  
  14170000   0.047960684   -0.162623       0             -0.12462915    -0.004004856  
  14180000   0.051455395   -0.1705493      0             -0.12978698     0.0080763374 
  14190000   0.049115019   -0.16835636     0             -0.12944806    -0.018310341  
  14200000   0.044436572   -0.16364935     0             -0.12844726    -0.0015250271 
  14210000   0.048461155   -0.16773428     0             -0.12934396    -0.02729895   
  14220000   0.054509609   -0.1676424      0             -0.12446057    -0.027932561  
  14230000   0.051216059   -0.16569433     0             -0.1251216     -0.018657915  
  14240000   0.045081466   -0.17257277     0             -0.1368598      0.010449909  
  14250000   0.052851447   -0.17129355     0             -0.1294253      0.0082032254 
  14260000   0.049347744   -0.16437595     0             -0.12528328    -0.0062871312 
  14270000   0.050372808   -0.15813601     0             -0.1182313     -0.0086844861 
  14280000   0.049380925   -0.16274508     0             -0.12362612     0.0084562829 
  14290000   0.057803992   -0.16003738     0             -0.11424578    -0.013770496  
  14300000   0.046959845   -0.16987526     0             -0.13267425     0.00045208216
  14310000   0.047221255   -0.16301996     0             -0.12561188     0.011220823  
  14320000   0.047013302   -0.16324246     0             -0.12599911     0.0096990287 
  14330000   0.050225858   -0.162882       0             -0.1230937      0.0064898482 
  14340000   0.055050886   -0.17036524     0             -0.12675461    -0.0070528395 
  14350000   0.051142539   -0.16975357     0             -0.12923909    -0.0043280032 
  14360000   0.051164406   -0.16797815     0             -0.12744635    -0.019188871  
  14370000   0.051127624   -0.17169383     0             -0.13119116    -0.020155858  
  14380000   0.047125421   -0.17459712     0             -0.13726495    -0.0050993751 
  14390000   0.045018482   -0.17245353     0             -0.13679045    -0.010572549  
  14400000   0.053429447   -0.1712589      0             -0.12893276     0.039513731  
  14410000   0.044052977   -0.16920399     0             -0.13430577     0.0011201201 
  14420000   0.049009606   -0.16792762     0             -0.12910282     0.020893893  
  14430000   0.047615432   -0.17063972     0             -0.13291937    -0.0030720496 
  14440000   0.047519035   -0.16625074     0             -0.12860675     0.023395095  
  14450000   0.051929588   -0.1623187      0             -0.12118073    -0.0028600749 
  14460000   0.047282861   -0.16284912     0             -0.12539222    -0.0080008438 
  14470000   0.054623062   -0.16370732     0             -0.12043561    -0.015715146  
  14480000   0.048169156   -0.17092767     0             -0.13276867     0.01282397   
  14490000   0.047539784   -0.17472882     0             -0.1370684      0.010874802  
  14500000   0.049400864   -0.17305572     0             -0.13392098     0.044873298  
  14510000   0.052454599   -0.17302536     0             -0.13147148    -0.0036802099 
  14520000   0.051461143   -0.17509924     0             -0.13433237     0.030463432  
  14530000   0.050047289   -0.17091821     0             -0.13127137    -0.037411245  
  14540000   0.049063866   -0.17556651     0             -0.13669873     0.0088964574 
  14550000   0.051466385   -0.17677497     0             -0.13600394    -0.0042606764 
  14560000   0.046274557   -0.17513395     0             -0.13847582    -0.010541266  
  14570000   0.054887206   -0.17388229     0             -0.13040133    -0.0015625444 
  14580000   0.058571133   -0.17518862     0             -0.1287893     -0.01166654   
  14590000   0.050993549   -0.17780344     0             -0.13740699    -0.012507492  
  14600000   0.046200606   -0.18075237     0             -0.14415283    -0.0080976618 
  14610000   0.04942143    -0.17304802     0             -0.13389698     0.0098041375 
  14620000   0.046167815   -0.18029608     0             -0.14372251     0.0031256508 
  14630000   0.051444428   -0.18184752     0             -0.14109388    -0.018787629  
  14640000   0.055637175   -0.17348503     0             -0.12940995     0.013948009  
  14650000   0.050050652   -0.17273092     0             -0.13308142     0.0014846574 
  14660000   0.052280541   -0.17343723     0             -0.13202124     0.0021529731 
  14670000   0.050913476   -0.17577668     0             -0.13544366     0.0026566294 
  14680000   0.046666098   -0.17439913     0             -0.13743083     0.0099930942 
  14690000   0.049401833   -0.17387628     0             -0.13474077    -0.0038220705 
  14700000   0.05657177    -0.16321554     0             -0.11840009    -0.034538024  
  14710000   0.05287776    -0.1731815      0             -0.1312924     -0.005380592  
  14720000   0.048582326   -0.16945285     0             -0.13096654     0.014838028  
  14730000   0.047644539   -0.16030479     0             -0.12256138     4.1665473e-05
  14740000   0.05110426    -0.16292902     0             -0.12244486     0.031458321  
  14750000   0.051496604   -0.16538261     0             -0.12458764    -0.0060364887 
  14760000   0.046727194   -0.17172399     0             -0.13470729    -0.01748046   
  14770000   0.048304055   -0.17168887     0             -0.133423      -0.026298278  
  14780000   0.05023264    -0.17388784     0             -0.13409417    -9.9394724e-05
  14790000   0.051141011   -0.16993153     0             -0.12941826     0.00040863482
  14800000   0.051249629   -0.16835614     0             -0.12775682     0.0090097715 
  14810000   0.058020652   -0.16500339     0             -0.11904015     0.010499165  
  14820000   0.046212801   -0.1740887      0             -0.1374795     -0.029210536  
  14830000   0.049198407   -0.17147332     0             -0.13249896     0.016087951  
  14840000   0.046663449   -0.17682539     0             -0.13985919     0.0081577892 
  14850000   0.049441431   -0.17831917     0             -0.13915228    -0.008439493  
  14860000   0.052304959   -0.17662722     0             -0.13519189     0.0042950339 
  14870000   0.055357955   -0.17487703     0             -0.13102315    -0.025490285  
  14880000   0.049499992   -0.17815667     0             -0.13894339     0.010425392  
  14890000   0.047221859   -0.17716162     0             -0.13975305    -0.0063167606 
  14900000   0.046812644   -0.18286739     0             -0.145783       0.0099136411 
  14910000   0.047906103   -0.18046743     0             -0.14251682    -0.0030356948 
  14920000   0.049307294   -0.18689602     0             -0.14783539     0.0025321346 
  14930000   0.051274205   -0.18717301     0             -0.14655422     0.005961456  
  14940000   0.050449582   -0.18837204     0             -0.14840651    -0.00022158489
  14950000   0.048010943   -0.18076906     0             -0.14273539    -0.014555096  
  14960000   0.054514284   -0.17902065     0             -0.13583511     0.019091961  
  14970000   0.046749615   -0.17573506     0             -0.1387006      0.0073362059 
  14980000   0.048472908   -0.17935818     0             -0.14095855    -0.014436931  
  14990000   0.052573772   -0.17685721     0             -0.13520892    -0.020825312  
  15000000   0.045774255   -0.17723775     0             -0.14097596    -0.00020118575
  15010000   0.054076892   -0.1771057      0             -0.13426667     0.021068561  
  15020000   0.054601052   -0.17428176     0             -0.13102749     0.012657477  
  15030000   0.05405672    -0.17741415     0             -0.13459109     0.018113813  
  15040000   0.047958908   -0.17880466     0             -0.14081221     0.010869569  
  15050000   0.049024483   -0.17857401     0             -0.13973743     0.0052023339 
  15060000   0.054942641   -0.17427792     0             -0.13075305    -0.030988445  
  15070000   0.060287737   -0.17639677     0             -0.12863758     0.013571177  
  15080000   0.047591705   -0.16884077     0             -0.13113921     0.015727832  
  15090000   0.049779444   -0.17164832     0             -0.13221366    -0.015026655  
  15100000   0.044952666   -0.17346725     0             -0.13785631     0.024010365  
  15110000   0.053697961   -0.17035993     0             -0.12782107    -0.013751757  
  15120000   0.050816834   -0.17117965     0             -0.13092319    -0.026274123  
  15130000   0.050807662   -0.16898663     0             -0.12873744    -0.011968182  
  15140000   0.049988529   -0.17851186     0             -0.13891158     0.0010933309 
  15150000   0.046422389   -0.18211745     0             -0.14534221     0.015318205  
  15160000   0.050593873   -0.17881261     0             -0.13873277    -0.017815801  
  15170000   0.048951091   -0.16722573     0             -0.12844729    -0.0030833497 
  15180000   0.051288107   -0.17679491     0             -0.13616512     0.014839673  
  15190000   0.048497452   -0.18731748     0             -0.14889841     0.014490517  
  15200000   0.049804376   -0.18296655     0             -0.14351214    -0.014970631  
  15210000   0.053245912   -0.17635342     0             -0.13417268    -0.01523892   
  15220000   0.048543422   -0.18292907     0             -0.14447358    -0.018767779  
  15230000   0.050586166   -0.17562378     0             -0.13555005    -0.0035955171 
  15240000   0.047338253   -0.17339197     0             -0.13589119     0.024120011  
  15250000   0.048184671   -0.16988948     0             -0.13171819    -0.0010634135 
  15260000   0.048669155   -0.16444493     0             -0.12588984    -0.010590898  
  15270000   0.051115486   -0.17416402     0             -0.13367097    -0.0011372239 
  15280000   0.051388043   -0.17194076     0             -0.13123179    -0.012518279  
  15290000   0.049345808   -0.17080661     0             -0.13171548    -0.02453083   
  15300000   0.053011026   -0.17462205     0             -0.13262738    -0.025013186  
  15310000   0.051258476   -0.17173112     0             -0.1311248      0.021316802  
  15320000   0.04963442    -0.17323314     0             -0.13391337     0.0055143253 
  15330000   0.046721925   -0.17571869     0             -0.13870616     0.033264567  
  15340000   0.050190639   -0.17547923     0             -0.13571883     0.020847222  
  15350000   0.057689519   -0.1745781      0             -0.12887719     0.0051898141 
  15360000   0.044064548   -0.17068911     0             -0.13578173     0.0055190837 
  15370000   0.056572448   -0.16809347     0             -0.12327748     0.014996775  
  15380000   0.048302362   -0.17775102     0             -0.13948649     0.030429167  
  15390000   0.045301287   -0.1720726      0             -0.13618548     0.0088211091 
  15400000   0.05275609    -0.17946012     0             -0.13766741     0.010084574  
  15410000   0.048924025   -0.17745617     0             -0.13869917     0.020115647  
  15420000   0.048888188   -0.17514539     0             -0.13641678    -0.022949344  
  15430000   0.045389622   -0.17802878     0             -0.14207169    -0.024039133  
  15440000   0.050167695   -0.17777883     0             -0.13803661     0.00097958689
  15450000   0.047155624   -0.17664524     0             -0.13928915     0.0080123442 
  15460000   0.046213058   -0.18478372     0             -0.14817432    -0.0011434891 
  15470000   0.04957005    -0.17222993     0             -0.13296116    -0.021291767  
  15480000   0.049651876   -0.16689914     0             -0.12756554    -0.0067680738 
  15490000   0.051119404   -0.17388323     0             -0.13338708    -0.0058157613 
  15500000   0.047534244   -0.17232571     0             -0.13466968     0.019599066  
  15510000   0.046534649   -0.17512001     0             -0.13825584    -0.020418583  
  15520000   0.047829058   -0.18267702     0             -0.14478744     0.026578695  
  15530000   0.048087746   -0.1670743      0             -0.12897979    -0.025401292  
  15540000   0.047237614   -0.17090775     0             -0.1334867     -0.02345659   
  15550000   0.045588999   -0.17489372     0             -0.13877869     0.0066853225 
  15560000   0.049058682   -0.17010927     0             -0.1312456      0.012279115  
  15570000   0.049051345   -0.16813485     0             -0.12927699    -0.0087111217 
  15580000   0.051642716   -0.16653601     0             -0.12562529     0.0094893103 
  15590000   0.054785724   -0.17100956     0             -0.12760899    -0.00021680784
  15600000   0.045301892   -0.16890195     0             -0.13301436    -0.0096476062 
  15610000   0.053105003   -0.16908217     0             -0.12701305    -0.0079722623 
  15620000   0.056820702   -0.17385525     0             -0.1288426     -0.0011146377 
  15630000   0.04835619    -0.18004207     0             -0.1417349     -0.018528243  
  15640000   0.0527785     -0.17917098     0             -0.13736052    -0.0075782731 
  15650000   0.05098033    -0.17972603     0             -0.13934005    -0.026165835  
  15660000   0.051222932   -0.17996475     0             -0.13938659    -0.011688512  
  15670000   0.047775915   -0.18324646     0             -0.14539897     0.0076815051 
  15680000   0.044914925   -0.18460405     0             -0.14902301    -0.025580093  
  15690000   0.057859417   -0.1860425      0             -0.14020699    -0.0086270964 
  15700000   0.051755703   -0.18058958     0             -0.13958936    -0.022851142  
  15710000   0.047914091   -0.17417626     0             -0.13621931    -0.015896763  
  15720000   0.049018027   -0.18423692     0             -0.14540545     0.0090654874 
  15730000   0.0498159     -0.18317032     0             -0.14370678    -0.018298954  
  15740000   0.052758964   -0.18341342     0             -0.14161843     0.0045172556 
  15750000   0.044529204   -0.18570826     0             -0.15043278    -0.012764511  
  15760000   0.053254923   -0.18602278     0             -0.1438349     -0.023157756  
  15770000   0.053733454   -0.17963001     0             -0.13706304    -0.022442118  
  15780000   0.048962819   -0.17669282     0             -0.13790508    -0.0078579678 
  15790000   0.047574365   -0.16947161     0             -0.13178379    -0.028553628  
  15800000   0.050315806   -0.17199043     0             -0.13213088     0.0084220144 
  15810000   0.050036325   -0.17127977     0             -0.13164162    -0.009681797  
  15820000   0.051996924   -0.17124906     0             -0.13005774    -0.017105499  
  15830000   0.047613802   -0.16859721     0             -0.13087815    -0.0014461474 
  15840000   0.052353212   -0.165267       0             -0.12379344    -0.0047908132 
  15850000   0.048743089   -0.16705049     0             -0.12843682    -0.021453229  
  15860000   0.048790155   -0.17235408     0             -0.13370313    -0.016641803  
  15870000   0.048208979   -0.16589728     0             -0.12770673     0.0037694846 
  15880000   0.045882714   -0.16184022     0             -0.1254925     -0.0014080873 
  15890000   0.054643736   -0.16397926     0             -0.12069118     0.025552649  
  15900000   0.050995828   -0.17083352     0             -0.13043527    -0.023629319  
  15910000   0.052847385   -0.16654783     0             -0.12468279     0.010738784  
  15920000   0.051743335   -0.17080467     0             -0.12981425     0.0146434    
  15930000   0.051387178   -0.17528118     0             -0.1345729      0.00038289054
  15940000   0.045112995   -0.17411694     0             -0.13837899    -0.026509036  
  15950000   0.050083796   -0.16936794     0             -0.12969218     0.0040879528 
  15960000   0.046204293   -0.16638816     0             -0.1297857     -0.0095467882 
  15970000   0.048954138   -0.16610243     0             -0.12732157     0.034496266  
  15980000   0.052027563   -0.16599936     0             -0.12478377     0.024270217  
  15990000   0.049735058   -0.17059388     0             -0.13119439     0.0048300995 
  16000000   0.04748062    -0.17431017     0             -0.13669661     0.011322161  
  16010000   0.049818294   -0.17247511     0             -0.13300968     0.0036313748 
  16020000   0.048058497   -0.17517182     0             -0.13710048     0.013006433  
  16030000   0.046436741   -0.17317352     0             -0.13638691    -0.0082486777 
  16040000   0.049205003   -0.17823094     0             -0.13925136    -0.0071438611 
  16050000   0.044535579   -0.1743216      0             -0.13904107    -0.0083337437 
  16060000   0.051209539   -0.1772265      0             -0.13665894    -0.010322953  
  16070000   0.046411319   -0.17677391     0             -0.14000744    -0.039148857  
  16080000   0.054407398   -0.17953066     0             -0.13642979     0.027964748  
  16090000   0.048406498   -0.17422431     0             -0.13587728     0.00049185845
  16100000   0.050878304   -0.17245796     0             -0.13215281     0.0044265028 
  16110000   0.047028354   -0.17484867     0             -0.13759339     0.010098546  
  16120000   0.046566533   -0.17852353     0             -0.1416341     -0.014147942  
  16130000   0.048457787   -0.17529337     0             -0.13690572     0.029417121  
  16140000   0.049349296   -0.17479639     0             -0.1357025     -0.015251433  
  16150000   0.055632121   -0.17351603     0             -0.12944496    -0.013822061  
  16160000   0.049101821   -0.16596886     0             -0.12707101    -0.008080829  
  16170000   0.043337422   -0.16141816     0             -0.12708679    -0.0020447585 
  16180000   0.04768657    -0.17400599     0             -0.13622929     0.012763035  
  16190000   0.050768189   -0.1753627      0             -0.13514478     0.00071201239
  16200000   0.055365904   -0.18118474     0             -0.13732457    -0.024928148  
  16210000   0.053801288   -0.18291849     0             -0.14029778     0.015267934  
  16220000   0.048980048   -0.18710028     0             -0.1482989      0.0056974972 
  16230000   0.053842436   -0.18602348     0             -0.14337017    -0.010404746  
  16240000   0.05041997    -0.18643201     0             -0.14648994     0.0081586881 
  16250000   0.049443383   -0.18248977     0             -0.14332134     0.01733285   
  16260000   0.050668286   -0.18570094     0             -0.14556216     0.015056219  
  16270000   0.05155616    -0.18510022     0             -0.14425807     0.028210479  
  16280000   0.055939963   -0.18867964     0             -0.1443647     -0.014315034  
  16290000   0.049675823   -0.18556409     0             -0.14621152    -0.034275763  
  16300000   0.046303396   -0.1843158      0             -0.14763483    -0.013642173  
  16310000   0.054529327   -0.1850777      0             -0.14188025    -0.0008490875 
  16320000   0.051473114   -0.18412052     0             -0.14334416     0.028722441  
  16330000   0.050522059   -0.18061676     0             -0.14059381    -0.01943164   
  16340000   0.053870439   -0.178043       0             -0.13536752     0.014287251  
  16350000   0.049862484   -0.18453165     0             -0.14503122     0.033568072  
  16360000   0.05037553    -0.17652119     0             -0.13661432    -0.0074124199 
  16370000   0.05543303    -0.1829115      0             -0.13899814    -0.0064199787 
  16380000   0.050066759   -0.17750059     0             -0.13783833    -0.0016795927 
  16390000   0.050159166   -0.18093405     0             -0.14119859    -0.0032530571 
  16400000   0.047053478   -0.17538272     0             -0.13810754    -0.017208508  
  16410000   0.051001285   -0.18299933     0             -0.14259675     0.014893385  
  16420000   0.049146762   -0.18087243     0             -0.14193898    -0.0083752138 
  16430000   0.049561001   -0.18549931     0             -0.1462377      0.016311846  
  16440000   0.051891649   -0.18733874     0             -0.14623082     0.00019011144
  16450000   0.054060373   -0.18983141     0             -0.14700546     0.013794637  
  16460000   0.048289566   -0.18417991     0             -0.14592552     0.0035228314 
  16470000   0.04419455    -0.18933885     0             -0.15432848     0.019336419  
  16480000   0.050162108   -0.19266854     0             -0.15293075    -0.014856554  
  16490000   0.058893841   -0.19280101     0             -0.14614604     0.0225135    
  16500000   0.052392377   -0.194892       0             -0.15338741     0.0037230683 
  16510000   0.047650055   -0.20105384     0             -0.16330606     0.014815339  
  16520000   0.053348378   -0.19330278     0             -0.15104086    -0.031849777  
  16530000   0.050067972   -0.18927211     0             -0.14960888    -0.018197916  
  16540000   0.05531347    -0.198192       0             -0.15437336     0.0060998332 
  16550000   0.051938679   -0.19867852     0             -0.15753335    -0.00040350923
  16560000   0.054853948   -0.1925301      0             -0.14907549     0.02174262   
  16570000   0.052288434   -0.19100218     0             -0.14957994     0.014123981  
  16580000   0.047249604   -0.18948449     0             -0.15205395     0.021664706  
  16590000   0.048956675   -0.19325604     0             -0.15447317     0.0031188301 
  16600000   0.047632845   -0.18527784     0             -0.1475437     -0.015023485  
  16610000   0.047406577   -0.18604732     0             -0.14849242     0.012383472  
  16620000   0.045618583   -0.1789173      0             -0.14277883     0.0022427326 
  16630000   0.049332424   -0.18348317     0             -0.14440264    -0.017558738  
  16640000   0.052249978   -0.18213068     0             -0.1407389     -0.0073299206 
  16650000   0.050445742   -0.18489337     0             -0.14493088    -0.004954819  
  16660000   0.046548235   -0.18358024     0             -0.14670531    -0.021755744  
  16670000   0.04685168    -0.18580714     0             -0.14869182    -0.0044712883 
  16680000   0.053092111   -0.18235992     0             -0.14030101    -0.015367584  
  16690000   0.051618697   -0.18238316     0             -0.14149148    -0.0063106055 
  16700000   0.052548966   -0.17889428     0             -0.13726565    -0.008302333  
  16710000   0.049963194   -0.18493871     0             -0.14535849    -0.014625643  
  16720000   0.048752915   -0.18266361     0             -0.14404216     0.0037188024 
  16730000   0.048729863   -0.19150854     0             -0.15290535    -0.0057911132 
  16740000   0.05381106    -0.18985057     0             -0.14722212     0.0069675228 
  16750000   0.050102023   -0.18784406     0             -0.14815387     0.023832668  
  16760000   0.053934971   -0.17723485     0             -0.13450824     0.012002501  
  16770000   0.053708331   -0.18461347     0             -0.1420664     -0.0014987429 
  16780000   0.046692291   -0.18603382     0             -0.14904477     0.02779982   
  16790000   0.049455149   -0.18585471     0             -0.14667696    -0.0080046746 
  16800000   0.047984876   -0.18495812     0             -0.1469451     -0.013182434  
  16810000   0.044640396   -0.18511131     0             -0.14974774     0.0078492929 
  16820000   0.051442115   -0.18420321     0             -0.14345141    -0.014724515  
  16830000   0.049511056   -0.19225657     0             -0.15303453     0.0068115797 
  16840000   0.04990069    -0.18295914     0             -0.14342843     0.034312618  
  16850000   0.056446963   -0.18801134     0             -0.14329476    -0.02909806   
  16860000   0.050503896   -0.17659492     0             -0.13658636     0.0044979497 
  16870000   0.045231267   -0.17887638     0             -0.14304473     0.0082280094 
  16880000   0.051324876   -0.18536308     0             -0.14470415     0.031744652  
  16890000   0.044360284   -0.18682427     0             -0.15168261    -0.0079439956 
  16900000   0.051407452   -0.17935237     0             -0.13862802    -0.012768319  
  16910000   0.049978972   -0.1822142      0             -0.14262148    -0.022117175  
  16920000   0.053556263   -0.18550695     0             -0.14308034     0.021583835  
  16930000   0.047732638   -0.18031891     0             -0.14250571    -0.016447262  
  16940000   0.055417116   -0.18557842     0             -0.14167767    -0.015499729  
  16950000   0.048402303   -0.18523911     0             -0.14689541     0.013283969  
  16960000   0.048518729   -0.18610209     0             -0.14766616    -0.005066475  
  16970000   0.042597488   -0.17352537     0             -0.13978017    -0.0080140622 
  16980000   0.04639615    -0.17802732     0             -0.14127287     0.0052307223 
  16990000   0.047091419   -0.17595973     0             -0.1386545      0.0084946785 
  17000000   0.046239331   -0.1813883      0             -0.14475808    -0.0082572394 
  17010000   0.048333356   -0.1769007      0             -0.13861162     0.016510258  
  17020000   0.043256241   -0.17315763     0             -0.13889058    -0.0054435511 
  17030000   0.048461531   -0.17098123     0             -0.13259061    -0.022643623  
  17040000   0.043566203   -0.1765172      0             -0.1420046      0.016660225  
  17050000   0.046287012   -0.18008193     0             -0.14341394     0.0033727812 
  17060000   0.052119085   -0.17068012     0             -0.12939203     0.015966803  
  17070000   0.047460775   -0.1720945      0             -0.13449667     0.0014220314 
  17080000   0.053295846   -0.18704618     0             -0.14482588    -0.019981131  
  17090000   0.048061059   -0.18468844     0             -0.14661507    -0.01704363   
  17100000   0.050187466   -0.17967573     0             -0.13991784    -0.0036139415 
  17110000   0.053792472   -0.18244997     0             -0.13983625     0.000329231  
  17120000   0.048053608   -0.18208751     0             -0.14402004    -0.011948268  
  17130000   0.049450091   -0.17907238     0             -0.13989864     0.028323431  
  17140000   0.050542613   -0.17765494     0             -0.13761571    -0.022929146  
  17150000   0.053215471   -0.17163314     0             -0.12947651     0.018904424  
  17160000   0.045681314   -0.17807054     0             -0.14188237     0.009585114  
  17170000   0.049592299   -0.18397107     0             -0.14468467     0.0097740262 
  17180000   0.050137551   -0.17799111     0             -0.13827277     0.024618947  
  17190000   0.050110008   -0.17416706     0             -0.13447053    -0.028579782  
  17200000   0.049299368   -0.1777264      0             -0.13867206    -0.0032873724 
  17210000   0.050256687   -0.18765644     0             -0.14784372     0.0022426364 
  17220000   0.050647234   -0.17825074     0             -0.13812863    -0.0053434173 
  17230000   0.056832078   -0.17703614     0             -0.13201447    -0.0026447503 
  17240000   0.044494849   -0.17899217     0             -0.14374391     0.019107292  
  17250000   0.0491443     -0.18138847     0             -0.14245697    -0.0099294831 
  17260000   0.054656011   -0.17857359     0             -0.13527578     0.0048638147 
  17270000   0.051830886   -0.16555154     0             -0.12449176     0.011227277  
  17280000   0.048173086   -0.17826812     0             -0.140106      -0.0071019955 
  17290000   0.054880327   -0.17712501     0             -0.1336495     -0.0081273677 
  17300000   0.055323417   -0.17835808     0             -0.13453156     0.02463353   
  17310000   0.046518129   -0.17541651     0             -0.13856543    -0.020518722  
  17320000   0.046205558   -0.17241214     0             -0.13580867    -0.0034516786 
  17330000   0.050948966   -0.16514882     0             -0.12478769     0.019714604  
  17340000   0.052137819   -0.17062975     0             -0.12932682     0.029290076  
  17350000   0.056718668   -0.16749011     0             -0.12255829     0.021152864  
  17360000   0.051611521   -0.16933109     0             -0.12844509     0.018215538  
  17370000   0.053465174   -0.17104134     0             -0.1286869      0.0018871759 
  17380000   0.049778004   -0.17906093     0             -0.13962742    -0.0022492934 
  17390000   0.053997661   -0.17709158     0             -0.13431531     0.033056334  
  17400000   0.055636488   -0.17873193     0             -0.1346574      0.016002276  
  17410000   0.05163744    -0.17998352     0             -0.13907698    -0.0065116753 
  17420000   0.048108695   -0.17781829     0             -0.13970718     0.0089148922 
  17430000   0.050511811   -0.18093143     0             -0.1409166      0.010183487  
  17440000   0.046802311   -0.17609056     0             -0.13901435     0.019679956  
  17450000   0.048088743   -0.17845608     0             -0.14036078     0.0039388537 
  17460000   0.045747761   -0.1810686      0             -0.1448278      0.0035782128 
  17470000   0.051146783   -0.18639159     0             -0.14587375    -0.022926496  
  17480000   0.05174054    -0.19175606     0             -0.15076785    -0.0027710758 
  17490000   0.048695768   -0.1899202      0             -0.15134402    -0.017244432  
  17500000   0.048562156   -0.18416254     0             -0.14569221    -0.022171971  
  17510000   0.045054198   -0.18731705     0             -0.15162568    -0.016333735  
  17520000   0.052063006   -0.18373439     0             -0.14249073     0.023707328  
  17530000   0.05319773    -0.18508464     0             -0.14294206    -0.0090079606 
  17540000   0.051542855   -0.18206726     0             -0.14123565     0.0031740949 
  17550000   0.052782661   -0.18410384     0             -0.14229008     0.016897133  
  17560000   0.049847616   -0.18003352     0             -0.14054486    -0.017782903  
  17570000   0.045901228   -0.18064001     0             -0.14427763     0.045956306  
  17580000   0.051629815   -0.18223965     0             -0.14133915    -0.015863531  
  17590000   0.047155964   -0.18995827     0             -0.15260191    -0.012255301  
  17600000   0.048817692   -0.19202818     0             -0.15335542    -0.012979796  
  17610000   0.048990109   -0.1841626      0             -0.14535325    -0.042630911  
  17620000   0.059335082   -0.18263607     0             -0.13563156     0.014970385  
  17630000   0.048955314   -0.18217332     0             -0.14339153    -0.0032897974 
  17640000   0.05171604    -0.18160296     0             -0.14063416     0.017199651  
  17650000   0.056027823   -0.18971867     0             -0.14533413    -0.0072432225 
  17660000   0.060170538   -0.18956384     0             -0.14189749     0.0046132846 
  17670000   0.047938099   -0.18952859     0             -0.15155263    -0.018431331  
  17680000   0.052095482   -0.18730956     0             -0.14604017    -0.035144951  
  17690000   0.052427806   -0.1901833      0             -0.14865065     0.047683788  
  17700000   0.049355028   -0.1875864      0             -0.14848797     0.0095161579 
  17710000   0.051104427   -0.19517057     0             -0.15468628    -0.010885559  
  17720000   0.048106      -0.19366248     0             -0.15555351    -0.0062595603 
  17730000   0.048372233   -0.19102841     0             -0.15270853     0.0074446979 
  17740000   0.051470689   -0.18228704     0             -0.1415126     -0.024907845  
  17750000   0.055409917   -0.19122442     0             -0.14732938     0.025033062  
  17760000   0.041261465   -0.19027762     0             -0.1575908     -0.011813159  
  17770000   0.050550207   -0.18816809     0             -0.14812285     0.0028882446 
  17780000   0.052867379   -0.1850911      0             -0.14321022     0.0036083675 
  17790000   0.056929243   -0.18927203     0             -0.1441734      0.00083835259
  17800000   0.047277109   -0.1924837      0             -0.15503137    -0.023652545  
  17810000   0.053264665   -0.18962486     0             -0.14742926    -0.015139047  
  17820000   0.048076399   -0.18860998     0             -0.15052446     0.006188645  
  17830000   0.043273762   -0.18577185     0             -0.15149092     0.0015161636 
  17840000   0.046767086   -0.18283882     0             -0.14579052    -0.026411919  
  17850000   0.045759194   -0.18929421     0             -0.15304435    -0.023052488  
  17860000   0.044928969   -0.18365739     0             -0.14806522     0.0011347895 
  17870000   0.053346893   -0.18796474     0             -0.145704      -0.0016999644 
  17880000   0.051456262   -0.1800521      0             -0.13928909     0.027489701  
  17890000   0.046756289   -0.18449857     0             -0.14745882     0.030402177  
  17900000   0.050571159   -0.18774004     0             -0.1476782     -0.023993144  
  17910000   0.0515288     -0.190084       0             -0.14926353    -0.0010560533 
  17920000   0.047459284   -0.18658274     0             -0.14898609     0.015623889  
  17930000   0.045190007   -0.17933134     0             -0.14353238    -0.032426987  
  17940000   0.048129879   -0.18295055     0             -0.14482266     0.017299337  
  17950000   0.048198691   -0.18218095     0             -0.14399855     0.0046248163 
  17960000   0.052383457   -0.18321474     0             -0.14171722    -0.00052545748
  17970000   0.053016171   -0.17168814     0             -0.12968939     0.027131459  
  17980000   0.053147462   -0.17880468     0             -0.13670192    -0.013990139  
  17990000   0.045405336   -0.17821467     0             -0.14224513     0.0066283356 
  18000000   0.052850967   -0.16745067     0             -0.1255828     -0.026102948  
  18010000   0.059181976   -0.16278286     0             -0.11589964     0.0032143884 
  18020000   0.051225266   -0.17285361     0             -0.13227359     0.00066042994
  18030000   0.049741182   -0.1750411      0             -0.13563676    -0.010554883  
  18040000   0.046695229   -0.17182897     0             -0.13483759     0.012266213  
  18050000   0.046378576   -0.17334915     0             -0.13660862    -0.0077708435 
  18060000   0.045793027   -0.17376414     0             -0.13748747    -0.0083482704 
  18070000   0.047851515   -0.17567698     0             -0.13776961     0.00043951076
  18080000   0.043485155   -0.17706799     0             -0.1426196     -0.0052611892 
  18090000   0.051058943   -0.17673806     0             -0.13628981    -0.017032601  
  18100000   0.056095384   -0.18185292     0             -0.13741486     0.0037850768 
  18110000   0.05121833    -0.19465057     0             -0.15407605     0.020166006  
  18120000   0.047134472   -0.19188706     0             -0.15454772     0.0089622103 
  18130000   0.051085307   -0.18827179     0             -0.14780265    -0.0049311667 
  18140000   0.050032356   -0.18331587     0             -0.14368086    -0.013215815  
  18150000   0.041024579   -0.1864992      0             -0.15400004    -0.036321743  
  18160000   0.048791648   -0.18373735     0             -0.14508521    -0.032178578  
  18170000   0.048474751   -0.18750406     0             -0.14910297    -0.00092250549
  18180000   0.05137584    -0.18054598     0             -0.13984668    -0.017919314  
  18190000   0.045764789   -0.18320916     0             -0.14695487     0.011940455  
  18200000   0.060114373   -0.18950013     0             -0.14187827    -0.0033520509 
  18210000   0.048027928   -0.18682082     0             -0.1487737     -0.0070576348 
  18220000   0.048552018   -0.1809176      0             -0.1424553     -0.033121227  
  18230000   0.056540711   -0.18794753     0             -0.14315668     0.0039216012 
  18240000   0.048346993   -0.19147511     0             -0.15317523    -0.0070649185 
  18250000   0.053041398   -0.19002669     0             -0.14800796     0.0039598342 
  18260000   0.050657004   -0.18651694     0             -0.14638709    -0.0092622958 
  18270000   0.048512436   -0.18526157     0             -0.14683062     0.0025040506 
  18280000   0.045435441   -0.18560432     0             -0.14961093    -0.0038557632 
  18290000   0.050943482   -0.18244348     0             -0.14208669     0.015718631  
  18300000   0.053594064   -0.17749064     0             -0.13503409     0.026173186  
  18310000   0.055478916   -0.1785497      0             -0.13459999    -0.017832505  
  18320000   0.051624367   -0.176129       0             -0.13523282     0.028927359  
  18330000   0.048892454   -0.17481507     0             -0.13608308     0.0010772085 
  18340000   0.050973878   -0.18003827     0             -0.1396574     -0.018519969  
  18350000   0.048607946   -0.18227885     0             -0.14377224    -0.0078436801 
  18360000   0.051076096   -0.17835968     0             -0.13789784     0.0077741492 
  18370000   0.0492041     -0.18463354     0             -0.14565466     0.010331593  
  18380000   0.050783841   -0.1736999      0             -0.13346957     0.0082694534 
  18390000   0.050996231   -0.17786141     0             -0.13746283     0.0098559533 
  18400000   0.051668135   -0.1755045      0             -0.13457365    -0.0095938699 
  18410000   0.046944812   -0.17496149     0             -0.1377724     -0.014108058  
  18420000   0.045745161   -0.18359816     0             -0.14735942     0.015874487  
  18430000   0.048706332   -0.17558849     0             -0.13700395    -0.0079361269 
  18440000   0.053384629   -0.1737014      0             -0.13141077     0.013942509  
  18450000   0.046780682   -0.1739667      0             -0.13690763     0.031980379  
  18460000   0.050328823   -0.17510046     0             -0.1352306     -0.017678032  
  18470000   0.048404589   -0.17242488     0             -0.13407937    -0.014704904  
  18480000   0.052664978   -0.17379019     0             -0.13206966    -0.0021169127 
  18490000   0.054173013   -0.17611238     0             -0.1331972      0.025988907  
  18500000   0.045427785   -0.17839575     0             -0.14240843     0.0087442451 
  18510000   0.048692234   -0.18022774     0             -0.14165436    -0.011691376  
  18520000   0.050399361   -0.17924952     0             -0.13932378     0.022001977  
  18530000   0.052549731   -0.1777604      0             -0.13613116     0.0038136863 
  18540000   0.049678268   -0.18125798     0             -0.14190348     0.011133472  
  18550000   0.049901227   -0.17816177     0             -0.13863064     0.021753175  
  18560000   0.051676562   -0.18546738     0             -0.14452985    -0.019295094  
  18570000   0.048583059   -0.18136149     0             -0.1428746     -0.0018091088 
  18580000   0.056731579   -0.17972204     0             -0.13477999    -0.0028940888 
  18590000   0.047154411   -0.168545       0             -0.13118987    -0.00011875901
  18600000   0.048630036   -0.17781539     0             -0.13929128     0.0080099958 
  18610000   0.051199036   -0.17756261     0             -0.13700337     0.0020288642 
  18620000   0.049137609   -0.17810313     0             -0.13917693    -0.01353074   
  18630000   0.04687894    -0.17689425     0             -0.13975734     0.03545606   
  18640000   0.052863082   -0.18182252     0             -0.13994505     0.010550573  
  18650000   0.047769403   -0.17812851     0             -0.14028619    -0.0090240922 
  18660000   0.054235181   -0.18165909     0             -0.13869465     0.016113106  
  18670000   0.054279793   -0.18290249     0             -0.13990272    -0.013681318  
  18680000   0.04767197    -0.1745162      0             -0.13675106     0.0060546736 
  18690000   0.048882461   -0.17598769     0             -0.13726362    -0.0027090788 
  18700000   0.050239233   -0.17003221     0             -0.13023332    -0.017243789  
  18710000   0.051879517   -0.17944242     0             -0.13834411     0.025048789  
  18720000   0.05010949    -0.18093618     0             -0.14124007     0.0037146721 
  18730000   0.048762646   -0.18186725     0             -0.14323809     0.011733734  
  18740000   0.048187809   -0.18532583     0             -0.14715205     0.011719134  
  18750000   0.050045461   -0.1862139      0             -0.14656851     0.030128792  
  18760000   0.048990181   -0.17779798     0             -0.13898857     0.026222551  
  18770000   0.052538591   -0.17844117     0             -0.13682075    -0.011968238  
  18780000   0.048131884   -0.18185083     0             -0.14372136    -0.031609199  
  18790000   0.050293341   -0.17730985     0             -0.1374681      0.0090042139 
  18800000   0.05123201    -0.18320538     0             -0.14262003    -0.00013299626
  18810000   0.04421465    -0.18231998     0             -0.14729369     0.017093995  
  18820000   0.051259408   -0.17960064     0             -0.13899358    -0.005846749  
  18830000   0.049104256   -0.17680088     0             -0.1379011      0.0098074929 
  18840000   0.051367423   -0.17583662     0             -0.13514399     0.013842649  
  18850000   0.045928549   -0.17437082     0             -0.1379868      0.0044536448 
  18860000   0.053855987   -0.17983902     0             -0.13717498    -0.010673579  
  18870000   0.057593877   -0.1760784      0             -0.13045325     0.0275727    
  18880000   0.048018399   -0.17897701     0             -0.14093744    -0.013006642  
  18890000   0.045839502   -0.17798457     0             -0.14167109    -0.00648165   
  18900000   0.046222113   -0.17741458     0             -0.140798      -0.0051807809 
  18910000   0.053919166   -0.17923468     0             -0.13652059     0.007161382  
  18920000   0.053954255   -0.17803188     0             -0.13528999    -0.006104673  
  18930000   0.052018373   -0.17194256     0             -0.13073426    -0.0070537581 
  18940000   0.050542822   -0.17875131     0             -0.13871192     0.020433902  
  18950000   0.051000602   -0.17890724     0             -0.1385052      0.013363317  
  18960000   0.05107671    -0.17390297     0             -0.13344064    -0.011026873  
  18970000   0.049787728   -0.16925441     0             -0.12981319    -0.020780675  
  18980000   0.050154328   -0.16817693     0             -0.1284453     -0.024042294  
  18990000   0.05018583    -0.17239216     0             -0.13263557     0.0070613111 
  19000000   0.057712332   -0.17816123     0             -0.13244224     0.03026572   
  19010000   0.050958101   -0.17746164     0             -0.13709327    -0.02782896   
  19020000   0.047061936   -0.17808927     0             -0.14080739    -0.019711835  
  19030000   0.05079489    -0.17839845     0             -0.13815937     0.01417529   
  19040000   0.051806828   -0.17405158     0             -0.13301086    -0.010767169  
  19050000   0.049156363   -0.17818325     0             -0.13924219    -0.0053172949 
  19060000   0.047555497   -0.16960925     0             -0.13193638     0.013578945  
  19070000   0.049633804   -0.17692692     0             -0.13760764    -0.017044354  
  19080000   0.043286701   -0.17399586     0             -0.13970467     0.028389278  
  19090000   0.049403931   -0.17902813     0             -0.13989095    -1.1867407e-05
  19100000   0.054894176   -0.18354096     0             -0.14005448    -0.013301737  
  19110000   0.047237922   -0.1888785      0             -0.15145721    -0.00065660863
  19120000   0.047170953   -0.18659393     0             -0.14922569     0.03640842   
  19130000   0.046043587   -0.18730485     0             -0.15082969     0.016004588  
  19140000   0.054352947   -0.18530867     0             -0.14225095     0.016155629  
  19150000   0.048065241   -0.18170561     0             -0.14362893     0.010514392  
  19160000   0.050284042   -0.17735765     0             -0.13752326     0.0092866494 
  19170000   0.048245951   -0.18485219     0             -0.14663235    -0.01325874   
  19180000   0.047227847   -0.17841795     0             -0.14100464     0.0027734284 
  19190000   0.04970092    -0.17526218     0             -0.13588973     0.01110855   
  19200000   0.052375721   -0.1749236      0             -0.13343221     0.034458175  
  19210000   0.050667902   -0.17362941     0             -0.13349093     0.0084059802 
  19220000   0.051402272   -0.1758959      0             -0.13517566    -0.019825071  
  19230000   0.054455357   -0.18367888     0             -0.14054003    -0.0059175097 
  19240000   0.04959518    -0.18157547     0             -0.14228679    -0.0033380379 
  19250000   0.050698095   -0.17595138     0             -0.13578898     0.021964354  
  19260000   0.054597343   -0.17375757     0             -0.13050624    -0.010838023  
  19270000   0.04839966    -0.16784857     0             -0.12950697     0.007581811  
  19280000   0.047797148   -0.18592548     0             -0.14806118     0.0048960782 
  19290000   0.049234799   -0.18213396     0             -0.14313077    -0.020518268  
  19300000   0.052528835   -0.17775195     0             -0.13613926     0.010517116  
  19310000   0.048707596   -0.17505807     0             -0.13647252     0.0090450274 
  19320000   0.050139733   -0.17479507     0             -0.135075       0.024755478  
  19330000   0.05155673    -0.17420897     0             -0.13336637    -0.0018785977 
  19340000   0.048080212   -0.17183375     0             -0.13374521     0.026999727  
  19350000   0.047830106   -0.17211643     0             -0.13422602    -0.0086976281 
  19360000   0.047078805   -0.16666511     0             -0.12936987    -0.0035235376 
  19370000   0.047025197   -0.16903607     0             -0.1317833     -0.01242854   
  19380000   0.051089953   -0.16470269     0             -0.12422987    -0.0026112523 
  19390000   0.047749859   -0.1712359      0             -0.13340906     0.011599945  
  19400000   0.051957116   -0.15916372     0             -0.11800394    -0.014133958  
  19410000   0.051976791   -0.1694437      0             -0.12826834    -0.011364739  
  19420000   0.050311675   -0.16489178     0             -0.1250355      0.024526739  
  19430000   0.052740879   -0.16415313     0             -0.12237246    -0.012629781  
  19440000   0.052295743   -0.16193853     0             -0.1205105      0.0074782783 
  19450000   0.046398681   -0.16721508     0             -0.13045862    -0.040370931  
  19460000   0.04494239    -0.16329582     0             -0.12769302    -0.021160812  
  19470000   0.056890374   -0.17626003     0             -0.13119219     0.020967314  
  19480000   0.051094367   -0.17131861     0             -0.13084229     0.044674907  
  19490000   0.051237089   -0.17803132     0             -0.13744193    -0.0088268394 
  19500000   0.045153386   -0.16743817     0             -0.13166823    -0.0045862439 
  19510000   0.049694689   -0.16747682     0             -0.12810931     0.0099760476 
  19520000   0.052496362   -0.17045585     0             -0.12886889     0.0079175959 
  19530000   0.052954334   -0.17593047     0             -0.13398071     0.0046325731 
  19540000   0.050794838   -0.17157121     0             -0.13133218    -0.019571259  
  19550000   0.044797172   -0.17261785     0             -0.13713009    -0.014651298  
  19560000   0.051264659   -0.17113239     0             -0.13052117    -0.0033119299 
  19570000   0.050730969   -0.16716901     0             -0.12698057     0.0094696002 
  19580000   0.047117751   -0.16042203     0             -0.12309593     0.025647738  
  19590000   0.053490101   -0.16911292     0             -0.12673873     0.0071221065 
  19600000   0.052508595   -0.15976693     0             -0.11817028     0.020660701  
  19610000   0.048289563   -0.17596329     0             -0.1377089      0.013561331  
  19620000   0.043453869   -0.16803088     0             -0.13360727    -0.0097083568 
  19630000   0.050957125   -0.16566202     0             -0.12529443     0.022786037  
  19640000   0.048055396   -0.17217446     0             -0.13410558     0.034038071  
  19650000   0.051002874   -0.17118423     0             -0.13078039    -0.015853578  
  19660000   0.051742515   -0.17382429     0             -0.13283452    -0.010226966  
  19670000   0.050284051   -0.17457469     0             -0.13474029     0.011878933  
  19680000   0.045763038   -0.17537419     0             -0.13912129     0.017728151  
  19690000   0.048592206   -0.18198654     0             -0.14349241     0.013226284  
  19700000   0.052858681   -0.1825167      0             -0.14064272    -0.013059154  
  19710000   0.05034219    -0.16745471     0             -0.12757425    -0.00040607316
  19720000   0.05406343    -0.1658061      0             -0.12297773    -0.025881206  
  19730000   0.050930483   -0.1752483      0             -0.13490181    -0.026278787  
  19740000   0.049663639   -0.17843825     0             -0.13909533     0.0034063818 
  19750000   0.052045076   -0.18181808     0             -0.14058862    -0.017612629  
  19760000   0.051533462   -0.17791466     0             -0.13709049    -0.0094061972 
  19770000   0.055283038   -0.17642728     0             -0.13263275    -0.021555239  
  19780000   0.044742784   -0.176327       0             -0.14088232    -0.012919333  
  19790000   0.048845199   -0.18369032     0             -0.14499576     0.010497169  
  19800000   0.055474707   -0.17806746     0             -0.13412109     0.0011311946 
  19810000   0.043082146   -0.17316745     0             -0.13903831    -0.014483782  
  19820000   0.046618702   -0.18018702     0             -0.14325627    -0.034059541  
  19830000   0.048066113   -0.17889841     0             -0.14082104    -0.0095000869 
  19840000   0.054291249   -0.18357625     0             -0.1405674     -0.011173024  
  19850000   0.050175812   -0.19138014     0             -0.15163149     0.0019935525 
  19860000   0.052064704   -0.18662595     0             -0.14538095    -0.020033607  
  19870000   0.049351954   -0.18561242     0             -0.14651642     0.0081324268 
  19880000   0.047812869   -0.18774562     0             -0.14986886     0.044412347  
  19890000   0.051260784   -0.18441072     0             -0.14380257     0.0009404746 
  19900000   0.048304747   -0.18346298     0             -0.14519657    -0.013211616  
  19910000   0.051980508   -0.18176059     0             -0.14058228    -0.0064776226 
  19920000   0.055254622   -0.18182558     0             -0.13805356    -0.0048541866 
  19930000   0.047481983   -0.18377527     0             -0.14616063    -0.012721533  
  19940000   0.041249368   -0.18113801     0             -0.14846078    -0.0087973296 
  19950000   0.052683488   -0.18421576     0             -0.14248056    -0.036612424  
  19960000   0.047220161   -0.18430749     0             -0.14690027     0.029037723  
  19970000   0.055260249   -0.1899073      0             -0.14613082     0.0010723449 
  19980000   0.053800504   -0.19221415     0             -0.14959406     0.014466458  
  19990000   0.050401099   -0.1854996      0             -0.14557247    -0.0044492334 
  20000000   0.0513152     -0.18810379     0             -0.14745253     0.013006326  
  20010000   0.049451638   -0.18001547     0             -0.1408405     -0.002710473  
  20020000   0.052896585   -0.18408709     0             -0.14218308     0.0032701853 
  20030000   0.050817524   -0.17432358     0             -0.13406657    -0.0056904704 
  20040000   0.049764379   -0.1763004      0             -0.13687768    -0.0014406195 
  20050000   0.056726207   -0.17217749     0             -0.12723969    -0.018795576  
  20060000   0.048848822   -0.18244139     0             -0.14374397    -0.018343175  
  20070000   0.05214481    -0.17969288     0             -0.13838442    -0.0031209219 
  20080000   0.047966846   -0.17731523     0             -0.13931649    -0.017898693  
  20090000   0.049714311   -0.18012276     0             -0.14073971    -0.027666375  
  20100000   0.052347769   -0.17957926     0             -0.13811001    -0.017325715  
  20110000   0.046397204   -0.1846129      0             -0.14785761     0.022900264  
  20120000   0.046433857   -0.17575425     0             -0.13896993    -0.025515671  
  20130000   0.056358543   -0.17775771     0             -0.13311118     0.0071409579 
  20140000   0.044423757   -0.17832046     0             -0.14312852    -0.025799736  
  20150000   0.057153195   -0.18078655     0             -0.1355105     -0.0088759556 
  20160000   0.046104227   -0.18277875     0             -0.14625556     0.026778468  
  20170000   0.056045295   -0.18177867     0             -0.13738029    -0.024290119  
  20180000   0.049921457   -0.17891145     0             -0.13936429     0.0060011166 
  20190000   0.04760304    -0.18443163     0             -0.1467211     -0.020624184  
  20200000   0.048964523   -0.18530265     0             -0.14651357    -0.0019141738 
  20210000   0.049828901   -0.18997766     0             -0.15050383    -0.0096574788 
  20220000   0.050928778   -0.18417443     0             -0.14382928    -0.020983793  
  20230000   0.049611356   -0.18437829     0             -0.1450768      0.0047466927 
  20240000   0.053407996   -0.18287262     0             -0.14056347     0.015882925  
  20250000   0.052133229   -0.18767388     0             -0.14637459    -0.0019308031 
  20260000   0.046083628   -0.18839404     0             -0.15188716    -0.01449131   
  20270000   0.05517143    -0.18964674     0             -0.14594062    -0.012832167  
  20280000   0.050520574   -0.18874009     0             -0.14871833     0.00032283406
  20290000   0.047410266   -0.18308951     0             -0.14553169    -0.0017604879 
  20300000   0.051449934   -0.18442649     0             -0.1436685      0.033637324  
  20310000   0.050502749   -0.18689591     0             -0.14688827     0.0024182964 
  20320000   0.047891521   -0.18826712     0             -0.15032805    -0.024240658  
  20330000   0.051695989   -0.18313614     0             -0.14218322     0.014069091  
  20340000   0.050998675   -0.18235359     0             -0.14195308    -0.0071423954 
  20350000   0.051024284   -0.18350012     0             -0.14307932     0.00112442   
  20360000   0.048297143   -0.17677471     0             -0.13851432    -0.041403606  
  20370000   0.050256723   -0.18327129     0             -0.14345854    -0.015859316  
  20380000   0.046800848   -0.18330104     0             -0.14622599     0.01074193   
  20390000   0.051264554   -0.17840696     0             -0.13779583     0.021621314  
  20400000   0.053430951   -0.18169666     0             -0.13936933     0.022715946  
  20410000   0.049144976   -0.18250591     0             -0.14357387     0.0094131464 
  20420000   0.048323381   -0.18510695     0             -0.14682577     0.015530889  
  20430000   0.049640502   -0.18697842     0             -0.14765384    -0.0025910726 
  20440000   0.054289868   -0.18889954     0             -0.14589178     0.010550112  
  20450000   0.055229023   -0.18463747     0             -0.14088573     7.5168798e-05
  20460000   0.04459145    -0.18007429     0             -0.1447495      0.014412066  
  20470000   0.054361863   -0.17451318     0             -0.13144839    -0.013027786  
  20480000   0.050487128   -0.18560511     0             -0.14560984     0.011627319  
  20490000   0.049300698   -0.17972861     0             -0.14067322    -0.0032998311 
  20500000   0.046074654   -0.17591215     0             -0.13941239     0.013938826  
  20510000   0.044302702   -0.17587506     0             -0.14077901    -0.0011081625 
  20520000   0.05434866    -0.1780075      0             -0.13495318     0.016542288  
  20530000   0.042588175   -0.18307903     0             -0.14934121    -0.014784046  
  20540000   0.050113319   -0.17425049     0             -0.13455134     0.021566195  
  20550000   0.053693421   -0.18471047     0             -0.14217521     0.012953434  
  20560000   0.046180633   -0.17282004     0             -0.13623632    -0.0069024873 
  20570000   0.050711139   -0.17907203     0             -0.1388993     -0.032602374  
  20580000   0.046092216   -0.17182576     0             -0.13531208     0.00054754855
  20590000   0.048517879   -0.170028       0             -0.13159275     0.013471607  
  20600000   0.049362593   -0.16475642     0             -0.125652       0.010455607  
  20610000   0.053614573   -0.16437596     0             -0.12190317    -0.010687733  
  20620000   0.047778986   -0.16487448     0             -0.12702457    -0.0066429892 
  20630000   0.05347622    -0.16200084     0             -0.11963764    -0.010656691  
  20640000   0.046517666   -0.16644362     0             -0.12959291     0.007566389  
  20650000   0.050308246   -0.17562914     0             -0.13577558     0.003074847  
  20660000   0.05476187    -0.16890811     0             -0.12552644     0.010975293  
  20670000   0.046121702   -0.18197788     0             -0.14544085    -0.0049754215 
  20680000   0.049427686   -0.18079247     0             -0.14163648    -0.014417221  
  20690000   0.050254217   -0.17945984     0             -0.13964908     0.032286251  
  20700000   0.047191375   -0.19237855     0             -0.15499413    -0.016616346  
  20710000   0.050565609   -0.18564364     0             -0.14558619     0.0047113777 
  20720000   0.048121185   -0.19113142     0             -0.15301042     9.0990057e-05
  20730000   0.052318187   -0.1752832      0             -0.13383738    -0.0026775609 
  20740000   0.056520215   -0.18537574     0             -0.14060113     0.0095346984 
  20750000   0.053732871   -0.18458449     0             -0.14201798     0.0090421668 
  20760000   0.050910883   -0.18446907     0             -0.14413811    -0.060388303  
  20770000   0.044337444   -0.17910073     0             -0.14397716    -0.0065020585 
  20780000   0.048014246   -0.18592325     0             -0.14788696    -0.0050128745 
  20790000   0.049094259   -0.19439592     0             -0.15550406     0.036227278  
  20800000   0.049074609   -0.18963518     0             -0.15075889    -0.018391059  
  20810000   0.048422384   -0.18604629     0             -0.14768668    -0.010493778  
  20820000   0.05175282    -0.18813821     0             -0.14714027    -0.018111733  
  20830000   0.05083278    -0.17951498     0             -0.13924589    -0.0087326061 
  20840000   0.051762819   -0.18751939     0             -0.14651353    -0.021309253  
  20850000   0.047153684   -0.18481101     0             -0.14745645    -0.018127126  
  20860000   0.053499748   -0.1812343      0             -0.13885247    -0.027426949  
  20870000   0.052486056   -0.17706483     0             -0.13548603    -0.018691857  
  20880000   0.054974722   -0.18471182     0             -0.14116154    -0.0043486021 
  20890000   0.048296297   -0.18770335     0             -0.14944363    -0.033474277  
  20900000   0.051188939   -0.18042049     0             -0.13986925    -0.013699545  
  20910000   0.053193857   -0.18056378     0             -0.13842427     0.021008904  
  20920000   0.051122076   -0.17734561     0             -0.13684734     0.031004034  
  20930000   0.046035301   -0.18414357     0             -0.14767498    -0.010867313  
  20940000   0.044699447   -0.17666428     0             -0.14125394     0.002610238  
  20950000   0.047638784   -0.1817146      0             -0.14397575     0.0027090518 
  20960000   0.049115529   -0.18634155     0             -0.14743285     0.012953379  
  20970000   0.045153167   -0.18181993     0             -0.14605016     0.029989968  
  20980000   0.053744996   -0.18246475     0             -0.13988863     0.00025439136
  20990000   0.052250993   -0.17608714     0             -0.13469456     0.03398235   
  21000000   0.051785059   -0.17952023     0             -0.13849675     0.019450555  
  21010000   0.042206756   -0.18460324     0             -0.15116757    -0.011369426  
  21020000   0.045439311   -0.18301701     0             -0.14702056     0.0066504958 
  21030000   0.047621818   -0.18447896     0             -0.14675355    -0.0016755029 
  21040000   0.047778424   -0.18562228     0             -0.14777281     0.0016179434 
  21050000   0.050305435   -0.18868785     0             -0.14883651    -0.0065168532 
  21060000   0.049541998   -0.17624443     0             -0.13699788     0.007618147  
  21070000   0.047455512   -0.18257745     0             -0.14498379    -0.0039998762 
  21080000   0.053059572   -0.18261798     0             -0.14058485    -0.0084392418 
  21090000   0.054331344   -0.18223094     0             -0.13919033     0.031683485  
  21100000   0.055588479   -0.18042679     0             -0.13639029    -0.0076482884 
  21110000   0.050197324   -0.17872549     0             -0.13895979     0.0031499364 
  21120000   0.048016118   -0.18169654     0             -0.14365877     0.015927831  
  21130000   0.050909691   -0.17706914     0             -0.13673912     0.024648415  
  21140000   0.048585819   -0.18094837     0             -0.14245929    -0.015821704  
  21150000   0.050797822   -0.19004081     0             -0.14979941    -0.0034021239 
  21160000   0.047982111   -0.19175763     0             -0.1537468      0.0025942511 
  21170000   0.047234703   -0.19121315     0             -0.15379441    -0.016504271  
  21180000   0.053284126   -0.19119182     0             -0.1489808      0.0052153336 
  21190000   0.055315317   -0.19085963     0             -0.14703952    -0.0075982877 
  21200000   0.052266113   -0.1932307      0             -0.15182614     0.010920892  
  21210000   0.053338246   -0.18848118     0             -0.14622728     0.014551708  
  21220000   0.048522089   -0.19196654     0             -0.15352795    -0.010934094  
  21230000   0.052677334   -0.19179045     0             -0.15006013     0.0049455178 
  21240000   0.045851556   -0.18627546     0             -0.14995243     0.015165597  
  21250000   0.057168514   -0.17967062     0             -0.13438244    -0.017884476  
  21260000   0.054665228   -0.18707089     0             -0.14376578     0.0067251005 
  21270000   0.049054628   -0.18793371     0             -0.14907325     0.00010872494
  21280000   0.051195766   -0.18320398     0             -0.14264733    -0.0083563128 
  21290000   0.050165474   -0.18197428     0             -0.14223382     0.0012058389 
  21300000   0.050820783   -0.18362143     0             -0.14336184    -0.026724245  
  21310000   0.050143877   -0.18450333     0             -0.14477997    -0.0095489467 
  21320000   0.055305493   -0.18334388     0             -0.13953156    -0.012144363  
  21330000   0.046771115   -0.18800447     0             -0.15095298    -0.01316426   
  21340000   0.053129705   -0.18826971     0             -0.14618102    -0.02502208   
  21350000   0.048333223   -0.18454612     0             -0.14625714     0.031038233  
  21360000   0.044604038   -0.18663484     0             -0.15130007    -0.0050477263 
  21370000   0.052641214   -0.18338462     0             -0.14168291     0.014843613  
  21380000   0.048373311   -0.19305887     0             -0.15473814    -0.0083228598 
  21390000   0.048997451   -0.19133203     0             -0.15251687    -0.0077868171 
  21400000   0.049138061   -0.18785972     0             -0.14893316    -0.049176893  
  21410000   0.050957436   -0.18512438     0             -0.14475654    -0.0053695039 
  21420000   0.051379273   -0.18852843     0             -0.14782641    -0.012059952  
  21430000   0.048690733   -0.18949574     0             -0.15092355    -0.019706676  
  21440000   0.051018619   -0.19345141     0             -0.1530351      0.011815309  
  21450000   0.049415403   -0.18781018     0             -0.14866392     0.023445691  
  21460000   0.043947099   -0.18079974     0             -0.1459854      0.027465281  
  21470000   0.047948279   -0.19071558     0             -0.15273156    -0.028801267  
  21480000   0.052327754   -0.18982072     0             -0.14836733    -0.0039944688 
  21490000   0.050198333   -0.19134823     0             -0.15158174    -0.023408153  
  21500000   0.054098742   -0.19154927     0             -0.14869292     0.02248352   
  21510000   0.045809459   -0.18502069     0             -0.14873101    -0.018621391  
  21520000   0.051240395   -0.18678797     0             -0.14619597     0.011302984  
  21530000   0.051891206   -0.18535248     0             -0.14424492    -0.00037961597
  21540000   0.052258133   -0.17985789     0             -0.13845965     0.0057255295 
  21550000   0.045903354   -0.1815651      0             -0.14520104     0.0081944892 
  21560000   0.04824835    -0.18641614     0             -0.1481944     -0.027082108  
  21570000   0.046381057   -0.19058286     0             -0.15384037    -0.014330054  
  21580000   0.051936845   -0.18687193     0             -0.14572821     0.039925274  
  21590000   0.04684363    -0.18764839     0             -0.15053945     0.010637936  
  21600000   0.056402427   -0.19165906     0             -0.14697776    -0.025096522  
  21610000   0.044574283   -0.18553344     0             -0.15022225     0.0090857888 
  21620000   0.052490132   -0.18577739     0             -0.14419536    -0.0061714904 
  21630000   0.051568277   -0.19772175     0             -0.15687001     0.0063478169 
  21640000   0.042809001   -0.19413811     0             -0.16022535    -0.016581387  
  21650000   0.047418844   -0.18675434     0             -0.14918973     0.029077923  
  21660000   0.045701243   -0.19286916     0             -0.1566652      0.015779823  
  21670000   0.051849402   -0.18716532     0             -0.14609087    -0.020602056  
  21680000   0.050697086   -0.18566138     0             -0.14549978     0.013969394  
  21690000   0.050999594   -0.18627958     0             -0.14587834    -0.021123662  
  21700000   0.045036707   -0.18403399     0             -0.14835647    -0.021063391  
  21710000   0.057215932   -0.18778533     0             -0.14245958    -0.00031177379
  21720000   0.05205147    -0.19264847     0             -0.15141395     0.017680615  
  21730000   0.049819766   -0.1868393      0             -0.1473727      0.022302763  
  21740000   0.053957488   -0.19193452     0             -0.14919007     0.0044586519 
  21750000   0.050136172   -0.18915565     0             -0.1494384     -0.010458777  
  21760000   0.050277848   -0.18913277     0             -0.14930329     0.018805413  
  21770000   0.053228272   -0.19420128     0             -0.15203451    -0.0095583677 
  21780000   0.049269301   -0.1957864      0             -0.15675587     0.0072947182 
  21790000   0.050990483   -0.20003048     0             -0.15963646    -0.011201355  
  21800000   0.044703995   -0.19739742     0             -0.16198347     0.003196038  
  21810000   0.051996884   -0.19693544     0             -0.15574416     0.013034367  
  21820000   0.051149822   -0.19381968     0             -0.15329943    -0.014117131  
  21830000   0.050935091   -0.1953788      0             -0.15502866    -0.0061384903 
  21840000   0.045056856   -0.20167831     0             -0.16598484     0.0091648467 
  21850000   0.048026759   -0.19276123     0             -0.15471503     0.021834333  
  21860000   0.051734203   -0.20066788     0             -0.15968469    -0.0027290753 
  21870000   0.050852357   -0.1971436      0             -0.156859       0.0068547231 
  21880000   0.05094029    -0.19393919     0             -0.15358493     0.0031591414 
  21890000   0.053157218   -0.19389121     0             -0.15178073     0.0058370105 
  21900000   0.046216136   -0.19952759     0             -0.16291575     0.00025580319
  21910000   0.050869861   -0.19281452     0             -0.15251605    -0.013709759  
  21920000   0.046440525   -0.19136283     0             -0.15457322    -0.009149232  
  21930000   0.04470843    -0.19369349     0             -0.15827603    -0.020145113  
  21940000   0.055414602   -0.19818816     0             -0.15428941    -0.0054371119 
  21950000   0.047680043   -0.19300533     0             -0.15523379     0.027400738  
  21960000   0.055146428   -0.19028694     0             -0.14660063    -0.010384909  
  21970000   0.053104671   -0.18667367     0             -0.14460481     0.017060424  
  21980000   0.051186866   -0.19066962     0             -0.15012003    -0.016920433  
  21990000   0.0495356     -0.18548516     0             -0.14624368    -0.0045309931 
  22000000   0.053781798   -0.18661343     0             -0.14400817    -0.032160703  
  22010000   0.049019703   -0.18918812     0             -0.15035532    -0.022768234  
  22020000   0.044632587   -0.19096677     0             -0.15560939    -0.032594982  
  22030000   0.049902095   -0.18633229     0             -0.14680048     0.0043949788 
  22040000   0.050689234   -0.18690385     0             -0.14674848     0.016996286  
  22050000   0.047065325   -0.17872971     0             -0.14144515     0.013606061  
  22060000   0.058239788   -0.17898036     0             -0.13284353     0.0053381291 
  22070000   0.044774446   -0.1821091      0             -0.14663934     0.012272877  
  22080000   0.050393063   -0.18282391     0             -0.14290316     0.0032048491 
  22090000   0.049688893   -0.18721831     0             -0.14785539    -0.0094368806 
  22100000   0.049099205   -0.18879292     0             -0.14989714     0.0053039884 
  22110000   0.055488448   -0.18319668     0             -0.13923942    -0.032688867  
  22120000   0.048708332   -0.18343172     0             -0.14484559     0.01272621   
  22130000   0.053773869   -0.18699771     0             -0.14439872    -0.0038656791 
  22140000   0.051084108   -0.18711896     0             -0.14665077    -0.027253554  
  22150000   0.05473834    -0.18926013     0             -0.1458971     -0.016653129  
  22160000   0.057121903   -0.19217655     0             -0.14692529    -0.029200834  
  22170000   0.048815057   -0.18180287     0             -0.14313219    -0.0032478439 
  22180000   0.047028908   -0.18828029     0             -0.15102458     0.030820011  
  22190000   0.054369373   -0.18879003     0             -0.14571929    -0.00014670182
  22200000   0.048254228   -0.18709771     0             -0.14887131    -0.0096826044 
  22210000   0.051019531   -0.19017941     0             -0.14976238     0.010672839  
  22220000   0.053659817   -0.1888263      0             -0.14631766    -0.0016734195 
  22230000   0.040228171   -0.18467016     0             -0.15280191    -0.035677147  
  22240000   0.047599471   -0.1883073      0             -0.1505996      0.011892093  
  22250000   0.05044668    -0.19015864     0             -0.15019541    -0.0039264373 
  22260000   0.050830754   -0.18350709     0             -0.1432396      0.042234986  
  22270000   0.05137274    -0.19205237     0             -0.15135553    -0.036006071  
  22280000   0.048617114   -0.19093825     0             -0.15242438    -0.0082273001 
  22290000   0.047217795   -0.19146509     0             -0.15405974    -0.011579454  
  22300000   0.049682248   -0.18579846     0             -0.14644081     0.0042410412 
  22310000   0.04852989    -0.18516886     0             -0.14672408     0.0082103181 
  22320000   0.043017515   -0.18800099     0             -0.15392305     0.0076452261 
  22330000   0.045921169   -0.18358023     0             -0.14720206     0.015238838  
  22340000   0.049863036   -0.18271287     0             -0.143212       0.016337979  
  22350000   0.050607863   -0.18827027     0             -0.14817935    -0.0059054924 
  22360000   0.050524768   -0.18772026     0             -0.14769517     0.016895753  
  22370000   0.047077838   -0.19182282     0             -0.15452834     0.023781566  
  22380000   0.049850895   -0.19003313     0             -0.15054188     0.019644374  
  22390000   0.045612037   -0.19003617     0             -0.15390289    -0.0039089891 
  22400000   0.050323311   -0.19754663     0             -0.15768113     0.007818701  
  22410000   0.046210807   -0.18814661     0             -0.15153898     0.0034658241 
  22420000   0.046942096   -0.18128718     0             -0.14410024     0.011898805  
  22430000   0.048668712   -0.18461569     0             -0.14606095    -0.0014416829 
  22440000   0.05121511    -0.19400841     0             -0.15343644    -0.02160601   
  22450000   0.048246311   -0.19485796     0             -0.15663784    -0.0084448475 
  22460000   0.048681072   -0.19282627     0             -0.15426173     0.0072543888 
  22470000   0.048627227   -0.18788216     0             -0.14936028     0.020181116  
  22480000   0.049766067   -0.18979633     0             -0.15037227     0.010962387  
  22490000   0.050173491   -0.18911401     0             -0.1493672      0.010080361  
  22500000   0.047758343   -0.18810377     0             -0.1502702     -0.012795967  
  22510000   0.05281904    -0.19226137     0             -0.15041879    -0.012530483  
  22520000   0.0484874     -0.19327386     0             -0.15486275    -0.022272397  
  22530000   0.054429775   -0.19802577     0             -0.15490718     0.010195811  
  22540000   0.049507338   -0.18799076     0             -0.14877167     0.0069481471 
  22550000   0.052975536   -0.18715574     0             -0.14518918    -0.0054785701 
  22560000   0.049928816   -0.18071487     0             -0.14116188     0.0040731197 
  22570000   0.052442059   -0.1889918      0             -0.14744786    -0.0033992976 
  22580000   0.05234681    -0.17845574     0             -0.13698726     0.02231102   
  22590000   0.04747752    -0.18626687     0             -0.14865577    -0.027123075  
  22600000   0.049068087   -0.18651939     0             -0.14764826     0.010051617  
  22610000   0.046604005   -0.18465689     0             -0.14773778    -0.012400977  
  22620000   0.047018484   -0.1865687      0             -0.14932125     0.00047882748
  22630000   0.04575885    -0.19049274     0             -0.15424315     0.0060889427 
  22640000   0.048003633   -0.18484127     0             -0.14681339     0.018678235  
  22650000   0.05180119    -0.18617837     0             -0.14514211    -0.0033904449 
  22660000   0.048316379   -0.18219273     0             -0.1439171     -0.017014827  
  22670000   0.05825142    -0.1921337      0             -0.14598766    -0.01599082   
  22680000   0.050153277   -0.18764022     0             -0.14790942     0.002279305  
  22690000   0.056950766   -0.17940689     0             -0.1342912      0.013437567  
  22700000   0.051546869   -0.18580968     0             -0.14497489     0.040135731  
  22710000   0.051853315   -0.18064104     0             -0.13956349     0.00748411   
  22720000   0.051162479   -0.18313723     0             -0.14260695     0.0045887549 
  22730000   0.055964064   -0.18360358     0             -0.13926955     0.010221454  
  22740000   0.053283018   -0.18339504     0             -0.1411849      0.01632996   
  22750000   0.05093691    -0.1912989      0             -0.15094731     0.0066044286 
  22760000   0.050936074   -0.18190407     0             -0.14155315    -0.020806464  
  22770000   0.04878566    -0.17959148     0             -0.14094409     0.018215687  
  22780000   0.050039891   -0.18188052     0             -0.14223954     0.01511399   
  22790000   0.043078907   -0.17858018     0             -0.14445361     0.018606063  
  22800000   0.050081556   -0.18243894     0             -0.14276496     0.0072756568 
  22810000   0.058759998   -0.1821727      0             -0.13562376    -0.0050524309 
  22820000   0.056192057   -0.18050923     0             -0.13599458     0.029638083  
  22830000   0.04731444    -0.18037307     0             -0.14289116     0.0070052513 
  22840000   0.048391442   -0.18247586     0             -0.14414077     0.00787708   
  22850000   0.053866298   -0.18122857     0             -0.13855636     0.012216838  
  22860000   0.052139902   -0.18499019     0             -0.14368561    -0.018266983  
  22870000   0.051096738   -0.18047456     0             -0.13999636     0.020265192  
  22880000   0.053381855   -0.17657288     0             -0.13428444    -0.00059522362
  22890000   0.05109006    -0.17428949     0             -0.13381659    -0.012786425  
  22900000   0.050748761   -0.17506523     0             -0.13486269     0.0061062147 
  22910000   0.04945275    -0.17337037     0             -0.13419452    -0.017072039  
  22920000   0.0581283     -0.17954817     0             -0.13349965     0.0023156945 
  22930000   0.050536671   -0.17553388     0             -0.13549937     0.0069133598 
  22940000   0.050945638   -0.18065752     0             -0.14029902     0.0042404845 
  22950000   0.05085458    -0.17566488     0             -0.13537851    -0.015207526  
  22960000   0.049203144   -0.18002183     0             -0.14104372    -0.010182706  
  22970000   0.051739268   -0.18544179     0             -0.14445459     0.0066436776 
  22980000   0.050198246   -0.1828555      0             -0.14308908    -0.025701993  
  22990000   0.052330349   -0.18171308     0             -0.14025763     0.013211461  
  23000000   0.049569361   -0.17510908     0             -0.13584085     0.0061361224 
  23010000   0.050739474   -0.17714754     0             -0.13695237    -0.0094508405 
  23020000   0.04929208    -0.1704601      0             -0.13141153    -0.013678194  
  23030000   0.051520932   -0.17707697     0             -0.13626273     0.016738219  
  23040000   0.055267333   -0.17581578     0             -0.13203369     0.023887431  
  23050000   0.051717262   -0.17189802     0             -0.13092825    -0.0023457638 
  23060000   0.054331921   -0.17513857     0             -0.1320975      0.0091249881 
  23070000   0.048891321   -0.17310877     0             -0.13437768    -0.0070487032 
  23080000   0.04975695    -0.1756544      0             -0.13623757     0.0033826627 
  23090000   0.04722441    -0.17393235     0             -0.13652176    -0.0081667408 
  23100000   0.048262685   -0.17355694     0             -0.13532385     0.013779258  
  23110000   0.055308321   -0.17491295     0             -0.13109839    -0.010166551  
  23120000   0.053128761   -0.16600936     0             -0.12392142    -0.019131517  
  23130000   0.048308387   -0.16864426     0             -0.13037496     0.0047137416 
  23140000   0.047010015   -0.16395528     0             -0.12671453    -0.024029605  
  23150000   0.054760063   -0.17008254     0             -0.1267023      0.006397624  
  23160000   0.052244434   -0.17201011     0             -0.13062272    -0.0084543165 
  23170000   0.056660418   -0.17621        0             -0.13132433     0.0097962    
  23180000   0.051524867   -0.17848471     0             -0.13766736    -0.014134313  
  23190000   0.05493636    -0.16852316     0             -0.12500326     0.013300942  
  23200000   0.050938932   -0.1729272      0             -0.13257402     0.0082860501 
  23210000   0.048785698   -0.18070204     0             -0.14205462     0.0012529009 
  23220000   0.050951555   -0.17969021     0             -0.13932702    -0.016650997  
  23230000   0.04870475    -0.17168717     0             -0.13310388     0.023390513  
  23240000   0.051399741   -0.17833482     0             -0.13761658    -0.0068718716 
  23250000   0.050428744   -0.18291657     0             -0.14296755     0.029310989  
  23260000   0.055696296   -0.1845928      0             -0.14047089    -0.0032173115 
  23270000   0.050829635   -0.18709806     0             -0.14683146    -0.01652173   
  23280000   0.047217774   -0.18121773     0             -0.1438124      0.014321511  
  23290000   0.046582846   -0.18849533     0             -0.15159298    -0.010725876  
  23300000   0.050986542   -0.17629382     0             -0.13590292    -0.0097435613 
  23310000   0.050998347   -0.18268211     0             -0.14228185     0.012187303  
  23320000   0.051412466   -0.18188638     0             -0.14115806    -0.016218904  
  23330000   0.052993126   -0.1809661      0             -0.13898561    -0.00094172072
  23340000   0.057323109   -0.18653903     0             -0.14112838     0.0049977649 
  23350000   0.055444216   -0.17972177     0             -0.13579955     0.019848451  
  23360000   0.05340617    -0.17959173     0             -0.13728403     0.005198821  
  23370000   0.050532476   -0.18023497     0             -0.14020378    -0.00040077287
  23380000   0.055838612   -0.18216868     0             -0.13793403     0.011700535  
  23390000   0.053026691   -0.18520442     0             -0.14319733    -0.001321692  
  23400000   0.047279702   -0.18245451     0             -0.14500012    -0.00062533064
  23410000   0.050843358   -0.17375162     0             -0.13347415    -0.0062675901 
  23420000   0.056244238   -0.18372194     0             -0.13916596    -0.0066448071 
  23430000   0.051960843   -0.18680319     0             -0.14564046     0.002201727  
  23440000   0.048325453   -0.18224843     0             -0.14396561    -0.01029929   
  23450000   0.051014625   -0.18356635     0             -0.1431532      0.016945539  
  23460000   0.052117708   -0.19412688     0             -0.15283988    -0.016699417  
  23470000   0.045181608   -0.18512957     0             -0.14933726    -0.027581569  
  23480000   0.048532337   -0.18475453     0             -0.14630782    -0.013348012  
  23490000   0.055153047   -0.18980292     0             -0.14611136    -0.017655342  
  23500000   0.049257206   -0.18925844     0             -0.1502375     -0.011456714  
  23510000   0.057932941   -0.1836018      0             -0.13770805    -0.0092140835 
  23520000   0.05069798    -0.17833804     0             -0.13817573    -0.014991523  
  23530000   0.046079616   -0.17431408     0             -0.13781039     0.008881361  
  23540000   0.047749407   -0.18020001     0             -0.14237353     0.0032296161 
  23550000   0.04854154    -0.18479502     0             -0.14634102    -0.0082954811 
  23560000   0.047726091   -0.18542498     0             -0.14761697    -0.016761895  
  23570000   0.04855071    -0.18371566     0             -0.1452544     -0.022114967  
  23580000   0.045710089   -0.18284944     0             -0.14663848    -0.014070301  
  23590000   0.051716799   -0.18410918     0             -0.14313978     0.0084216502 
  23600000   0.050340298   -0.18610758     0             -0.14622863     0.003036985  
  23610000   0.048500983   -0.17895334     0             -0.14053146    -0.043235465  
  23620000   0.048606494   -0.17788907     0             -0.13938361     0.036779946  
  23630000   0.049398764   -0.17999277     0             -0.14085968     0.00039378421
  23640000   0.050642473   -0.18185247     0             -0.14173414     0.0054466374 
  23650000   0.048653126   -0.17648671     0             -0.13794431    -0.0024217753 
  23660000   0.047962209   -0.17302497     0             -0.1350299     -0.011230159  
  23670000   0.055430332   -0.17422971     0             -0.13031849     0.013034651  
  23680000   0.051474809   -0.17524231     0             -0.13446461     0.018074023  
  23690000   0.052433844   -0.17534224     0             -0.13380481     0.011067787  
  23700000   0.051625218   -0.17707269     0             -0.13617584    -0.019193365  
  23710000   0.048449627   -0.18000827     0             -0.14162708    -0.0053706961 
  23720000   0.051170584   -0.17963588     0             -0.13909919     0.0090689094 
  23730000   0.055951216   -0.17937774     0             -0.13505389     0.0020827286 
  23740000   0.048025834   -0.18513708     0             -0.14709162    -0.0045022203 
  23750000   0.049990373   -0.17901531     0             -0.13941356     0.0015753867 
  23760000   0.051894536   -0.18081859     0             -0.13970839     0.015927744  
  23770000   0.046392005   -0.18248445     0             -0.14573328     0.0018927258 
  23780000   0.05188852    -0.18091925     0             -0.13981381    -0.025769959  
  23790000   0.052920428   -0.1756494      0             -0.1337265      0.0049829377 
  23800000   0.051720843   -0.18234569     0             -0.14137308     0.01969975   
  23810000   0.05223579    -0.17795667     0             -0.13657613    -0.02210232   
  23820000   0.049079121   -0.17933149     0             -0.14045163    -0.022273314  
  23830000   0.052543648   -0.17851046     0             -0.13688604    -0.015473773  
  23840000   0.051519822   -0.17747122     0             -0.13665787    -0.021673421  
  23850000   0.054710379   -0.17677805     0             -0.13343717     0.003926886  
  23860000   0.046960801   -0.17589633     0             -0.13869457    -0.038247728  
  23870000   0.044318736   -0.17869403     0             -0.14358528     0.027692043  
  23880000   0.051691583   -0.17796219     0             -0.13701276    -0.0030211623 
  23890000   0.049923573   -0.18156159     0             -0.14201276    -0.020926924  
  23900000   0.052415955   -0.1827418      0             -0.14121853    -0.027601088  
  23910000   0.04719562    -0.18244205     0             -0.14505427     0.0047336811 
  23920000   0.053613047   -0.17930062     0             -0.13682904     0.019467734  
  23930000   0.049096979   -0.18344381     0             -0.1445498      0.00075585658
  23940000   0.044127745   -0.1793349      0             -0.14437745     0.015883628  
  23950000   0.047064434   -0.18832247     0             -0.15103862     0.0028696675 
  23960000   0.052868171   -0.18269473     0             -0.14081322     0.0044565111 
  23970000   0.04474257    -0.18825942     0             -0.15281492     0.040530556  
  23980000   0.052716905   -0.18771092     0             -0.14594925    -0.017793521  
  23990000   0.047358249   -0.18364619     0             -0.14612958     0.003803901  
  24000000   0.047923741   -0.17808632     0             -0.14012173     0.0074576615 
  24010000   0.047127509   -0.1782238      0             -0.14088997     0.015477138  
  24020000   0.047851984   -0.18147423     0             -0.14356649    -0.023049363  
  24030000   0.05190183    -0.17348359     0             -0.13236761     0.033395884  
  24040000   0.049875763   -0.18072951     0             -0.14121855    -0.0060505299 
  24050000   0.053162136   -0.18484068     0             -0.1427263      0.010973034  
  24060000   0.052065157   -0.17837549     0             -0.13713012    -0.00043549569
  24070000   0.05061731    -0.17752117     0             -0.13742277     0.0067823984 
  24080000   0.049491123   -0.17889453     0             -0.13968828    -0.025195969  
  24090000   0.048095498   -0.18058044     0             -0.14247979    -0.0026871164 
  24100000   0.050643442   -0.17991057     0             -0.13979147    -0.0032254575 
  24110000   0.047446724   -0.18257791     0             -0.14499121    -0.011081635  
  24120000   0.053253018   -0.18480654     0             -0.14262016    -0.019190894  
  24130000   0.048876359   -0.1887428      0             -0.15002355    -0.0059660851 
  24140000   0.047583369   -0.18710221     0             -0.14940726     0.007710352  
  24150000   0.048447429   -0.19081405     0             -0.15243461     0.01102299   
  24160000   0.05313869    -0.19422054     0             -0.15212473    -0.0086852575 
  24170000   0.052533023   -0.19183127     0             -0.15021527    -0.0058260615 
  24180000   0.052686198   -0.18272243     0             -0.14098508    -0.0049483109 
  24190000   0.051549986   -0.19029859     0             -0.14946133     0.015553302  
  24200000   0.053736895   -0.18871135     0             -0.14614165    -0.0051892914 
  24210000   0.050639769   -0.18964099     0             -0.1495248     -0.018887     
  24220000   0.047396673   -0.18375139     0             -0.14620434     0.00033082537
  24230000   0.052696404   -0.18815945     0             -0.14641402     0.0055742514 
  24240000   0.057112692   -0.18648638     0             -0.14124242    -0.014834478  
  24250000   0.053257577   -0.18368019     0             -0.1414902      0.019276673  
  24260000   0.051361522   -0.18677812     0             -0.14609016     0.019001359  
  24270000   0.051245381   -0.18471637     0             -0.14412042     0.029490796  
  24280000   0.051679954   -0.19220926     0             -0.15126904    -0.0020615809 
  24290000   0.051144741   -0.1918032      0             -0.15128698     0.0026879585 
  24300000   0.056096727   -0.18811139     0             -0.14367226    -0.021452147  
  24310000   0.05230293    -0.18648435     0             -0.14505062    -0.025476755  
  24320000   0.050331625   -0.18710443     0             -0.14723235     0.0035419132 
  24330000   0.050562401   -0.18417803     0             -0.14412312    -0.011145869  
  24340000   0.049856235   -0.18435249     0             -0.14485701    -0.0087626784 
  24350000   0.050762536   -0.18753019     0             -0.14731674    -0.013387978  
  24360000   0.044895745   -0.19043573     0             -0.15486988    -0.0046284186 
  24370000   0.049601743   -0.19020355     0             -0.15090967    -0.025251271  
  24380000   0.049727719   -0.19567833     0             -0.15628465     0.0037219647 
  24390000   0.052175342   -0.18532046     0             -0.14398781     0.004426397  
  24400000   0.052202126   -0.18606356     0             -0.14470969     0.00078169098
  24410000   0.052489801   -0.17993971     0             -0.13835795     0.03725394   
  24420000   0.050032898   -0.18633537     0             -0.14669993    -0.00096779774
  24430000   0.049150026   -0.18778409     0             -0.14884805     0.016242853  
  24440000   0.055656131   -0.18110015     0             -0.13701006    -0.017622867  
  24450000   0.054278693   -0.18575186     0             -0.14275295     0.01423201   
  24460000   0.048884819   -0.18823263     0             -0.14950669     0.01325962   
  24470000   0.046082569   -0.17576945     0             -0.13926342     0.01800131   
  24480000   0.047849288   -0.18831095     0             -0.15040534     0.029666751  
  24490000   0.053680209   -0.18501172     0             -0.14248693     0.025492879  
  24500000   0.04828121    -0.17870317     0             -0.1404554     -0.019381966  
  24510000   0.049629742   -0.18249357     0             -0.14317751    -0.024424401  
  24520000   0.045295215   -0.18150013     0             -0.14561783    -0.017300833  
  24530000   0.05038762    -0.187974       0             -0.14805755     0.017702206  
  24540000   0.048388377   -0.18105693     0             -0.14272426     0.019668945  
  24550000   0.048619262   -0.18041553     0             -0.14189995     0.0056763863 
  24560000   0.053760589   -0.18273757     0             -0.1401491     -0.015139091  
  24570000   0.048315753   -0.1831555      0             -0.14488037    -0.011377262  
  24580000   0.047767831   -0.18787787     0             -0.15003679     0.00011308329
  24590000   0.048844627   -0.18497344     0             -0.14627933     0.015832303  
  24600000   0.050951892   -0.18429883     0             -0.14393538     0.0025900984 
  24610000   0.054501447   -0.1834417      0             -0.14026634     0.013129779  
  24620000   0.055311225   -0.18574958     0             -0.14193271     0.0031288182 
  24630000   0.05209996    -0.19035721     0             -0.14908427     0.015830342  
  24640000   0.055210275   -0.18964934     0             -0.14591245    -0.02468711   
  24650000   0.049416184   -0.18797975     0             -0.14883287     0.012445909  
  24660000   0.054438724   -0.19079915     0             -0.14767347     0.018139989  
  24670000   0.051402488   -0.18553254     0             -0.14481213     0.0055859424 
  24680000   0.050835173   -0.19197772     0             -0.15170673     0.016967441  
  24690000   0.053273406   -0.18755967     0             -0.14535715    -0.019257277  
  24700000   0.053867474   -0.19258494     0             -0.1499118      0.026732095  
  24710000   0.051895849   -0.19509834     0             -0.1539871      0.015658171  
  24720000   0.046942007   -0.19232719     0             -0.15514031     0.0049000325 
  24730000   0.045792204   -0.19008192     0             -0.15380591     0.0069202257 
  24740000   0.05528975    -0.18546796     0             -0.14166811    -0.020792568  
  24750000   0.047513129   -0.18417764     0             -0.14653834    -0.0079744286 
  24760000   0.053438229   -0.19155851     0             -0.14922541    -0.0040991331 
  24770000   0.054654504   -0.1944707      0             -0.15117408     0.0089863803 
  24780000   0.05042565    -0.19517835     0             -0.15523178     0.012098267  
  24790000   0.047863916   -0.19645744     0             -0.15854025     0.026052054  
  24800000   0.052221189   -0.19417681     0             -0.15280784     0.012882176  
  24810000   0.052365609   -0.18571863     0             -0.14423525    -0.012548312  
  24820000   0.054949089   -0.1865467      0             -0.14301672    -0.007760364  
  24830000   0.054589587   -0.18613206     0             -0.14288687     0.0067507397 
  24840000   0.054831822   -0.18179765     0             -0.13836056     0.018263642  
  24850000   0.048655539   -0.18539453     0             -0.14685022    -0.015636721  
  24860000   0.058204863   -0.18569072     0             -0.13958155    -0.014812786  
  24870000   0.047654231   -0.19779394     0             -0.16004286     0.026300523  
  24880000   0.05163114    -0.18440416     0             -0.14350261     0.014201558  
  24890000   0.050690031   -0.18588888     0             -0.14573287     0.026124792  
  24900000   0.047062624   -0.18557492     0             -0.14829249     0.0029565229 
  24910000   0.049665692   -0.18874018     0             -0.14939563    -0.0057680384 
  24920000   0.045370694   -0.19309762     0             -0.15715552    -0.018103848  
  24930000   0.055740149   -0.1847652      0             -0.14060855     0.0082302647 
  24940000   0.04905568    -0.18368322     0             -0.14482192     0.016337626  
  24950000   0.050903955   -0.18512477     0             -0.14479929     0.011737412  
  24960000   0.050539857   -0.18727498     0             -0.14723794     0.0055357913 
  24970000   0.049863299   -0.17912171     0             -0.13962063     0.010085239  
  24980000   0.057777911   -0.17828634     0             -0.1325154     -0.0067818603 
  24990000   0.047595902   -0.18322528     0             -0.1455204      0.0085506401 
  25000000   0.047740343   -0.18808376     0             -0.15026446    -0.0057849219 
  25010000   0.047630253   -0.18315638     0             -0.14542429     0.033239997  
  25020000   0.049993345   -0.18753821     0             -0.1479341      0.0035568979 
  25030000   0.048229585   -0.18147623     0             -0.14326936    -0.015205321  
  25040000   0.054374424   -0.1896752      0             -0.14660046     0.012204375  
  25050000   0.049311378   -0.19025803     0             -0.15119417     0.0047343392 
  25060000   0.046508365   -0.191813       0             -0.15496966    -0.041099363  
  25070000   0.049942326   -0.19504021     0             -0.15547652     0.029817973  
  25080000   0.05400109    -0.1941725      0             -0.15139351    -0.013215003  
  25090000   0.046220153   -0.19784337     0             -0.16122835    -0.0020187206 
  25100000   0.057842499   -0.20051215     0             -0.15469005    -0.02440231   
  25110000   0.056563212   -0.19995439     0             -0.15514572    -6.5954832e-05
  25120000   0.055189754   -0.19461537     0             -0.15089474    -0.012432078  
  25130000   0.050844596   -0.1910484      0             -0.15076995    -0.036142406  
  25140000   0.05046749    -0.19029396     0             -0.15031424    -0.017063554  
  25150000   0.044141524   -0.18970236     0             -0.15473399     0.010640305  
  25160000   0.050898245   -0.18093936     0             -0.14061841     0.004955713  
  25170000   0.050810034   -0.18619437     0             -0.14594329     0.011719449  
  25180000   0.044692487   -0.18958375     0             -0.15417892     0.034986535  
  25190000   0.046619108   -0.18735124     0             -0.15042016    -0.029690766  
  25200000   0.054235782   -0.19328363     0             -0.15031872     0.017436924  
  25210000   0.050048332   -0.18497504     0             -0.14532738     0.015361232  
  25220000   0.055307223   -0.1867115      0             -0.14289781    -0.0052679685 
  25230000   0.048176146   -0.18623278     0             -0.14806824     0.0051157833 
  25240000   0.05109379    -0.19145208     0             -0.15097622    -0.027871022  
  25250000   0.0467054     -0.18732214     0             -0.1503227      0.013293467  
  25260000   0.048413363   -0.19267368     0             -0.15432122    -0.0047581662 
  25270000   0.049007493   -0.1834796      0             -0.14465647    -0.0093319099 
  25280000   0.046349603   -0.19202599     0             -0.15530841    -0.011784744  
  25290000   0.052844999   -0.18906728     0             -0.14720413    -0.020779476  
  25300000   0.049715305   -0.19438484     0             -0.155001      -0.02506309   
  25310000   0.053399747   -0.19233145     0             -0.15002884     0.004053649  
  25320000   0.053083444   -0.19800843     0             -0.15595638     0.012060009  
  25330000   0.047931406   -0.19914772     0             -0.16117706    -0.002757979  
  25340000   0.042835868   -0.19287245     0             -0.15893841     0.012941116  
  25350000   0.046139189   -0.19910065     0             -0.16254976    -0.0093116623 
  25360000   0.04958628    -0.19841558     0             -0.15913395     0.00268192   
  25370000   0.055883645   -0.20140269     0             -0.15713236    -0.020287072  
  25380000   0.047884692   -0.20005277     0             -0.16211912    -0.016758324  
  25390000   0.053103498   -0.20070386     0             -0.15863593    -0.04954811   
  25400000   0.047426048   -0.19625169     0             -0.15868136     0.013844949  
  25410000   0.049640446   -0.1936141      0             -0.15428956    -0.020175769  
  25420000   0.047461067   -0.19661049     0             -0.15901243     0.015709902  
  25430000   0.0560347     -0.18485282     0             -0.14046283    -0.029169994  
  25440000   0.05201681    -0.19255518     0             -0.15134811    -0.021179456  
  25450000   0.055137252   -0.19260336     0             -0.14892432     0.0021644743 
  25460000   0.046407864   -0.19427448     0             -0.15751075     0.0074818437 
  25470000   0.0542041     -0.18677286     0             -0.14383305    -0.022802761  
  25480000   0.05092765    -0.19172706     0             -0.15138282    -0.0059205209 
  25490000   0.05180558    -0.19392336     0             -0.15288363     0.0091846364 
  25500000   0.051966556   -0.1904172      0             -0.14924994    -0.014540764  
  25510000   0.051600424   -0.19100221     0             -0.150125       0.018985028  
  25520000   0.050622262   -0.18618957     0             -0.14608725    -0.0031469878 
  25530000   0.051070793   -0.1832861      0             -0.14282845     0.0026583472 
  25540000   0.053985313   -0.1869513      0             -0.14418481     0.021443855  
  25550000   0.054682933   -0.19471701     0             -0.15139788    -0.0061924004 
  25560000   0.044731225   -0.18873925     0             -0.15330373     0.0067523458 
  25570000   0.0511068     -0.19221607     0             -0.15172991     0.017677902  
  25580000   0.050425707   -0.19858974     0             -0.15864312     0.010973626  
  25590000   0.050873647   -0.19713549     0             -0.15683402    -0.019070114  
  25600000   0.054011039   -0.18618154     0             -0.14339467    -0.011870921  
  25610000   0.049909314   -0.19427666     0             -0.15473912     0.0070757134 
  25620000   0.051942804   -0.18782925     0             -0.14668081     0.016966166  
  25630000   0.049716322   -0.19228171     0             -0.15289706    -0.024532888  
  25640000   0.0475414     -0.18914229     0             -0.15148059    -0.001681466  
  25650000   0.043842017   -0.1903897      0             -0.15565861     0.024016197  
  25660000   0.044047274   -0.19305588     0             -0.15816218     0.021152739  
  25670000   0.048586131   -0.19263477     0             -0.15414544     0.0017406904 
  25680000   0.046570062   -0.1886848      0             -0.15179258    -0.014994726  
  25690000   0.048313373   -0.18720666     0             -0.14893341    -0.025336319  
  25700000   0.05156019    -0.1780904      0             -0.13724507    -0.0064003724 
  25710000   0.052137832   -0.19037078     0             -0.14906784    -0.02382244   
  25720000   0.054236991   -0.18496315     0             -0.14199728    -0.00056298641
  25730000   0.051801154   -0.18680673     0             -0.1457705      0.024297992  
  25740000   0.049379021   -0.18992615     0             -0.15080871    -0.00075000629
  25750000   0.051287402   -0.19134579     0             -0.15071655    -0.0089230551 
  25760000   0.051320863   -0.19905979     0             -0.15840405     0.006147536  
  25770000   0.047191871   -0.19957959     0             -0.16219478     0.0071462586 
  25780000   0.051651097   -0.20186295     0             -0.16094559     0.032689041  
  25790000   0.052685744   -0.2013696      0             -0.15963261    -0.013517463  
  25800000   0.047375517   -0.20387966     0             -0.16634937    -0.0032586474 
  25810000   0.057123923   -0.20053079     0             -0.15527794     0.020758706  
  25820000   0.051071594   -0.20082684     0             -0.16036856    -0.0074651698 
  25830000   0.049479768   -0.20426326     0             -0.16506601    -0.007529109  
  25840000   0.045761026   -0.20557829     0             -0.16932698    -0.0091130979 
  25850000   0.047021429   -0.19567538     0             -0.15842559     0.025905785  
  25860000   0.046666511   -0.20257696     0             -0.16560834    -0.00037117065
  25870000   0.052768096   -0.20172729     0             -0.15992506     0.010154292  
  25880000   0.049022459   -0.19824527     0             -0.15941029    -0.012641729  
  25890000   0.042576247   -0.20216284     0             -0.16843447     0.032220796  
  25900000   0.05151345    -0.20242069     0             -0.16161238     0.027790328  
  25910000   0.053297036   -0.20098311     0             -0.15876187     0.014436966  
  25920000   0.042136175   -0.20040924     0             -0.16702949    -0.0048855383 
  25930000   0.050761315   -0.20211336     0             -0.16190088     0.02696112   
  25940000   0.052318775   -0.20023323     0             -0.15878695    -0.011363591  
  25950000   0.051969078   -0.20564327     0             -0.16447401     0.021731628  
  25960000   0.044090681   -0.2012839      0             -0.16635581     0.015395509  
  25970000   0.048362822   -0.20128578     0             -0.16297336     0.034562266  
  25980000   0.044204599   -0.20477255     0             -0.16975422    -0.0089203604 
  25990000   0.051189255   -0.19957872     0             -0.15902723     0.0067511609 
  26000000   0.04326624    -0.20057166     0             -0.16629669    -0.005881717  
  26010000   0.050103253   -0.20181605     0             -0.16212488    -0.0043550785 
  26020000   0.047442696   -0.19993966     0             -0.16235615     0.0029019103 
  26030000   0.050793545   -0.20646285     0             -0.16622484     0.031221948  
  26040000   0.045428206   -0.20113497     0             -0.16514731     0.0082238161 
  26050000   0.05011884    -0.20073178     0             -0.16102826     0.0012430964 
  26060000   0.056828512   -0.20199632     0             -0.15697748    -0.0091878393 
  26070000   0.048208434   -0.20497093     0             -0.16678081    -0.0041956622 
  26080000   0.054468847   -0.19814091     0             -0.15499137    -0.0065620425 
  26090000   0.045833695   -0.200493       0             -0.16418412    -0.014401266  
  26100000   0.047337674   -0.20813403     0             -0.17063371    -0.00046540477
  26110000   0.04876345    -0.20588678     0             -0.16725698    -0.0012039748 
  26120000   0.051560394   -0.19636211     0             -0.15551661     0.027757271  
  26130000   0.056067865   -0.19167789     0             -0.14726163     0.0035830368 
  26140000   0.048489621   -0.19991624     0             -0.16150337     0.008576963  
  26150000   0.047041841   -0.19627984     0             -0.15901388    -0.016355599  
  26160000   0.056463415   -0.19920037     0             -0.15447076     0.0066530876 
  26170000   0.050051843   -0.20144274     0             -0.1617923      0.0016869335 
  26180000   0.053193369   -0.19559808     0             -0.15345895    -0.0096258749 
  26190000   0.051637039   -0.20217149     0             -0.16126527     0.012195245  
  26200000   0.051474006   -0.19045223     0             -0.14967516    -0.028660226  
  26210000   0.045570865   -0.19463627     0             -0.1585356      0.0037370038 
  26220000   0.054401511   -0.19062014     0             -0.14752394     0.00029633339
  26230000   0.04854525    -0.18762564     0             -0.1491687     -0.010858511  
  26240000   0.047375741   -0.19095227     0             -0.1534218     -0.012850842  
  26250000   0.048116818   -0.19117014     0             -0.1530526      0.0067084849 
  26260000   0.052358545   -0.18868713     0             -0.14720935     0.0062315035 
  26270000   0.045496915   -0.19367847     0             -0.15763638    -0.0065933779 
  26280000   0.049535376   -0.20083531     0             -0.161594      -0.012914909  
  26290000   0.048534494   -0.19291697     0             -0.15446855    -0.015425934  
  26300000   0.047731315   -0.19378517     0             -0.15597301    -0.017966566  
  26310000   0.051746728   -0.20038077     0             -0.15938766     0.014283215  
  26320000   0.047360444   -0.19728616     0             -0.15976781     0.0002840456 
  26330000   0.049315275   -0.1928034      0             -0.15373645     0.0017714336 
  26340000   0.04790286    -0.19568952     0             -0.15774147     0.001187668  
  26350000   0.047759369   -0.19609878     0             -0.15826441    -0.040793154  
  26360000   0.045042604   -0.18936192     0             -0.15367973     0.00071256002
  26370000   0.054192407   -0.18776751     0             -0.14483696     0.029529836  
  26380000   0.051844045   -0.1917124      0             -0.1506422     -0.022366521  
  26390000   0.049489446   -0.19727358     0             -0.15806866    -0.028801276  
  26400000   0.048859057   -0.19470564     0             -0.15600011    -0.0091349851 
  26410000   0.051813138   -0.19746249     0             -0.15641677     0.0022790779 
  26420000   0.052717572   -0.19738011     0             -0.1556179      0.023309703  
  26430000   0.045943564   -0.19486038     0             -0.15846446    -0.001813176  
  26440000   0.057237143   -0.19986591     0             -0.15452336     0.014958914  
  26450000   0.046325996   -0.19640557     0             -0.15970669    -0.0042316166 
  26460000   0.051189416   -0.19937138     0             -0.15881976    -0.00042422038
  26470000   0.056290427   -0.20044798     0             -0.15585541     0.012831309  
  26480000   0.048743645   -0.19993118     0             -0.16131707    -0.028561443  
  26490000   0.047027186   -0.19958473     0             -0.16233038     0.012308404  
  26500000   0.054665581   -0.20307272     0             -0.15976733     0.010819105  
  26510000   0.043643934   -0.2004088      0             -0.16583462     0.0030657296 
  26520000   0.05301459    -0.19839254     0             -0.15639504    -0.0015559729 
  26530000   0.048941672   -0.20341183     0             -0.16464085    -0.013006134  
  26540000   0.054561006   -0.20313157     0             -0.15990902     0.00046420699
  26550000   0.047957525   -0.20260364     0             -0.16461228     0.0013288095 
  26560000   0.054088896   -0.20515215     0             -0.1623036      0.039788477  
  26570000   0.049085641   -0.20204499     0             -0.16315996     0.0051545507 
  26580000   0.049478972   -0.20295949     0             -0.16376286     0.018415161  
  26590000   0.052873893   -0.20740084     0             -0.1655148     -0.0085926802 
  26600000   0.053498683   -0.20477492     0             -0.16239393     0.006022533  
  26610000   0.050216782   -0.20638996     0             -0.16660885    -0.015416192  
  26620000   0.05478229    -0.20843316     0             -0.16503531     0.017519193  
  26630000   0.049120422   -0.20685421     0             -0.16794163     0.016727713  
  26640000   0.045299153   -0.20525965     0             -0.16937422    -0.015123199  
  26650000   0.045824428   -0.20279436     0             -0.16649282    -0.030769855  
  26660000   0.048421621   -0.20863805     0             -0.17027904     0.0031545168 
  26670000   0.051156715   -0.20662936     0             -0.16610365     0.0061182955 
  26680000   0.050808468   -0.19655097     0             -0.15630114     0.029469857  
  26690000   0.049661498   -0.20012257     0             -0.16078135     0.032855356  
  26700000   0.050026491   -0.2023852      0             -0.16275484    -0.041412351  
  26710000   0.048424016   -0.2015013      0             -0.1631404     -0.0058106696 
  26720000   0.050703165   -0.20089781     0             -0.1607314     -0.023372032  
  26730000   0.052803456   -0.20228956     0             -0.16045932     0.0022829392 
  26740000   0.053386632   -0.20214202     0             -0.1598498     -0.00074045116
  26750000   0.051319856   -0.20493443     0             -0.16427948    -0.0042575742 
  26760000   0.051169113   -0.19628838     0             -0.15575285     0.013103878  
  26770000   0.044394697   -0.19020908     0             -0.15504016    -0.012174238  
  26780000   0.047259879   -0.19507387     0             -0.15763518     0.02746682   
  26790000   0.053312766   -0.19783685     0             -0.15560314     0.0024440324 
  26800000   0.050415804   -0.19861913     0             -0.15868036     0.0042530458 
  26810000   0.046857963   -0.19970775     0             -0.16258746     0.012924223  
  26820000   0.044162753   -0.19199773     0             -0.15701255    -0.03331318   
  26830000   0.053404494   -0.18564726     0             -0.14334088     0.010992867  
  26840000   0.051592728   -0.1919561      0             -0.15108499     0.0085665849 
  26850000   0.054523991   -0.194324       0             -0.15113078    -0.0046769876 
  26860000   0.053657878   -0.19790843     0             -0.15540133    -6.2661848e-05
  26870000   0.054620373   -0.19889013     0             -0.15562056    -5.4412176e-05
  26880000   0.052607413   -0.19639557     0             -0.15472064     0.005997058  
  26890000   0.045705165   -0.19148031     0             -0.15527325     0.018094099  
  26900000   0.04649824    -0.18887685     0             -0.15204152    -0.0043769977 
  26910000   0.046449145   -0.18624773     0             -0.1494513     -0.021742503  
  26920000   0.046611442   -0.19401472     0             -0.15708972    -0.0079885613 
  26930000   0.055452486   -0.19229616     0             -0.14836739     0.0083308242 
  26940000   0.050722073   -0.18327282     0             -0.14309143     0.004993411  
  26950000   0.055456203   -0.18566487     0             -0.14173316     0.0018331618 
  26960000   0.045302996   -0.19242271     0             -0.15653425     0.0068053595 
  26970000   0.046841286   -0.19737466     0             -0.16026758     0.0011229748 
  26980000   0.05337384    -0.19688463     0             -0.15460254    -0.0020723695 
  26990000   0.053594268   -0.1921985      0             -0.14974179    -0.016660108  
  27000000   0.056763228   -0.20002217     0             -0.15505505     0.0023264045 
  27010000   0.046751109   -0.19866461     0             -0.16162896     0.0083117791 
  27020000   0.047881215   -0.19958967     0             -0.16165877    -0.037506967  
  27030000   0.042606214   -0.20079278     0             -0.16704067    -0.0051355091 
  27040000   0.0520676     -0.19205677     0             -0.15080947    -0.036894629  
  27050000   0.055064692   -0.19160853     0             -0.14798697     0.0042968397 
  27060000   0.053869978   -0.191165       0             -0.14848988     0.013024219  
  27070000   0.050389395   -0.19040011     0             -0.15048226    -0.011926327  
  27080000   0.053295735   -0.19144764     0             -0.14922743     0.027886097  
  27090000   0.050959679   -0.18980768     0             -0.14943805    -0.0227414    
  27100000   0.051969079   -0.19936937     0             -0.15820011    -0.019412375  
  27110000   0.050187912   -0.18813644     0             -0.1483782     -0.016322596  
  27120000   0.053194526   -0.19340967     0             -0.15126963    -0.00093135317
  27130000   0.050978401   -0.19114084     0             -0.15075639     0.0070592253 
  27140000   0.046738267   -0.19378657     0             -0.15676109     0.024003754  
  27150000   0.049700659   -0.19371898     0             -0.15434674     0.019538835  
  27160000   0.054638321   -0.1922984      0             -0.14901461    -0.0046834044 
  27170000   0.053051639   -0.19287968     0             -0.15085283     4.9188065e-05
  27180000   0.04895246    -0.18482288     0             -0.14604336     0.018845053  
  27190000   0.048112641   -0.19177325     0             -0.15365902     0.018384379  
  27200000   0.049174594   -0.19083696     0             -0.15188146     0.0048516231 
  27210000   0.050996097   -0.19269795     0             -0.15229948    -0.011889729  
  27220000   0.051299371   -0.19769691     0             -0.15705819     0.018033001  
  27230000   0.054580624   -0.19770045     0             -0.15446236    -0.023500522  
  27240000   0.045829324   -0.2061292      0             -0.16982378    -0.0068644759 
  27250000   0.047931513   -0.20431967     0             -0.16634893     0.002723018  
  27260000   0.053158869   -0.20090722     0             -0.15879543    -0.013625033  
  27270000   0.053488884   -0.20621162     0             -0.16383839     0.02710269   
  27280000   0.050533764   -0.19721261     0             -0.15718039    -0.031203537  
  27290000   0.052686608   -0.1995008      0             -0.15776313    -0.010483069  
  27300000   0.049221221   -0.19684384     0             -0.15785141     0.0040465699 
  27310000   0.055302316   -0.19955785     0             -0.15574805    -0.0054725267 
  27320000   0.052129256   -0.2022151      0             -0.16091895    -0.0054188293 
  27330000   0.050942708   -0.1934945      0             -0.15313832     0.01892034   
  27340000   0.041200817   -0.19484624     0             -0.16220746    -0.0031646986 
  27350000   0.05183984    -0.1917797      0             -0.15071283    -0.00096930902
  27360000   0.054231664   -0.19719156     0             -0.15422991     0.015044456  
  27370000   0.051696561   -0.19692713     0             -0.15597376    -0.009326721  
  27380000   0.055010087   -0.18835771     0             -0.14477941    -0.018176921  
  27390000   0.052393976   -0.19565895     0             -0.1541531      0.026548972  
  27400000   0.049759785   -0.19502947     0             -0.15561039    -0.0048719757 
  27410000   0.048130439   -0.19393135     0             -0.15580302    -0.010046149  
  27420000   0.054359578   -0.1922707      0             -0.14920773     0.031394532  
  27430000   0.053934162   -0.19561212     0             -0.15288615     0.029649014  
  27440000   0.048950514   -0.19392001     0             -0.15514203     0.017496818  
  27450000   0.047951363   -0.19623408     0             -0.15824761     0.024165901  
  27460000   0.044098553   -0.19551749     0             -0.16058317    -0.023333708  
  27470000   0.049220557   -0.19192978     0             -0.15293787    -0.0059275348 
  27480000   0.054490292   -0.19715443     0             -0.15398791     0.0021722427 
  27490000   0.052473498   -0.19625045     0             -0.1546816      0.0049261571 
  27500000   0.053888421   -0.19841236     0             -0.15572263    -0.027410689  
  27510000   0.045128847   -0.19529034     0             -0.15953984     0.013223705  
  27520000   0.051526318   -0.19834011     0             -0.1575216      0.024347202  
  27530000   0.047768005   -0.19694143     0             -0.15910021     0.020838024  
  27540000   0.052314209   -0.19835246     0             -0.15690979    -0.0026838848 
  27550000   0.050328689   -0.20368969     0             -0.16381994    -0.01512891   
  27560000   0.051103194   -0.20831508     0             -0.16783177    -0.0072682466 
  27570000   0.045286243   -0.19612493     0             -0.16024973    -0.021464132  
  27580000   0.049126792   -0.19354945     0             -0.15463182     0.0090000506 
  27590000   0.047315617   -0.19557461     0             -0.15809177     0.0031227453 
  27600000   0.050378883   -0.1938282      0             -0.15391868    -0.0096886683 
  27610000   0.052703597   -0.19630706     0             -0.15455593     0.006963921  
  27620000   0.047985452   -0.196191       0             -0.15817752    -0.0038191888 
  27630000   0.047060092   -0.20216176     0             -0.16488134     0.014826014  
  27640000   0.047326212   -0.19508184     0             -0.15759061    -0.0074549416 
  27650000   0.050807765   -0.19710849     0             -0.15685922    -0.0038797139 
  27660000   0.052470443   -0.19642075     0             -0.15485432    -0.010864592  
  27670000   0.047235872   -0.20324428     0             -0.16582461     0.00092129897
  27680000   0.046757043   -0.20774665     0             -0.17070631    -0.003276182  
  27690000   0.051429163   -0.20894919     0             -0.16820765    -0.0074842154 
  27700000   0.049413378   -0.20838214     0             -0.16923748     0.0072795465 
  27710000   0.055326311   -0.20635514     0             -0.16252633     0.00029939747
  27720000   0.053399707   -0.20786556     0             -0.16556298    -0.015583996  
  27730000   0.048995991   -0.20545069     0             -0.16663668    -0.0021059924 
  27740000   0.052112283   -0.20482469     0             -0.16354199     0.0043786413 
  27750000   0.050615064   -0.20826074     0             -0.16816412    -0.0042593584 
  27760000   0.05072271    -0.2075703      0             -0.1673884      0.007126487  
  27770000   0.050291185   -0.20406737     0             -0.16422732    -0.020071812  
  27780000   0.053043848   -0.20336829     0             -0.16134762    -0.011855149  
  27790000   0.055741697   -0.2014621      0             -0.15730423     0.015433442  
  27800000   0.052778339   -0.20589527     0             -0.16408493    -0.027783736  
  27810000   0.044391168   -0.20697627     0             -0.17181014    -0.011580188  
  27820000   0.052173786   -0.20341995     0             -0.16208853     0.011185279  
  27830000   0.046325825   -0.20282199     0             -0.16612325     0.014152063  
  27840000   0.049701946   -0.1990839      0             -0.15971064    -0.022556542  
  27850000   0.053140733   -0.20195216     0             -0.15985474     0.020923375  
  27860000   0.05022407    -0.19862698     0             -0.1588401     -0.0068311491 
  27870000   0.043433009   -0.19931924     0             -0.16491215    -0.034502009  
  27880000   0.049103897   -0.20189397     0             -0.16299448    -0.026691724  
  27890000   0.048619529   -0.20362054     0             -0.16510476     0.0064541207 
  27900000   0.049269694   -0.19366548     0             -0.15463464    -0.012880643  
  27910000   0.045765728   -0.19951372     0             -0.16325869    -0.017667834  
  27920000   0.052256204   -0.19236656     0             -0.15096985    -0.011700938  
  27930000   0.050068443   -0.19605792     0             -0.15639433     0.033354747  
  27940000   0.048347312   -0.18825177     0             -0.14995163     0.0038672705 
  27950000   0.049321743   -0.19699539     0             -0.15792332    -0.0069485222 
  27960000   0.046258603   -0.19696357     0             -0.16031808    -0.028922159  
  27970000   0.045026811   -0.19769879     0             -0.16202911     0.021973251  
  27980000   0.047901614   -0.19310422     0             -0.15515716     0.016535961  
  27990000   0.054283715   -0.19344336     0             -0.15044048     0.0051672262 
  28000000   0.055189612   -0.18684273     0             -0.14312221    -0.023169334  
  28010000   0.048754203   -0.1907506      0             -0.15212813    -0.023752823  
  28020000   0.051573166   -0.19349996     0             -0.15264434     0.00077666183
  28030000   0.044943098   -0.19144553     0             -0.15584217    -0.015645992  
  28040000   0.051667027   -0.19630005     0             -0.15537008    -0.014374544  
  28050000   0.049418684   -0.18575886     0             -0.14661       -0.0088404693 
  28060000   0.049457748   -0.18763024     0             -0.14845043     0.028787967  
  28070000   0.048133854   -0.18810097     0             -0.14996993     0.0067915928 
  28080000   0.049773245   -0.18947792     0             -0.15004818     0.024403907  
  28090000   0.049958966   -0.18963763     0             -0.15006076     0.0086745657 
  28100000   0.047938544   -0.19642339     0             -0.15844708    -0.0346778    
  28110000   0.055006501   -0.1895344      0             -0.14595894    -0.001821632  
  28120000   0.049365976   -0.19155413     0             -0.15244702     0.012967159  
  28130000   0.048141773   -0.19653122     0             -0.15839391     0.026985768  
  28140000   0.04953639    -0.19738947     0             -0.15814736    -0.022386055  
  28150000   0.049125159   -0.19302912     0             -0.15411278    -0.020966889  
  28160000   0.050081906   -0.19174372     0             -0.15206946     2.9092277e-05
  28170000   0.053344915   -0.1853064      0             -0.14304723     0.021637047  
  28180000   0.049086541   -0.19440096     0             -0.15551521    -0.0019286865 
  28190000   0.050004574   -0.18769167     0             -0.14807867     0.0063194068 
  28200000   0.051681881   -0.19146867     0             -0.15052693     0.008413682  
  28210000   0.049207053   -0.191801       0             -0.15281979     0.0062364582 
  28220000   0.049741452   -0.19102046     0             -0.1516159     -0.008322051  
  28230000   0.049370974   -0.18845264     0             -0.14934157     0.024908435  
  28240000   0.055312926   -0.18709855     0             -0.14328034     0.0046776933 
  28250000   0.042691949   -0.18140737     0             -0.14758734     0.020713194  
  28260000   0.046367288   -0.18327624     0             -0.14654466     0.031846223  
  28270000   0.05230928    -0.18254659     0             -0.14110783     0.0026851088 
  28280000   0.050228197   -0.18619299     0             -0.14640284    -0.025873988  
  28290000   0.053756152   -0.18927408     0             -0.14668913     0.010497935  
  28300000   0.052474474   -0.19170222     0             -0.15013259     0.013064116  
  28310000   0.049285713   -0.18765384     0             -0.14861032    -0.0014716269 
  28320000   0.051834474   -0.19046752     0             -0.1494049     -0.015241579  
  28330000   0.05181277    -0.19352979     0             -0.15248436    -0.010818772  
  28340000   0.051397189   -0.18911526     0             -0.14839905    -0.016871915  
  28350000   0.055500863   -0.18399762     0             -0.14003053    -0.014768846  
  28360000   0.05040377    -0.18843866     0             -0.14850942    -0.036492428  
  28370000   0.048331686   -0.18852235     0             -0.15023459    -0.0016949641 
  28380000   0.055652281   -0.19297191     0             -0.14888487    -0.0011467038 
  28390000   0.043473637   -0.1900049      0             -0.15556563     0.0017449126 
  28400000   0.047446301   -0.19281008     0             -0.15522371     0.0038770773 
  28410000   0.052643101   -0.18724636     0             -0.14554315    -0.0089987715 
  28420000   0.049284026   -0.1864689      0             -0.14742671     0.014423565  
  28430000   0.046326257   -0.19014975     0             -0.15345066    -0.0037831449 
  28440000   0.04817133    -0.18830735     0             -0.15014663     0.008013407  
  28450000   0.051495256   -0.18884489     0             -0.14805099    -0.0074173922 
  28460000   0.048663513   -0.19205213     0             -0.15350151     0.028746441  
  28470000   0.049731403   -0.1896909      0             -0.1502943     -0.0032584709 
  28480000   0.049471474   -0.18571768     0             -0.146527      -0.0019075836 
  28490000   0.046377667   -0.19302023     0             -0.15628042    -0.014211206  
  28500000   0.048789705   -0.1902339      0             -0.1515833      0.0059573703 
  28510000   0.049581164   -0.19614468     0             -0.1568671     -0.00097479349
  28520000   0.053550167   -0.19648931     0             -0.15406753    -0.024557395  
  28530000   0.04431385    -0.19824912     0             -0.16314424    -0.012840354  
  28540000   0.05445026    -0.19938076     0             -0.15624595     0.01004233   
  28550000   0.044292912   -0.19299431     0             -0.15790602     0.0055582586 
  28560000   0.05509172    -0.1928519      0             -0.14920893    -0.012456596  
  28570000   0.048287695   -0.18898358     0             -0.15073067    -0.01197393   
  28580000   0.052622111   -0.19076919     0             -0.14908262     0.019587767  
  28590000   0.055494155   -0.19331083     0             -0.14934906     0.019731621  
  28600000   0.05461078    -0.19477835     0             -0.15151637     0.025345702  
  28610000   0.054621462   -0.19129312     0             -0.14802269    -0.0054789572 
  28620000   0.050860227   -0.19131344     0             -0.1510226     -0.0072598965 
  28630000   0.045024061   -0.19274817     0             -0.15708067    -0.0099767454 
  28640000   0.053771514   -0.18937058     0             -0.14677346     0.032354769  
  28650000   0.04981103    -0.19566172     0             -0.15620205     0.011197335  
  28660000   0.049032458   -0.19788398     0             -0.15904108     0.012318188  
  28670000   0.046462049   -0.19896867     0             -0.16216201     0.015496152  
  28680000   0.04749659    -0.19906542     0             -0.16143922     0.033805165  
  28690000   0.052811647   -0.19474576     0             -0.15290903     0.0033793707 
  28700000   0.052613439   -0.20230822     0             -0.16062851     0.015986291  
  28710000   0.05145503    -0.19285816     0             -0.15209613     0.0066400639 
  28720000   0.048869511   -0.19401432     0             -0.15530051     0.038557411  
  28730000   0.045856963   -0.19574488     0             -0.15941757    -0.017517901  
  28740000   0.046875301   -0.19547461     0             -0.15834058    -0.0036004752 
  28750000   0.0593826     -0.19664901     0             -0.14960685    -0.023829234  
  28760000   0.058805802   -0.19180804     0             -0.14522282     0.0042578652 
  28770000   0.050519808   -0.19590026     0             -0.1558791      0.0053127824 
  28780000   0.046619658   -0.19858524     0             -0.16165373    -0.0030357493 
  28790000   0.046007248   -0.19142007     0             -0.15497371    -0.016810138  
  28800000   0.054085745   -0.19048032     0             -0.14763427    -0.022505323  
  28810000   0.051090897   -0.19012082     0             -0.14964725    -0.031956464  
  28820000   0.054987156   -0.19463642     0             -0.15107628    -0.0094183727 
  28830000   0.058052441   -0.19277148     0             -0.14678306    -0.012058792  
  28840000   0.04965732    -0.18938023     0             -0.15004232     0.011368879  
  28850000   0.050037927   -0.19396852     0             -0.1543291     -0.025854227  
  28860000   0.053283173   -0.19685536     0             -0.1546451     -0.03380125   
  28870000   0.051800826   -0.20029435     0             -0.15925838    -0.0092300392 
  28880000   0.046843708   -0.19752268     0             -0.16041368     0.0080599248 
  28890000   0.055154042   -0.1921907      0             -0.14849836     0.00045805402
  28900000   0.051733557   -0.19136835     0             -0.15038567     0.01188905   
  28910000   0.050427022   -0.19265116     0             -0.1527035     -0.033668708  
  28920000   0.050170716   -0.18989847     0             -0.15015386     0.0050299958 
  28930000   0.05138128    -0.19667054     0             -0.15596693     0.0040963868 
  28940000   0.049660547   -0.19693965     0             -0.15759918     0.015727309  
  28950000   0.050929356   -0.19626891     0             -0.15592331     0.0061928063 
  28960000   0.049564962   -0.19989199     0             -0.16062725    -0.001297396  
  28970000   0.046313104   -0.19575141     0             -0.15906275    -0.00088589007
  28980000   0.050358142   -0.20178594     0             -0.16189285     0.01162064   
  28990000   0.053617203   -0.19997806     0             -0.15750318    -0.045352745  
  29000000   0.051155833   -0.19471577     0             -0.15419076     0.027510868  
  29010000   0.045369255   -0.19701169     0             -0.16107073     0.0013570062 
  29020000   0.051783837   -0.19515995     0             -0.15413745     0.030636572  
  29030000   0.052930646   -0.19039075     0             -0.14845976    -0.016301126  
  29040000   0.052463054   -0.19392016     0             -0.15235958     0.0019123307 
  29050000   0.050056081   -0.18991544     0             -0.15026163    -0.028414813  
  29060000   0.048175226   -0.19758847     0             -0.15942466     0.034683367  
  29070000   0.048874359   -0.19590316     0             -0.1571855      0.0059364356 
  29080000   0.052308814   -0.20745404     0             -0.16601565     0.0068898246 
  29090000   0.045477921   -0.19993998     0             -0.16391294     0.0070814416 
  29100000   0.04534644    -0.2070959      0             -0.17117302    -0.0075848034 
  29110000   0.046863679   -0.19882329     0             -0.16169847    -0.0092484178 
  29120000   0.050241148   -0.20013838     0             -0.16033797     0.02972583   
  29130000   0.0505115     -0.20045234     0             -0.16043776    -0.0065126122 
  29140000   0.050184021   -0.19874634     0             -0.15899118    -0.015266112  
  29150000   0.046262399   -0.19805298     0             -0.16140448     0.0026268401 
  29160000   0.052665456   -0.20069099     0             -0.15897008     0.0068245972 
  29170000   0.043468707   -0.20291703     0             -0.16848167    -0.018226904  
  29180000   0.039855763   -0.19789634     0             -0.1663231     -0.013558401  
  29190000   0.054551878   -0.20141954     0             -0.15820422     0.026282043  
  29200000   0.04886832    -0.19972597     0             -0.1610131     -0.030830347  
  29210000   0.053270266   -0.20089686     0             -0.15869682     0.022646492  
  29220000   0.047939802   -0.20576443     0             -0.16778712    -0.025251878  
  29230000   0.05783699    -0.2057254      0             -0.15990766     0.0014116885 
  29240000   0.050014006   -0.20604789     0             -0.16642742    -0.0095951642 
  29250000   0.049534514   -0.18958273     0             -0.15034211    -0.0022188848 
  29260000   0.051700062   -0.20392094     0             -0.1629648     -0.015265186  
  29270000   0.047384033   -0.19805301     0             -0.16051598    -0.0070255338 
  29280000   0.050960568   -0.20741584     0             -0.16704552    -0.009608026  
  29290000   0.056087155   -0.20216602     0             -0.15773448    -0.0040915466 
  29300000   0.048609122   -0.21059336     0             -0.17208582     0.0093376609 
  29310000   0.049761361   -0.20904275     0             -0.16962242     0.0060061364 
  29320000   0.048151944   -0.2028353      0             -0.16468993    -0.0016686508 
  29330000   0.047091617   -0.20091052     0             -0.16360513    -0.025804348  
  29340000   0.051242562   -0.19964273     0             -0.15904901     0.01678861   
  29350000   0.051020916   -0.19505092     0             -0.15463279     0.013052489  
  29360000   0.053624373   -0.19330791     0             -0.15082735    -0.0082547266 
  29370000   0.051621032   -0.18774546     0             -0.14685192     0.0037038217 
  29380000   0.049730055   -0.18750554     0             -0.14811001     0.013000321  
  29390000   0.048093121   -0.18451141     0             -0.14641264    -0.027267232  
  29400000   0.052499286   -0.18477575     0             -0.14318647     0.044399948  
  29410000   0.05202297    -0.18614424     0             -0.1449323      0.0042344698 
  29420000   0.05333533    -0.18136075     0             -0.13910917     0.0034451221 
  29430000   0.059038505   -0.18637557     0             -0.139606       0.035852926  
  29440000   0.054181966   -0.18268096     0             -0.13975868     0.014473225  
  29450000   0.049247201   -0.18733427     0             -0.14832126     0.0048382815 
  29460000   0.050616635   -0.18961665     0             -0.14951879     0.013670098  
  29470000   0.054215468   -0.18791158     0             -0.14496276     0.021464186  
  29480000   0.042975112   -0.18681307     0             -0.15276872     0.001277047  
  29490000   0.047996938   -0.17634396     0             -0.13832138    -0.016025384  
  29500000   0.051462466   -0.18474184     0             -0.14397392     0.0040332588 
  29510000   0.049848466   -0.18792955     0             -0.14844021     0.022522098  
  29520000   0.052273017   -0.18120591     0             -0.13979588    -0.0099296343 
  29530000   0.050451856   -0.18278522     0             -0.14281789     0.018220868  
  29540000   0.048174744   -0.18144923     0             -0.1432858      0.0029563531 
  29550000   0.049004158   -0.18227355     0             -0.14345306     0.0079621476 
  29560000   0.050499481   -0.18632854     0             -0.14632348     0.0076846804 
  29570000   0.046831252   -0.1884844      0             -0.15138527    -0.030904467  
  29580000   0.048364562   -0.19400832     0             -0.15569452    -0.013625252  
  29590000   0.049386833   -0.18683643     0             -0.1477128     -0.00049866172
  29600000   0.054156129   -0.19180774     0             -0.14890593     0.0094393751 
  29610000   0.0530157     -0.18802707     0             -0.1460287      0.006101665  
  29620000   0.046935646   -0.19146988     0             -0.15428805    -0.0010097587 
  29630000   0.043759988   -0.19407081     0             -0.15940469    -0.0028763821 
  29640000   0.04732978    -0.19542682     0             -0.15793276     0.057391169  
  29650000   0.051593105   -0.19986693     0             -0.15899552    -0.015882683  
  29660000   0.0478069     -0.19525648     0             -0.15738445     0.027815954  
  29670000   0.053861504   -0.19748787     0             -0.15481946    -0.029093081  
  29680000   0.050299191   -0.19273011     0             -0.15288372     0.0039429866 
  29690000   0.044902607   -0.1937855      0             -0.15821422    -0.0040738565 
  29700000   0.050405047   -0.19029284     0             -0.15036259     0.011625657  
  29710000   0.048582304   -0.19399949     0             -0.1555132      0.023758743  
  29720000   0.053088978   -0.2001181      0             -0.15806167     0.016489948  
  29730000   0.049624359   -0.19737606     0             -0.15806426    -0.0032815107 
  29740000   0.049863385   -0.19126977     0             -0.15176861     0.0068799272 
  29750000   0.0497153     -0.19153204     0             -0.1521482      0.035511152  
  29760000   0.050072281   -0.19678117     0             -0.15711453     0.0029641054 
  29770000   0.050208566   -0.1951309      0             -0.15535631     0.0099081686 
  29780000   0.051669028   -0.20133184     0             -0.16040029     0.017423734  
  29790000   0.046725896   -0.20096491     0             -0.16394924    -0.019873633  
  29800000   0.046224049   -0.20495562     0             -0.16833751    -0.0074040184 
  29810000   0.049688037   -0.20375299     0             -0.16439075     0.021942649  
  29820000   0.051378266   -0.20104707     0             -0.16034585    -0.002805809  
  29830000   0.053792643   -0.19747996     0             -0.1548661      0.049044092  
  29840000   0.051381444   -0.19858992     0             -0.15788618    -0.00079325004
  29850000   0.048463632   -0.19415964     0             -0.15576735     0.044047621  
  29860000   0.048051728   -0.20173736     0             -0.16367138     0.01289875   
  29870000   0.05303097    -0.1985536      0             -0.15654313     0.020232441  
  29880000   0.051316459   -0.19837856     0             -0.1577263     -0.02474138   
  29890000   0.051433636   -0.19299709     0             -0.152252       0.036790804  
  29900000   0.048027438   -0.19240133     0             -0.15435459     0.042043023  
  29910000   0.049060802   -0.19314225     0             -0.15427689    -0.0028967815 
  29920000   0.050178835   -0.19015738     0             -0.15040633     0.023020234  
  29930000   0.049493463   -0.19216337     0             -0.15295526     0.019191461  
  29940000   0.046266045   -0.18515908     0             -0.1485077     -0.0024870452 
  29950000   0.053873446   -0.19060589     0             -0.14792801     0.010176868  
  29960000   0.051641455   -0.18920201     0             -0.14829229     0.019550769  
  29970000   0.052533565   -0.18736279     0             -0.14574636    -0.0075440052 
  29980000   0.051442795   -0.1956926      0             -0.15494026    -0.012147887  
  29990000   0.053826559   -0.19154419     0             -0.14890346     0.0014375286 
  30000000   0.04873352    -0.19507212     0             -0.15646604    -0.00047143117
  30010000   0.051167787   -0.20051231     0             -0.15997783    -0.016611286  
  30020000   0.048868835   -0.1995799      0             -0.16086662     0.0035681654 
  30030000   0.057038755   -0.19709869     0             -0.15191331    -0.028312076  
  30040000   0.047372341   -0.20075821     0             -0.16323043    -0.0057057479 
  30050000   0.049113598   -0.1987569      0             -0.15984972    -0.016158336  
  30060000   0.050712088   -0.19403046     0             -0.15385697    -0.0017548776 
  30070000   0.049908156   -0.19008399     0             -0.15054737    -0.0076421926 
  30080000   0.055000944   -0.19420033     0             -0.15062927     0.001174253  
  30090000   0.053174326   -0.18738893     0             -0.1452649      0.00045874564
  30100000   0.052648285   -0.19382728     0             -0.15211996     0.003452688  
  30110000   0.053448188   -0.19409646     0             -0.15175548     0.010258756  
  30120000   0.046388972   -0.19375694     0             -0.15700818     0.029667826  
  30130000   0.043106885   -0.19476614     0             -0.1606174     -0.02779497   
  30140000   0.053274555   -0.19676671     0             -0.15456327    -0.014086017  
  30150000   0.052312765   -0.19419402     0             -0.1527525     -0.014123526  
  30160000   0.047793528   -0.19482902     0             -0.15696759     0.032586693  
  30170000   0.046148503   -0.19490576     0             -0.15834749     0.016843196  
  30180000   0.049405818   -0.19107063     0             -0.15193196    -0.017642322  
  30190000   0.045538848   -0.1995837      0             -0.16350839     0.01051022   
  30200000   0.052770541   -0.19819359     0             -0.15638942    -0.0027848338 
  30210000   0.052852013   -0.1979387      0             -0.15607        0.0039465179 
  30220000   0.057033108   -0.19780571     0             -0.15262479    -0.0094157163 
  30230000   0.048390525   -0.19499679     0             -0.15666242    -0.004851036  
  30240000   0.045233694   -0.20026338     0             -0.16442981    -0.021245955  
  30250000   0.047413194   -0.19611282     0             -0.15855268     0.0011700573 
  30260000   0.048750326   -0.19901385     0             -0.16039445     0.0060263011 
  30270000   0.048618632   -0.20341285     0             -0.16489777     0.029280596  
  30280000   0.052434517   -0.20479754     0             -0.16325957     0.00044208508
  30290000   0.049901807   -0.201115       0             -0.16158342    -0.02001482   
  30300000   0.048540446   -0.20032307     0             -0.16186993     0.0023157292 
  30310000   0.049125108   -0.19290947     0             -0.15399317     0.037714176  
  30320000   0.058980138   -0.1880276      0             -0.14130427    -0.011718875  
  30330000   0.050785453   -0.1939823      0             -0.1537507      0.0041570467 
  30340000   0.054939049   -0.19080291     0             -0.14728088    -0.002032694  
  30350000   0.04834162    -0.19689019     0             -0.15859456    -0.0094256643 
  30360000   0.055717538   -0.19843275     0             -0.15429401    -0.013630856  
  30370000   0.049492277   -0.20324728     0             -0.16404011     0.0092945612 
  30380000   0.049475558   -0.20161373     0             -0.16241981     0.045030314  
  30390000   0.05590437    -0.20569046     0             -0.16140372    -0.01579619   
  30400000   0.048126328   -0.20443945     0             -0.16631437    -0.0083661945 
  30410000   0.052904811   -0.20414741     0             -0.16223688    -0.0063560308 
  30420000   0.046064334   -0.19895278     0             -0.16246119    -0.012391975  
  30430000   0.047254323   -0.20546853     0             -0.16803424     0.017609327  
  30440000   0.054174501   -0.19912131     0             -0.15620495    -0.013699976  
  30450000   0.05026658    -0.20228728     0             -0.16246672     0.016881963  
  30460000   0.052629743   -0.19998299     0             -0.15829037    -0.026384922  
  30470000   0.050944021   -0.19720103     0             -0.15684382     0.016249668  
  30480000   0.049997707   -0.19701473     0             -0.15740717     0.0044468488 
  30490000   0.055150214   -0.19726015     0             -0.15357084    -0.0026334692 
  30500000   0.046071761   -0.19979599     0             -0.16329851    -0.0017660422 
  30510000   0.04860508    -0.1942495      0             -0.15574517     0.0009029554 
  30520000   0.043699541   -0.1935641      0             -0.15894587    -0.00068354424
  30530000   0.052149963   -0.20144841     0             -0.16013586     0.032860757  
  30540000   0.047431399   -0.2025942      0             -0.16501964    -0.0241607    
  30550000   0.04889509    -0.20258381     0             -0.16384973     0.021550074  
  30560000   0.050238019   -0.20686247     0             -0.16706454    -0.017787242  
  30570000   0.047898495   -0.19733304     0             -0.15938845    -0.025913267  
  30580000   0.047643365   -0.20485831     0             -0.16711583    -0.017764087  
  30590000   0.049494102   -0.20340239     0             -0.16419378     0.0046971906 
  30600000   0.047144939   -0.20096318     0             -0.16361555    -0.01830574   
  30610000   0.046329242   -0.1983347      0             -0.16163326     0.0028849702 
  30620000   0.045315733   -0.19715012     0             -0.16125156    -0.015947325  
  30630000   0.047422316   -0.19733548     0             -0.15976811     0.0015612977 
  30640000   0.053898443   -0.19539857     0             -0.1527009     -0.011716359  
  30650000   0.052948558   -0.20532815     0             -0.16338297     0.001705976  
  30660000   0.050712998   -0.19468655     0             -0.15451235    -0.0037396487 
  30670000   0.047552956   -0.19897613     0             -0.16130528    -0.014212953  
  30680000   0.052098147   -0.19257294     0             -0.15130143     0.00271441   
  30690000   0.051798705   -0.19232012     0             -0.15128584     0.017202075  
  30700000   0.048989212   -0.19643007     0             -0.15762143    -0.022078812  
  30710000   0.049666603   -0.20184605     0             -0.16250079    -0.0071594147 
  30720000   0.050153301   -0.20171948     0             -0.16198866     0.029514881  
  30730000   0.045053491   -0.19441381     0             -0.158723      -0.0053658648 
  30740000   0.047361175   -0.1920302      0             -0.15451127    -0.042068149  
  30750000   0.047605569   -0.19664001     0             -0.15892747     0.0019931846 
  30760000   0.050613731   -0.19521371     0             -0.15511815    -0.0028486671 
  30770000   0.050280462   -0.185311       0             -0.14547945    -0.0074901115 
  30780000   0.049687442   -0.18414208     0             -0.14478031     0.0078123934 
  30790000   0.051327746   -0.18832824     0             -0.14766704    -0.015693002  
  30800000   0.051163084   -0.19184718     0             -0.15131642    -0.017710929  
  30810000   0.046663625   -0.19725669     0             -0.16029035     0.028918511  
  30820000   0.058203547   -0.19283052     0             -0.1467224     -0.0040046885 
  30830000   0.049696958   -0.19480246     0             -0.15543315     0.014517981  
  30840000   0.049507697   -0.18783235     0             -0.14861297    -0.00069695128
  30850000   0.050193628   -0.19474227     0             -0.15497951     0.022069798  
  30860000   0.047711507   -0.18781977     0             -0.15002332    -0.012879478  
  30870000   0.049207694   -0.19220531     0             -0.15322359     0.0024737806 
  30880000   0.053906981   -0.1903921      0             -0.14768767     0.0080570812 
  30890000   0.047685423   -0.18617263     0             -0.14839683    -0.0051781386 
  30900000   0.056457127   -0.18386662     0             -0.13914199     0.0008042378 
  30910000   0.052396684   -0.19024637     0             -0.14873838    -0.02911577   
  30920000   0.051495426   -0.17981508     0             -0.13902105     0.0043991032 
  30930000   0.052223271   -0.18632949     0             -0.14495887     0.013102937  
  30940000   0.053752802   -0.17694973     0             -0.13436744    -0.016701928  
  30950000   0.050429971   -0.18248827     0             -0.14253828    -0.00036625494
  30960000   0.043105856   -0.17696572     0             -0.1428178      0.021698871  
  30970000   0.051889194   -0.18033127     0             -0.1392253      0.014118942  
  30980000   0.048058099   -0.17772379     0             -0.13965277    -0.00021536381
  30990000   0.050647843   -0.17610362     0             -0.13598103     0.010350084  
  31000000   0.052801104   -0.17217896     0             -0.13035059    -0.003213016  
  31010000   0.051380453   -0.17651725     0             -0.1358143      0.011571413  
  31020000   0.054225268   -0.17668097     0             -0.13372439     0.017546733  
  31030000   0.045768361   -0.18059657     0             -0.14433945    -0.0011835027 
  31040000   0.050637069   -0.18072985     0             -0.14061579     0.0015699834 
  31050000   0.048606505   -0.173794       0             -0.13528854     0.0083533174 
  31060000   0.054010592   -0.17882968     0             -0.13604316     0.01494041   
  31070000   0.047234935   -0.17784761     0             -0.14042869    -0.0024193394 
  31080000   0.051271998   -0.17492958     0             -0.13431254    -0.0006715833 
  31090000   0.04911537    -0.17419071     0             -0.13528213    -0.010374599  
  31100000   0.04787116    -0.18695533     0             -0.14903239    -0.007150842  
  31110000   0.044653354   -0.18364899     0             -0.14827516    -0.013570198  
  31120000   0.05266491    -0.18088353     0             -0.13916305    -0.013980471  
  31130000   0.046960604   -0.17992301     0             -0.14272141    -0.0038050781 
  31140000   0.0549079     -0.17838209     0             -0.13488474     0.00072683903
  31150000   0.054517584   -0.17640693     0             -0.13321879     0.014414861  
  31160000   0.046642893   -0.17787028     0             -0.14092037    -0.013575709  
  31170000   0.049753783   -0.17396918     0             -0.13455485     0.032520259  
  31180000   0.049136598   -0.1832794      0             -0.144354       0.019804272  
  31190000   0.056795824   -0.18493339     0             -0.13994045    -0.013146721  
  31200000   0.047497675   -0.18314928     0             -0.14552222    -0.0073400903 
  31210000   0.047277541   -0.18419133     0             -0.14673866    -0.0011709313 
  31220000   0.053459946   -0.18190407     0             -0.13955377     0.028350148  
  31230000   0.049333268   -0.1819325      0             -0.1428513     -0.017296401  
  31240000   0.04977374    -0.18065065     0             -0.14122051    -0.032300182  
  31250000   0.049130825   -0.18799735     0             -0.14907653     0.032841308  
  31260000   0.050169569   -0.19093        0             -0.15118629    -0.01224764   
  31270000   0.050732143   -0.18721535     0             -0.14702598     0.006322506  
  31280000   0.051331699   -0.18751548     0             -0.14685115    -0.0092167012 
  31290000   0.046313213   -0.19326125     0             -0.1565725     -0.011344953  
  31300000   0.051093921   -0.18869373     0             -0.14821776     0.010403171  
  31310000   0.046559941   -0.18983102     0             -0.15294682     0.0021885938 
  31320000   0.052315199   -0.19650355     0             -0.1550601     -0.025272757  
  31330000   0.046964179   -0.18420812     0             -0.14700368    -0.031525106  
  31340000   0.050583512   -0.19008058     0             -0.15000896     0.0049557293 
  31350000   0.05165432    -0.1914663      0             -0.1505464     -0.0063889369 
  31360000   0.049735527   -0.18941769     0             -0.15001782     0.001469926  
  31370000   0.05109169    -0.19181146     0             -0.15133726    -0.031892749  
  31380000   0.052231368   -0.19104794     0             -0.1496709     -0.0093775105 
  31390000   0.050182023   -0.19268198     0             -0.15292841    -0.0023040627 
  31400000   0.048878174   -0.19672336     0             -0.15800268     0.0048791187 
  31410000   0.050195421   -0.19830098     0             -0.15853679    -0.010157968  
  31420000   0.048654368   -0.18783989     0             -0.1492965      0.013237665  
  31430000   0.050505858   -0.19184543     0             -0.15183532     0.005136258  
  31440000   0.048852465   -0.19200393     0             -0.15330362     0.015238905  
  31450000   0.049000332   -0.18884895     0             -0.1500315     -0.00092694385
  31460000   0.048287828   -0.19752474     0             -0.15927172     0.028495602  
  31470000   0.045970536   -0.19469577     0             -0.15827849     0.018623769  
  31480000   0.050861521   -0.18763277     0             -0.1473409      0.024677532  
  31490000   0.048180355   -0.19161867     0             -0.1534508      0.012294846  
  31500000   0.046992343   -0.18906485     0             -0.1518381     -0.0091180229 
  31510000   0.05221243    -0.19456994     0             -0.1532079     -0.039393648  
  31520000   0.053701014   -0.19549174     0             -0.15295046     0.011140785  
  31530000   0.050160249   -0.19077409     0             -0.15103777    -0.017072356  
  31540000   0.053937371   -0.19272221     0             -0.1499937      0.024520725  
  31550000   0.047352055   -0.19131325     0             -0.15380155     0.010833196  
  31560000   0.044336645   -0.18763467     0             -0.15251173     0.025454064  
  31570000   0.049800886   -0.18452707     0             -0.14507543     0.010448054  
  31580000   0.052357496   -0.19588918     0             -0.15441222     0.0036162452 
  31590000   0.053221438   -0.19645865     0             -0.15429729    -0.011449367  
  31600000   0.045177177   -0.19909321     0             -0.16330442    -0.0080409535 
  31610000   0.04867417    -0.19087985     0             -0.15232078     0.020039523  
  31620000   0.053588455   -0.19390164     0             -0.15144954     0.030334009  
  31630000   0.053463452   -0.19211371     0             -0.14976063    -0.033213466  
  31640000   0.060459224   -0.19500876     0             -0.14711371    -0.0097427839 
  31650000   0.049636682   -0.19399409     0             -0.15467253     0.044410017  
  31660000   0.044887718   -0.19511644     0             -0.15955695    -0.017294934  
  31670000   0.051431934   -0.19603854     0             -0.15529481     0.031507739  
  31680000   0.049593095   -0.19867109     0             -0.15938406    -0.01164449   
  31690000   0.047678508   -0.19842097     0             -0.16065065    -0.041389252  
  31700000   0.044481906   -0.19194354     0             -0.15670553     0.0062742357 
  31710000   0.056086365   -0.1952385      0             -0.15080758     0.014888667  
  31720000   0.051944224   -0.19423421     0             -0.15308465    -0.0081690661 
  31730000   0.054029235   -0.19918902     0             -0.15638773     0.0033220159 
  31740000   0.050401878   -0.20055214     0             -0.1606244      0.012233391  
  31750000   0.046750378   -0.20287169     0             -0.16583663    -0.0040194128 
  31760000   0.048157247   -0.19452684     0             -0.15637727    -0.029264349  
  31770000   0.052795691   -0.18831942     0             -0.14649533     0.022557924  
  31780000   0.048996573   -0.19059817     0             -0.1517837     -0.0055097986 
  31790000   0.055780913   -0.19042171     0             -0.14623277     0.0028903389 
  31800000   0.047024244   -0.19065707     0             -0.15340505     0.0065178187 
  31810000   0.056341312   -0.18279686     0             -0.13816398     0.0046561754 
  31820000   0.058964546   -0.19021994     0             -0.14350897    -0.023171799  
  31830000   0.051489994   -0.19187758     0             -0.15108785     0.0032098052 
  31840000   0.051503176   -0.19366523     0             -0.15286506    -0.014609648  
  31850000   0.048753012   -0.19262679     0             -0.15400526    -0.027699004  
  31860000   0.048641851   -0.18790344     0             -0.14936998     0.00130721   
  31870000   0.05508985    -0.19537723     0             -0.15173574     0.0028223041 
  31880000   0.049319551   -0.18775102     0             -0.14868068    -0.033809995  
  31890000   0.049404791   -0.19016658     0             -0.15102873    -0.012532524  
  31900000   0.055531084   -0.18622188     0             -0.14223085    -0.0061773046 
  31910000   0.054546638   -0.18663768     0             -0.14342651     0.0013948716 
  31920000   0.050591522   -0.19030409     0             -0.15022612    -0.023398273  
  31930000   0.049211277   -0.18913605     0             -0.15015149    -0.0036989595 
  31940000   0.047453432   -0.1857798      0             -0.14818779     0.020283303  
  31950000   0.051610324   -0.18769986     0             -0.14681481     0.02750358   
  31960000   0.047712836   -0.18727071     0             -0.14947319    -0.011305336  
  31970000   0.053127893   -0.17938981     0             -0.13730255     0.0038633853 
  31980000   0.047058548   -0.17880472     0             -0.14152553     0.027952007  
  31990000   0.053817219   -0.17966579     0             -0.13703246    -0.014107197  
  32000000   0.045747365   -0.17265842     0             -0.13641793     0.024704554  
  32010000   0.049182136   -0.17615692     0             -0.13719545     0.03161685   
  32020000   0.045718513   -0.17679125     0             -0.14057362     0.014686914  
  32030000   0.053699734   -0.1869944      0             -0.14445414     0.010999064  
  32040000   0.043489091   -0.1848248      0             -0.15037328    -0.00093560254
  32050000   0.053745961   -0.18108383     0             -0.13850696    -0.024263186  
  32060000   0.04723068    -0.18485002     0             -0.14743447    -0.0088646007 
  32070000   0.049467976   -0.18485588     0             -0.14566797     0.020410134  
  32080000   0.05030681    -0.18570411     0             -0.14585169     0.023585909  
  32090000   0.050664579   -0.17649513     0             -0.13635928    -0.010134452  
  32100000   0.049548889   -0.18717321     0             -0.1479212      0.0059327747 
  32110000   0.050970747   -0.18975327     0             -0.14937488     0.020697367  
  32120000   0.046002256   -0.19080667     0             -0.15436426     0.028005305  
  32130000   0.051088056   -0.19253156     0             -0.15206024    -0.012060439  
  32140000   0.048827217   -0.19682538     0             -0.15814506    -0.01542506   
  32150000   0.049373558   -0.19152582     0             -0.15241271     0.021137681  
  32160000   0.047958376   -0.19488259     0             -0.15689057    -0.0077683933 
  32170000   0.053368736   -0.19161104     0             -0.149333       0.015493108  
  32180000   0.050623634   -0.19495366     0             -0.15485025     0.0069384746 
  32190000   0.052798136   -0.19167016     0             -0.14984414    -0.023647701  
  32200000   0.053445415   -0.18653031     0             -0.14419152     0.024451396  
  32210000   0.04856409    -0.19192744     0             -0.15345558    -0.018227089  
  32220000   0.052898283   -0.19305824     0             -0.15115288     0.03285632   
  32230000   0.053235964   -0.19073062     0             -0.14855775     0.027897451  
  32240000   0.049367155   -0.19407539     0             -0.15496735    -0.00012348781
  32250000   0.051661298   -0.19648189     0             -0.15555646     0.012638274  
  32260000   0.056184746   -0.19928318     0             -0.15477433    -0.01570781   
  32270000   0.048562762   -0.19779645     0             -0.15932564     0.0084713227 
  32280000   0.051153251   -0.20019693     0             -0.15967397    -0.024234218  
  32290000   0.049412299   -0.19891773     0             -0.15977392    -0.0040836016 
  32300000   0.05197841    -0.19878282     0             -0.15760617    -0.0046483822 
  32310000   0.051190722   -0.1956559      0             -0.15510325    -0.0037737347 
  32320000   0.050573332   -0.20010728     0             -0.16004372    -0.0039553739 
  32330000   0.048020305   -0.19466538     0             -0.15662429    -0.018525037  
  32340000   0.052546704   -0.19886189     0             -0.15723504     0.022316016  
  32350000   0.049687555   -0.19195813     0             -0.15259627     0.004151976  
  32360000   0.050969318   -0.19769911     0             -0.15732186     0.0075878441 
  32370000   0.046287291   -0.19582469     0             -0.15915648    -0.0090593357 
  32380000   0.048056561   -0.19579403     0             -0.15772423     0.0092815369 
  32390000   0.049678438   -0.20584498     0             -0.16649034     0.0037383109 
  32400000   0.051416926   -0.20852063     0             -0.16778878    -0.014989298  
  32410000   0.048604704   -0.19826052     0             -0.15975648     0.02510242   
  32420000   0.055909133   -0.201689       0             -0.15739848    -0.011595764  
  32430000   0.051807005   -0.20078257     0             -0.15974171     0.021424325  
  32440000   0.049601063   -0.19821538     0             -0.15892204     0.010085225  
  32450000   0.04825037    -0.19288122     0             -0.15465788    -0.0089414995 
  32460000   0.049712317   -0.20333305     0             -0.16395158    -0.0027536316 
  32470000   0.048541131   -0.19530823     0             -0.15685456    -0.032117287  
  32480000   0.050371024   -0.20186268     0             -0.16195938     0.012633837  
  32490000   0.04815514    -0.20154828     0             -0.16340038    -0.014982987  
  32500000   0.047024445   -0.19327535     0             -0.15602317     0.023117784  
  32510000   0.047310742   -0.18894248     0             -0.1514635     -0.0059288291 
  32520000   0.048482345   -0.19274318     0             -0.15433607    -0.0017048347 
  32530000   0.048090387   -0.1964598      0             -0.1583632      0.0052961575 
  32540000   0.050244386   -0.20205537     0             -0.16225239     0.013589344  
  32550000   0.05545577    -0.19857752     0             -0.15464615    -0.029201049  
  32560000   0.053748969   -0.19893151     0             -0.15635225    -0.010069778  
  32570000   0.046819399   -0.20006013     0             -0.16297038    -0.0028010673 
  32580000   0.052985946   -0.20202937     0             -0.16005457     0.0016813291 
  32590000   0.043974132   -0.20270334     0             -0.16786758     0.0070505338 
  32600000   0.048902174   -0.20155727     0             -0.16281758    -0.026524951  
  32610000   0.048391576   -0.20560901     0             -0.16727381     0.01392507   
  32620000   0.042309157   -0.20278126     0             -0.16926448    -0.010594431  
  32630000   0.050955038   -0.19946564     0             -0.15909969    -0.0084969848 
  32640000   0.049233369   -0.2006894      0             -0.16168734     0.032662699  
  32650000   0.052410106   -0.20137246     0             -0.15985383     0.0091099029 
  32660000   0.055584774   -0.2030591      0             -0.15902554     0.0027094659 
  32670000   0.056213415   -0.20575485     0             -0.16122329     0.0098656638 
  32680000   0.052424016   -0.20456785     0             -0.1630382      0.0043062494 
  32690000   0.04900933    -0.20521716     0             -0.16639258    -0.0039462964 
  32700000   0.054070749   -0.20304264     0             -0.16020847     0.020550565  
  32710000   0.048964014   -0.19638468     0             -0.157596       0.0073275507 
  32720000   0.050065998   -0.19280774     0             -0.15314608     0.00033810576
  32730000   0.053280064   -0.20146982     0             -0.15926202     0.021119141  
  32740000   0.053053303   -0.19608101     0             -0.15405284    -0.014952828  
  32750000   0.047546593   -0.20387259     0             -0.16620677    -0.016522481  
  32760000   0.050350949   -0.20029942     0             -0.16041203    -0.0086337933 
  32770000   0.05031653    -0.20777771     0             -0.16791759     0.011043236  
  32780000   0.05061296    -0.20208876     0             -0.1619938      0.018744253  
  32790000   0.051285055   -0.20312734     0             -0.16249996    -0.02017635   
  32800000   0.042798051   -0.20050699     0             -0.16660291    -0.0094817484 
  32810000   0.053400968   -0.20513047     0             -0.16282689     0.016901318  
  32820000   0.055384345   -0.1993474      0             -0.15547261     0.005485851  
  32830000   0.050484879   -0.20064939     0             -0.1606559     -0.0094543744 
  32840000   0.046622287   -0.19754867     0             -0.16061508     0.0014466036 
  32850000   0.04851201    -0.1919609      0             -0.15353029    -0.0053000983 
  32860000   0.047347372   -0.19757976     0             -0.16007176    -0.00049146682
  32870000   0.050678011   -0.18994836     0             -0.14980188    -0.0070620774 
  32880000   0.051216055   -0.20082461     0             -0.16025189    -0.016149727  
  32890000   0.045503405   -0.20040572     0             -0.16435849     0.0019311607 
  32900000   0.053947914   -0.20010639     0             -0.15736952    -0.020234743  
  32910000   0.050354008   -0.19824937     0             -0.15835956     0.0051513251 
  32920000   0.051214091   -0.19436602     0             -0.15379486     0.010303651  
  32930000   0.049526481   -0.19618525     0             -0.15695099    -0.00017942301
  32940000   0.052097978   -0.19974976     0             -0.15847839    -0.015292949  
  32950000   0.047510955   -0.19909339     0             -0.1614558     -0.01262411   
  32960000   0.04613962    -0.19753886     0             -0.16098763    -0.011263504  
  32970000   0.052302798   -0.1965193      0             -0.15508568    -0.015040324  
  32980000   0.049324087   -0.19909886     0             -0.16002493    -0.0018592186 
  32990000   0.05061131    -0.19803932     0             -0.15794568    -0.01863225   
  33000000   0.055112619   -0.19924947     0             -0.15558994    -0.0084464875 
  33010000   0.05057005    -0.19615599     0             -0.15609503    -0.013992264  
  33020000   0.051718528   -0.19880054     0             -0.15782976     0.00031766328
  33030000   0.052460867   -0.19423979     0             -0.15268095     0.023314037  
  33040000   0.049671848   -0.1965363      0             -0.15718688    -0.0031073724 
  33050000   0.048106406   -0.19864658     0             -0.16053728     0.0060383954 
  33060000   0.047116449   -0.20030618     0             -0.16298111    -0.002555723  
  33070000   0.04866953    -0.20313356     0             -0.16457817    -0.015350681  
  33080000   0.049031385   -0.19459058     0             -0.15574853    -0.018045961  
  33090000   0.048835494   -0.19756711     0             -0.15888024    -0.0017718386 
  33100000   0.051932079   -0.20022079     0             -0.15908084    -0.015248814  
  33110000   0.056539325   -0.20402994     0             -0.1592402      0.0021694386 
  33120000   0.048013525   -0.20040678     0             -0.16237107    -0.0080393398 
  33130000   0.047283426   -0.20046484     0             -0.1630075     -0.012651255  
  33140000   0.047615661   -0.19815552     0             -0.16043499     0.0015786317 
  33150000   0.049391722   -0.20212386     0             -0.16299635    -0.011474299  
  33160000   0.046099874   -0.20014485     0             -0.1636251     -0.014885284  
  33170000   0.058532748   -0.19928087     0             -0.15291196    -0.0039123259 
  33180000   0.052483068   -0.19597309     0             -0.15439666    -0.010624362  
  33190000   0.048520817   -0.19225624     0             -0.15381865    -0.0017090194 
  33200000   0.047465196   -0.19505597     0             -0.15745464     0.0091914385 
  33210000   0.051438691   -0.19357055     0             -0.15282147     0.026283104  
  33220000   0.050028806   -0.19793879     0             -0.1583066     -0.013750532  
  33230000   0.048501708   -0.19154725     0             -0.15312481     0.020065778  
  33240000   0.049037334   -0.19757623     0             -0.15872946    -0.0081577602 
  33250000   0.046544154   -0.19790489     0             -0.16103319     0.0029572701 
  33260000   0.046000961   -0.19767663     0             -0.16123524    -0.0091310353 
  33270000   0.053163054   -0.19387905     0             -0.15176394     0.012999212  
  33280000   0.048574006   -0.19093647     0             -0.15245675     0.01445614   
  33290000   0.049230301   -0.20033211     0             -0.16133248    -0.0021693502 
  33300000   0.051637889   -0.20163333     0             -0.16072644    -0.00067308364
  33310000   0.052816396   -0.18712717     0             -0.14528668     0.0071464567 
  33320000   0.045769076   -0.20400495     0             -0.16774726    -0.0029132558 
  33330000   0.049777915   -0.20114782     0             -0.16171438     0.023977831  
  33340000   0.049798467   -0.2007672      0             -0.16131748     0.0081826619 
  33350000   0.047195723   -0.19647844     0             -0.15909058    -0.0057610246 
  33360000   0.049142207   -0.19035268     0             -0.15142283    -0.003624691  
  33370000   0.044845331   -0.19609806     0             -0.16057215    -0.037615988  
  33380000   0.047615648   -0.19634625     0             -0.15862573    -0.019291621  
  33390000   0.05323084    -0.19762225     0             -0.15545344    -0.0049564311 
  33400000   0.056409464   -0.19688526     0             -0.15219839     0.0016988459 
  33410000   0.050193442   -0.19231842     0             -0.1525558      0.0011724444 
  33420000   0.050140947   -0.19757032     0             -0.15784928    -0.030049496  
  33430000   0.053348083   -0.19835278     0             -0.15609109     0.0099921831 
  33440000   0.047739394   -0.19937263     0             -0.16155408    -0.019240222  
  33450000   0.049604562   -0.20331759     0             -0.16402148    -0.00057595799
  33460000   0.044839505   -0.20142126     0             -0.16589996    -0.010706646  
  33470000   0.047609279   -0.20488243     0             -0.16716695     0.0044350225 
  33480000   0.049620483   -0.19174674     0             -0.15243801    -0.02724559   
  33490000   0.051913856   -0.19146207     0             -0.15033657     0.014974295  
  33500000   0.050855795   -0.19939385     0             -0.15910652    -0.010390602  
  33510000   0.048808917   -0.19752387     0             -0.15885806     0.0174018    
  33520000   0.052311022   -0.18924867     0             -0.14780853    -0.0030180836 
  33530000   0.04744749    -0.18727951     0             -0.1496922      0.0068450473 
  33540000   0.047787316   -0.18961416     0             -0.15175765     0.011901093  
  33550000   0.050721476   -0.19485253     0             -0.15467161     0.0040821764 
  33560000   0.051929514   -0.19319405     0             -0.15205613     0.0085983534 
  33570000   0.049866843   -0.19762672     0             -0.15812283    -0.0084043903 
  33580000   0.056656278   -0.18795814     0             -0.14307575     0.023894115  
  33590000   0.048733428   -0.19278184     0             -0.15417583    -0.0064928238 
  33600000   0.047133909   -0.19469057     0             -0.15735167     0.0065882695 
  33610000   0.052487314   -0.18845502     0             -0.14687522    -0.008818598  
  33620000   0.048201738   -0.19134873     0             -0.15316392    -0.01155889   
  33630000   0.050777555   -0.1924992      0             -0.15227386    -0.055135852  
  33640000   0.049383591   -0.1887329      0             -0.14961184     0.020041838  
  33650000   0.044926746   -0.18626451     0             -0.1506741     -0.017973765  
  33660000   0.053765198   -0.19696123     0             -0.15436911     0.0096603046 
  33670000   0.048328984   -0.19689413     0             -0.15860851    -0.015328435  
  33680000   0.052498521   -0.19703484     0             -0.15544616    -0.010741543  
  33690000   0.052556506   -0.20021827     0             -0.15858366    -0.03080379   
  33700000   0.04728066    -0.1984997      0             -0.16104456    -0.0051308323 
  33710000   0.049843061   -0.19507382     0             -0.15558877     0.00020373122
  33720000   0.050567499   -0.1963457      0             -0.15628676     0.01438518   
  33730000   0.046137717   -0.19488977     0             -0.15834005     0.004966482  
  33740000   0.049257609   -0.18202123     0             -0.14299997    -0.025899832  
  33750000   0.046251979   -0.18895455     0             -0.15231431    -0.0016315588 
  33760000   0.047970945   -0.19235806     0             -0.15435608     0.020833319  
  33770000   0.048355271   -0.19526333     0             -0.15695689    -0.028147954  
  33780000   0.04345288    -0.19499232     0             -0.16056949    -0.0078788025 
  33790000   0.04952685    -0.19737295     0             -0.1581384     -0.015152164  
  33800000   0.048213733   -0.20043406     0             -0.16223974    -0.019881183  
  33810000   0.051489582   -0.19048918     0             -0.14969977    -0.020324523  
  33820000   0.050919386   -0.19580629     0             -0.15546859    -0.02243326   
  33830000   0.050313394   -0.20047927     0             -0.16062163    -0.024881811  
  33840000   0.046273128   -0.19331502     0             -0.15665802     0.00052589673
  33850000   0.053862611   -0.18788292     0             -0.14521363     0.0069455301 
  33860000   0.04928814    -0.19602536     0             -0.15697992     0.00014960347
  33870000   0.05552094    -0.18626814     0             -0.14228515    -0.0031926794 
  33880000   0.047072565   -0.19633212     0             -0.15904182     0.032217457  
  33890000   0.052950633   -0.19193544     0             -0.14998862    -0.0011661565 
  33900000   0.04865313    -0.18871651     0             -0.15017411    -0.031203144  
  33910000   0.050606859   -0.17924747     0             -0.13915735    -0.0046663914 
  33920000   0.052866646   -0.18514562     0             -0.14326532     0.012763141  
  33930000   0.052728981   -0.19057064     0             -0.1487994      0.0038892271 
  33940000   0.055062489   -0.18509853     0             -0.14147871    -0.0086055174 
  33950000   0.046450514   -0.18990099     0             -0.15310347    -0.0057326225 
  33960000   0.056003515   -0.18723572     0             -0.14287044     0.01722004   
  33970000   0.054758328   -0.19243483     0             -0.14905597     0.017986411  
  33980000   0.053978055   -0.18614787     0             -0.14338713    -0.016054361  
  33990000   0.048605497   -0.18565838     0             -0.14715371    -0.036621398  
  34000000   0.046189732   -0.18634688     0             -0.14975595     0.0058699368 
  34010000   0.050507968   -0.18255399     0             -0.14254221     0.014217608  
  34020000   0.043347707   -0.18319054     0             -0.14885103    -0.00045514099
  34030000   0.055554949   -0.18378138     0             -0.13977144    -0.0078238615 
  34040000   0.045824877   -0.18613151     0             -0.14982961     0.003384492  
  34050000   0.053065791   -0.18803889     0             -0.14600084    -0.013979427  
  34060000   0.048521123   -0.18691108     0             -0.14847325     0.0093519036 
  34070000   0.051080305   -0.18963835     0             -0.14917317    -0.006661326  
  34080000   0.051955377   -0.18857708     0             -0.14741868    -0.0066998742 
  34090000   0.049775607   -0.18091932     0             -0.14148771     0.0043485333 
  34100000   0.047623224   -0.18657253     0             -0.14884601    -0.0095512119 
  34110000   0.051065625   -0.18068968     0             -0.14023613     0.0059710702 
  34120000   0.042495955   -0.1875303      0             -0.15386553    -0.020791485  
  34130000   0.044932463   -0.18554269     0             -0.14994775     0.0050545154 
  34140000   0.048145132   -0.18234534     0             -0.14420537    -0.026146111  
  34150000   0.05057923    -0.17616163     0             -0.13609339    -0.017092594  
  34160000   0.052928343   -0.1735769      0             -0.13164773     0.0083416211 
  34170000   0.052157925   -0.17456498     0             -0.13324613    -0.011039191  
  34180000   0.05458181    -0.18332388     0             -0.14008485     0.023554163  
  34190000   0.048479593   -0.1852953      0             -0.14689037    -0.0061643049 
  34200000   0.047823591   -0.1820949      0             -0.14420965     0.009629892  
  34210000   0.05560531    -0.19345279     0             -0.14940296    -0.0002685166 
  34220000   0.05049766    -0.1860331      0             -0.14602949     0.016449251  
  34230000   0.055787333   -0.18340954     0             -0.13921551    -0.0084789235 
  34240000   0.049299815   -0.18075167     0             -0.14169697     0.02268668   
  34250000   0.045826024   -0.1779335      0             -0.1416307      0.020571701  
  34260000   0.047578493   -0.18336765     0             -0.14567656     2.0995943e-05
  34270000   0.05448506    -0.18718734     0             -0.14402496    -0.013152463  
  34280000   0.049377645   -0.19253073     0             -0.15341438     0.030074338  
  34290000   0.046865666   -0.18672497     0             -0.14959858    -0.017262747  
  34300000   0.050683914   -0.19056105     0             -0.15040989     0.012881909  
  34310000   0.049467201   -0.1885952      0             -0.1494079      0.009057755  
  34320000   0.051372356   -0.19328897     0             -0.15259243     0.025644917  
  34330000   0.050319546   -0.19172218     0             -0.15185967     0.012866149  
  34340000   0.050854629   -0.19477783     0             -0.15449142     0.018442774  
  34350000   0.049666004   -0.19568288     0             -0.15633809     0.00297679   
  34360000   0.047955493   -0.19255864     0             -0.1545689     -0.0072606929 
  34370000   0.046984225   -0.18506657     0             -0.14784625     0.0010004496 
  34380000   0.049575366   -0.18434501     0             -0.14507202     0.0037090185 
  34390000   0.0519949     -0.18571209     0             -0.14452238     0.0024457587 
  34400000   0.04868815    -0.19202271     0             -0.15345256     0.0090626377 
  34410000   0.047579852   -0.18511425     0             -0.14742209     0.019794833  
  34420000   0.047019064   -0.18693575     0             -0.14968784     0.0083612562 
  34430000   0.048996463   -0.18875196     0             -0.14993757     0.029016654  
  34440000   0.045939469   -0.1925156      0             -0.15612293    -0.023697269  
  34450000   0.049889284   -0.18675008     0             -0.14722842    -0.019366707  
  34460000   0.050477435   -0.19056787     0             -0.15058028    -0.0048208762 
  34470000   0.050227493   -0.18488596     0             -0.14509637     0.013006772  
  34480000   0.048141098   -0.18752275     0             -0.14938598    -0.019373243  
  34490000   0.052804044   -0.18641001     0             -0.1445793     -0.0024953174 
  34500000   0.048567391   -0.18603756     0             -0.14756308     0.013753083  
  34510000   0.051745453   -0.18375122     0             -0.14275912     0.00093096902
  34520000   0.048140711   -0.18036316     0             -0.14222669     0.015245883  
  34530000   0.047817224   -0.17893431     0             -0.1410541      0.011014268  
  34540000   0.047775776   -0.17710267     0             -0.1392553      0.033967381  
  34550000   0.048995255   -0.18297751     0             -0.14416408     0.026556654  
  34560000   0.053524136   -0.1834387      0             -0.14103755     0.029197808  
  34570000   0.045024135   -0.18344451     0             -0.14777696    -0.012733657  
  34580000   0.05215887    -0.18295289     0             -0.14163329     0.016431797  
  34590000   0.050990981   -0.18221523     0             -0.14182081    -0.0048038312 
  34600000   0.05031489    -0.17379101     0             -0.13393218    -0.021250597  
  34610000   0.044543389   -0.1778045      0             -0.14251778    -0.022120195  
  34620000   0.050401779   -0.17802215     0             -0.1380945      0.040242974  
  34630000   0.0480845     -0.17987434     0             -0.1417824     -0.026600543  
  34640000   0.049343304   -0.17327927     0             -0.13419013    -0.0038566407 
  34650000   0.044576481   -0.18086205     0             -0.14554912     0.0030691412 
  34660000   0.048302659   -0.18482719     0             -0.14656243     0.00045915956
  34670000   0.048702535   -0.18610868     0             -0.14752714    -0.00090290934
  34680000   0.049801048   -0.18306861     0             -0.14361684    -0.0067831167 
  34690000   0.050482379   -0.1909059      0             -0.15091439    -0.0054322588 
  34700000   0.046909131   -0.19122116     0             -0.15406033     0.032058054  
  34710000   0.04649666    -0.19010916     0             -0.15327509     0.027160183  
  34720000   0.052463047   -0.17959502     0             -0.13803445    -0.026506978  
  34730000   0.056476769   -0.17831448     0             -0.13357429     0.00077774726
  34740000   0.048960495   -0.18479102     0             -0.14600513     0.012877146  
  34750000   0.049925228   -0.18803065     0             -0.14848051     0.0055779201 
  34760000   0.049705596   -0.18821304     0             -0.14883689     0.0017085446 
  34770000   0.057222075   -0.18748384     0             -0.14215323     0.01134913   
  34780000   0.052372418   -0.19158443     0             -0.15009566     0.0013533954 
  34790000   0.058258097   -0.19066329     0             -0.14451195    -0.01231796   
  34800000   0.05164925    -0.1900096      0             -0.14909371     0.022674045  
  34810000   0.056060889   -0.18698543     0             -0.14257469     0.034868502  
  34820000   0.05041577    -0.19348604     0             -0.15354729     0.016487032  
  34830000   0.052141846   -0.1860415      0             -0.14473538     0.00029501846
  34840000   0.048826979   -0.18888439     0             -0.15020427     0.011814677  
  34850000   0.048089006   -0.1897831      0             -0.15168759    -0.0098125832 
  34860000   0.053331464   -0.19453938     0             -0.15229086    -0.014342197  
  34870000   0.054675659   -0.18763345     0             -0.14432008     0.013249938  
  34880000   0.051363341   -0.1929106      0             -0.1522212     -0.011748313  
  34890000   0.055738003   -0.18515676     0             -0.14100181    -0.0033089492 
  34900000   0.049038205   -0.17703013     0             -0.13818267     0.013031837  
  34910000   0.051150553   -0.18155951     0             -0.14103868    -0.0052387065 
  34920000   0.0490921     -0.18259384     0             -0.14370369    -0.017409553  
  34930000   0.049543161   -0.18491593     0             -0.14566846     0.027890701  
  34940000   0.049491022   -0.18615265     0             -0.14694648    -0.0022214148 
  34950000   0.047542568   -0.18074372     0             -0.14308109     0.011140809  
  34960000   0.046301625   -0.18401599     0             -0.14733642    -0.014497023  
  34970000   0.052224299   -0.18509481     0             -0.14372338     0.0086880638 
  34980000   0.048338108   -0.17734886     0             -0.13905601    -0.00031951573
  34990000   0.052524023   -0.18272596     0             -0.14111709     0.016352244  
  35000000   0.058249199   -0.17950945     0             -0.13336516     0.0087799079 
  35010000   0.049525434   -0.18712719     0             -0.14789376    -0.0094979889 
  35020000   0.054449845   -0.1778885      0             -0.13475401    -0.012305475  
  35030000   0.049464129   -0.17119135     0             -0.13200648    -0.00011013426
  35040000   0.054388074   -0.17911215     0             -0.1360266     -0.0021599228 
  35050000   0.05220002    -0.17906544     0             -0.13771324    -0.0037295096 
  35060000   0.046596404   -0.18368535     0             -0.14677226    -0.022217124  
  35070000   0.043267032   -0.19199078     0             -0.15771518     0.0026641791 
  35080000   0.047951928   -0.18790483     0             -0.14991791     0.02943642   
  35090000   0.043687012   -0.19231554     0             -0.15770723     0.014833883  
  35100000   0.04837968    -0.1893217      0             -0.15099592    -0.018817583  
  35110000   0.04953527    -0.19471097     0             -0.15546975     0.013783843  
  35120000   0.047462806   -0.19137349     0             -0.15377404     0.0029771297 
  35130000   0.047891986   -0.18880035     0             -0.15086092     0.027988956  
  35140000   0.051702897   -0.193086       0             -0.15212761     0.02756893   
  35150000   0.049900224   -0.19196359     0             -0.15243326     0.012507479  
  35160000   0.043619166   -0.19176902     0             -0.15721446    -0.012220652  
  35170000   0.049982839   -0.18982993     0             -0.15023415     0.02244232   
  35180000   0.049757839   -0.1930206      0             -0.15360306     0.0072560474 
  35190000   0.055494064   -0.19398333     0             -0.15002162     0.0028272413 
  35200000   0.048986903   -0.18624111     0             -0.1474343     -0.0083899459 
  35210000   0.051671273   -0.18639548     0             -0.14546215    -0.0007880518 
  35220000   0.048646915   -0.19306566     0             -0.15452818     0.017265428  
  35230000   0.050252911   -0.19293308     0             -0.15312335     0.0022279716 
  35240000   0.048659478   -0.19380667     0             -0.15525924    -0.0039420162 
  35250000   0.053161417   -0.1869665      0             -0.14485269    -0.0084343174 
  35260000   0.051457159   -0.19183104     0             -0.15106733     0.0070202778 
  35270000   0.053883879   -0.1929563      0             -0.15027016    -0.038357829  
  35280000   0.0472849     -0.18810329     0             -0.15064479     0.023697319  
  35290000   0.050660486   -0.18564061     0             -0.14550801    -0.028408953  
  35300000   0.053980508   -0.18799812     0             -0.14523544     0.00079840418
  35310000   0.05293988    -0.18285132     0             -0.14091301    -0.00079222185
  35320000   0.047085896   -0.1838797      0             -0.14657885     0.020397908  
  35330000   0.047554884   -0.18278095     0             -0.14510857     0.0014504476 
  35340000   0.047698878   -0.18241767     0             -0.14463122     0.016405648  
  35350000   0.052577263   -0.18083964     0             -0.13918859     0.00049421802
  35360000   0.050380326   -0.18365654     0             -0.14374587    -0.014842003  
  35370000   0.052643319   -0.1898496      0             -0.14814622    -0.0050078273 
  35380000   0.046509464   -0.18491391     0             -0.14806969    -0.028577172  
  35390000   0.05239162    -0.18587831     0             -0.14437432     0.011774509  
  35400000   0.049281536   -0.18797971     0             -0.14893949    -0.01766173   
  35410000   0.050346793   -0.1861037      0             -0.1462196     -0.018877974  
  35420000   0.048087611   -0.18505978     0             -0.14696538    -0.012854065  
  35430000   0.045573719   -0.18800868     0             -0.15190575    -0.016722838  
  35440000   0.053351862   -0.18345936     0             -0.14119468    -0.046189314  
  35450000   0.055408744   -0.18311813     0             -0.13922401    -0.012825511  
  35460000   0.049865842   -0.1809411      0             -0.141438       0.014431065  
  35470000   0.047306579   -0.17925807     0             -0.14178238    -0.011668054  
  35480000   0.048448359   -0.18080781     0             -0.14242763     0.027999082  
  35490000   0.052790313   -0.1817342      0             -0.13991437     0.00070984659
  35500000   0.050829676   -0.18137133     0             -0.1411047     -0.015064474  
  35510000   0.048791122   -0.17870968     0             -0.14005796    -0.020092553  
  35520000   0.048588781   -0.17859691     0             -0.14010548    -0.015268706  
  35530000   0.053191899   -0.18442974     0             -0.14229179     0.00054507932
  35540000   0.052408332   -0.18256323     0             -0.14104601    -0.0034293741 
  35550000   0.052840993   -0.18354396     0             -0.14168399    -0.0088990723 
  35560000   0.049960929   -0.18851173     0             -0.1489333      0.002975135  
  35570000   0.060810492   -0.18341274     0             -0.13523943     0.01428636   
  35580000   0.047087754   -0.18373489     0             -0.14643256     0.0058830417 
  35590000   0.045785086   -0.18272692     0             -0.14645654    -0.0028351112 
  35600000   0.052272103   -0.17566388     0             -0.13425458    -0.0075564543 
  35610000   0.048889814   -0.17460585     0             -0.13587595    -0.0069243375 
  35620000   0.04901061    -0.17405743     0             -0.13523184     0.0048341358 
  35630000   0.044553516   -0.1795909      0             -0.14429616    -0.0043461237 
  35640000   0.052481512   -0.17807444     0             -0.13649924    -0.010431361  
  35650000   0.048355754   -0.16679368     0             -0.12848685    -0.018288889  
  35660000   0.050922954   -0.18040569     0             -0.14006516     0.0020807673 
  35670000   0.051490475   -0.18273844     0             -0.14194833    -0.012921912  
  35680000   0.05204799    -0.18560236     0             -0.1443706     -0.0020770988 
  35690000   0.050998419   -0.19187641     0             -0.1514761      0.011832722  
  35700000   0.048731656   -0.18227502     0             -0.14367041    -0.021472711  
  35710000   0.055957667   -0.18830105     0             -0.14397208     0.0066547816 
  35720000   0.050108147   -0.18358113     0             -0.14388608     0.0028272726 
  35730000   0.048628822   -0.17895334     0             -0.1404302     -0.030120746  
  35740000   0.052304204   -0.1764163      0             -0.13498156     0.0052733097 
  35750000   0.056736934   -0.18251288     0             -0.13756659     0.0056983776 
  35760000   0.046181064   -0.18703522     0             -0.15045116     0.00067327388
  35770000   0.047895413   -0.1904728      0             -0.15253066     0.0040984751 
  35780000   0.052190728   -0.18550838     0             -0.14416354     0.002777899  
  35790000   0.044751559   -0.18390806     0             -0.14845643     0.025277219  
  35800000   0.047697012   -0.17962168     0             -0.1418367     -0.012361334  
  35810000   0.052729758   -0.18542417     0             -0.14365231    -0.0099615415 
  35820000   0.051774516   -0.19024443     0             -0.1492293      0.0091593173 
  35830000   0.05221106    -0.18605445     0             -0.1446935     -0.0088290654 
  35840000   0.050886881   -0.1776974      0             -0.13738545     0.0041214953 
  35850000   0.040583132   -0.17845438     0             -0.14630493    -0.02488032   
  35860000   0.055104289   -0.17939385     0             -0.13574092    -0.033891937  
  35870000   0.052298523   -0.17884675     0             -0.13741651     0.031781895  
  35880000   0.053092304   -0.17833313     0             -0.13627407     0.0050749143 
  35890000   0.055969963   -0.17743159     0             -0.13309288    -0.01283341   
  35900000   0.050561445   -0.18120772     0             -0.14115357     0.02148175   
  35910000   0.048596452   -0.17522401     0             -0.13672651    -0.015920713  
  35920000   0.043716863   -0.18128757     0             -0.14665562    -0.01995173   
  35930000   0.048700112   -0.18287137     0             -0.14429175     0.014148691  
  35940000   0.04783188    -0.17684655     0             -0.13895473    -0.015788972  
  35950000   0.051818196   -0.1788793      0             -0.13782957     0.0084679043 
  35960000   0.049220783   -0.18331272     0             -0.14432063     0.00084186496
  35970000   0.047779329   -0.18654118     0             -0.148691      -0.0045115159 
  35980000   0.047676925   -0.17643184     0             -0.13866277     0.00083240882
  35990000   0.049321768   -0.18856336     0             -0.14949127     0.021113629  
  36000000   0.047239221   -0.18900765     0             -0.15158533    -0.016824197  
  36010000   0.052960855   -0.19588805     0             -0.15393313     0.012478991  
  36020000   0.054998202   -0.19691995     0             -0.15335106    -0.030202049  
  36030000   0.055602444   -0.19975472     0             -0.15570716     1.3369421e-05
  36040000   0.047201497   -0.19470457     0             -0.15731213     0.0097572859 
  36050000   0.049847671   -0.19496007     0             -0.15547136     0.0097548433 
  36060000   0.055739099   -0.19418315     0             -0.15002734     0.0017547299 
  36070000   0.04722732    -0.19631105     0             -0.15889816    -0.01434638   
  36080000   0.050382013   -0.19412412     0             -0.15421212     0.026595539  
  36090000   0.0529885     -0.18376938     0             -0.14179255     0.014125266  
  36100000   0.05170953    -0.18145265     0             -0.14048901    -0.0061098244 
  36110000   0.043252965   -0.18280663     0             -0.14854217    -0.011755169  
  36120000   0.047141986   -0.1829045      0             -0.14555921    -0.0071049464 
  36130000   0.053334079   -0.17964897     0             -0.13739838    -0.00039582597
  36140000   0.051190495   -0.17972026     0             -0.13916779     0.0046810128 
  36150000   0.048584274   -0.1858911      0             -0.14740324    -0.016503702  
  36160000   0.052593119   -0.18399848     0             -0.14233487     0.00079082064
  36170000   0.051184852   -0.18525456     0             -0.14470656     0.037711802  
  36180000   0.048338082   -0.1886119      0             -0.15031907    -0.0046545049 
  36190000   0.049269419   -0.18219381     0             -0.14316319     0.0053662237 
  36200000   0.049363279   -0.18474313     0             -0.14563816    -0.013040823  
  36210000   0.049804099   -0.18116488     0             -0.1417107     -0.03446312   
  36220000   0.048481884   -0.18783274     0             -0.149426      -0.0026892707 
  36230000   0.053045177   -0.18317667     0             -0.14115494    -0.025378624  
  36240000   0.054088892   -0.1859584      0             -0.14310985     0.013527031  
  36250000   0.048631885   -0.18548614     0             -0.14696056     0.026658995  
  36260000   0.051853468   -0.17990296     0             -0.13882529     0.040246481  
  36270000   0.0545641     -0.18454943     0             -0.14132443    -0.00031343758
  36280000   0.049347864   -0.18337568     0             -0.14428292     0.012159631  
  36290000   0.050755407   -0.18494242     0             -0.14473462    -0.0085425465 
  36300000   0.048517706   -0.17702629     0             -0.13859117     0.0063437374 
  36310000   0.048806328   -0.17088539     0             -0.13222163    -0.0081343311 
  36320000   0.051009148   -0.17699533     0             -0.13658652     0.002591301  
  36330000   0.049218315   -0.18286397     0             -0.14387383     0.0074424587 
  36340000   0.050222686   -0.17192412     0             -0.13213833     0.016499129  
  36350000   0.051982677   -0.16959639     0             -0.12841636    -0.0040915592 
  36360000   0.051112569   -0.17665212     0             -0.13616138     0.018634445  
  36370000   0.045585359   -0.17357433     0             -0.13746218     0.0024445292 
  36380000   0.046564244   -0.18269223     0             -0.14580462    -0.010497171  
  36390000   0.045284541   -0.17716227     0             -0.14128842    -0.025333813  
  36400000   0.05211158    -0.17812821     0             -0.13684607    -0.044734605  
  36410000   0.053748657   -0.18271329     0             -0.14013427    -0.012084113  
  36420000   0.045705541   -0.17885028     0             -0.14264293     0.0056292394 
  36430000   0.048619101   -0.17485754     0             -0.13634209     0.0097073082 
  36440000   0.051484362   -0.18228636     0             -0.14150109    -0.0012018561 
  36450000   0.04984065    -0.18346772     0             -0.14398458     0.0062591115 
  36460000   0.055289144   -0.17423833     0             -0.13043897    -0.0016958121 
  36470000   0.050824543   -0.18036937     0             -0.1401068      0.0031924017 
  36480000   0.050046619   -0.17201349     0             -0.13236718     0.0090648259 
  36490000   0.050862886   -0.17539027     0             -0.13509733     0.0063436187 
  36500000   0.046431097   -0.17707042     0             -0.14028829    -0.034709569  
  36510000   0.046178059   -0.17144309     0             -0.13486141     0.01180094   
  36520000   0.046194998   -0.17432515     0             -0.13773005     0.02846872   
  36530000   0.048736885   -0.17350986     0             -0.13490111     0.011690918  
  36540000   0.054445881   -0.17402722     0             -0.13089587     0.0055794143 
  36550000   0.047520769   -0.17993217     0             -0.14228682     0.0045403243 
  36560000   0.045959784   -0.17166725     0             -0.13525849     0.01513358   
  36570000   0.048388654   -0.18093268     0             -0.1425998     -0.01402281   
  36580000   0.053640048   -0.18031304     0             -0.13782006    -0.0058580439 
  36590000   0.051055399   -0.18471405     0             -0.1442686      0.020439702  
  36600000   0.052497106   -0.18286174     0             -0.14127419     0.0024472446 
  36610000   0.045824333   -0.17843712     0             -0.14213565    -0.0016883315 
  36620000   0.048578079   -0.18648402     0             -0.14800107     0.0089555656 
  36630000   0.047319513   -0.18842243     0             -0.1509365     -0.035147283  
  36640000   0.048919684   -0.17544205     0             -0.13668849     0.0071461308 
  36650000   0.047063811   -0.18200686     0             -0.14472349    -0.00034754429
  36660000   0.050965753   -0.18443465     0             -0.14406022     0.0053837562 
  36670000   0.048493372   -0.18766178     0             -0.14924594    -0.0028866128 
  36680000   0.054232066   -0.18354942     0             -0.14058746    -0.0071156809 
  36690000   0.047510024   -0.18270594     0             -0.14506909    -0.013408972  
  36700000   0.049071328   -0.18518328     0             -0.14630959    -0.030718036  
  36710000   0.042855043   -0.17954536     0             -0.14559613     0.0097467763 
  36720000   0.047888208   -0.1759322      0             -0.13799576     0.012364704  
  36730000   0.051144958   -0.18060542     0             -0.14008903     0.0058747545 
  36740000   0.053753422   -0.18000793     0             -0.13742514    -0.0034466505 
  36750000   0.055705608   -0.17782339     0             -0.1336941      0.010655419  
  36760000   0.049768014   -0.18467564     0             -0.14525004     0.027578458  
  36770000   0.050314591   -0.17422299     0             -0.1343644      0.024799287  
  36780000   0.053103324   -0.17449744     0             -0.13242965     0.043731305  
  36790000   0.054707305   -0.17618919     0             -0.13285074     0.004208524  
  36800000   0.04470176    -0.18207889     0             -0.14666672     0.017528439  
  36810000   0.045702561   -0.18082992     0             -0.14462492     0.0088222007 
  36820000   0.050576429   -0.18212379     0             -0.14205778    -0.016884252  
  36830000   0.052770706   -0.18095536     0             -0.13915107     0.022293194  
  36840000   0.05242345    -0.18190974     0             -0.14038054     0.010464622  
  36850000   0.047040254   -0.1805733      0             -0.1433086     -0.011869076  
  36860000   0.051550633   -0.17981565     0             -0.13897789     0.0073185417 
  36870000   0.046685293   -0.18373169     0             -0.14674819     0.049466869  
  36880000   0.049448252   -0.18413667     0             -0.14496438     0.020667362  
  36890000   0.048933913   -0.18044042     0             -0.14167558    -0.013181369  
  36900000   0.051234042   -0.17817642     0             -0.13758945    -0.027589443  
  36910000   0.048349694   -0.1895987      0             -0.15129668     0.0081211001 
  36920000   0.047025662   -0.18791481     0             -0.15066167    -0.001639489  
  36930000   0.055165115   -0.18554537     0             -0.14184426     0.018291276  
  36940000   0.058490667   -0.17740492     0             -0.13106935    -0.0011567643 
  36950000   0.049624238   -0.17938537     0             -0.14007367    -0.00070312529
  36960000   0.048353613   -0.18098232     0             -0.14267719     0.018348462  
  36970000   0.05142117    -0.18383252     0             -0.14309731     0.028708489  
  36980000   0.049399867   -0.18853507     0             -0.14940112     0.0090975734 
  36990000   0.051448675   -0.18561162     0             -0.14485462     0.018963864  
  37000000   0.055796131   -0.18810708     0             -0.14390608    -0.014233775  
  37010000   0.053660588   -0.18576227     0             -0.14325302     0.0040035186 
  37020000   0.047343029   -0.18340736     0             -0.1459028     -0.0037165631 
  37030000   0.04958178    -0.1917567      0             -0.15247863    -0.027364631  
  37040000   0.051967997   -0.19096056     0             -0.14979216    -0.018126339  
  37050000   0.053852645   -0.19000388     0             -0.14734249     0.014552884  
  37060000   0.056700081   -0.19155107     0             -0.14663398    -0.022737563  
  37070000   0.049784514   -0.17996814     0             -0.14052947     0.011551669  
  37080000   0.046777104   -0.18256187     0             -0.14550563     0.035612094  
  37090000   0.043313478   -0.18213092     0             -0.14781853     0.013156338  
  37100000   0.047163921   -0.18055128     0             -0.14318861     0.0035488536 
  37110000   0.04915249    -0.17739384     0             -0.13845585     0.019949554  
  37120000   0.051105321   -0.18451523     0             -0.14403023     0.030098599  
  37130000   0.050407917   -0.18808432     0             -0.14815179     0.0041150788 
  37140000   0.047970308   -0.1868938      0             -0.14889232     0.0002211981 
  37150000   0.047751889   -0.18384195     0             -0.1460135      0.01852467   
  37160000   0.048810935   -0.18929733     0             -0.15062991    -0.030053047  
  37170000   0.051443378   -0.18635379     0             -0.14560099    -0.0036048096 
  37180000   0.049777656   -0.18894416     0             -0.14951093     0.018173957  
  37190000   0.048368976   -0.19126465     0             -0.15294735    -0.024122512  
  37200000   0.051415483   -0.1898349      0             -0.1491042     -0.02333763   
  37210000   0.045760115   -0.19033429     0             -0.1540837     -0.0037963983 
  37220000   0.051135453   -0.18432479     0             -0.14381593    -0.018960984  
  37230000   0.053468931   -0.1812972      0             -0.13893978     0.020471081  
  37240000   0.045323118   -0.18322049     0             -0.14731608    -0.0013620302 
  37250000   0.046006821   -0.18204775     0             -0.14560172     0.0051524792 
  37260000   0.045007487   -0.18613602     0             -0.15048165    -0.01827477   
  37270000   0.048648841   -0.18757973     0             -0.14904073     0.013271242  
  37280000   0.048849388   -0.18496136     0             -0.14626349    -0.010781703  
  37290000   0.054683286   -0.18416247     0             -0.14084306    -0.024115064  
  37300000   0.052497873   -0.18420752     0             -0.14261936     0.018181582  
  37310000   0.050055784   -0.1835961      0             -0.14394253    -0.008614929  
  37320000   0.055854994   -0.17992906     0             -0.13568143    -0.030518992  
  37330000   0.052150043   -0.1774321      0             -0.13611949    -0.0027103232 
  37340000   0.045309343   -0.17894772     0             -0.14305423    -0.0060395924 
  37350000   0.048980734   -0.17740421     0             -0.13860228     0.026305412  
  37360000   0.050227895   -0.18194352     0             -0.14215361    -0.0069952639 
  37370000   0.047759589   -0.17898782     0             -0.14115327     0.019135289  
  37380000   0.049115469   -0.17937291     0             -0.14046425     0.0029940269 
  37390000   0.050261438   -0.18293596     0             -0.14311947    -0.023574557  
  37400000   0.046569279   -0.17429176     0             -0.13740016    -0.019126995  
  37410000   0.049977847   -0.18022202     0             -0.14063019     0.0090198249 
  37420000   0.049887653   -0.18738003     0             -0.14785966     0.0026914782 
  37430000   0.050158541   -0.17950508     0             -0.13977011     0.012016619  
  37440000   0.041864084   -0.17402969     0             -0.14086549     0.0082707382 
  37450000   0.050617771   -0.18475109     0             -0.14465233    -0.0011632721 
  37460000   0.051823559   -0.18171893     0             -0.14066496    -0.010298484  
  37470000   0.050215328   -0.18167005     0             -0.14189009     0.01599967   
  37480000   0.043579569   -0.17959203     0             -0.14506885     0.024133219  
  37490000   0.053489664   -0.18036394     0             -0.13799009    -0.0086356355 
  37500000   0.045563827   -0.17552968     0             -0.13943458    -0.014453376  
  37510000   0.0556935     -0.17988966     0             -0.13576997     0.027384689  
  37520000   0.049334143   -0.18024148     0             -0.14115958     0.035824471  
  37530000   0.050617041   -0.17983098     0             -0.13973279     0.02463281   
  37540000   0.052559053   -0.18011453     0             -0.13847791    -0.0039376924 
  37550000   0.047926961   -0.17380333     0             -0.13583619     0.011463588  
  37560000   0.050093087   -0.1735577      0             -0.13387458     0.0037244276 
  37570000   0.049628569   -0.1745531      0             -0.13523797     0.0048164656 
  37580000   0.054172738   -0.17983932     0             -0.13692435     0.017560576  
  37590000   0.0499144     -0.18168639     0             -0.14214483    -0.006549577  
  37600000   0.051966272   -0.167858       0             -0.12669097    -0.0066175235 
  37610000   0.044470944   -0.16725211     0             -0.13202279     0.0094869323 
  37620000   0.045524524   -0.16880931     0             -0.13274535    -0.0027374748 
  37630000   0.047067157   -0.17851316     0             -0.14122715    -0.014687815  
  37640000   0.051588569   -0.17638006     0             -0.13551224     0.011069134  
  37650000   0.051845784   -0.17147228     0             -0.1304007     -0.015029972  
  37660000   0.051425603   -0.17245597     0             -0.13171725    -0.011101044  
  37670000   0.04923688    -0.17589632     0             -0.13689147     0.051388389  
  37680000   0.058865803   -0.18822337     0             -0.14159062    -0.028124408  
  37690000   0.044536702   -0.18275685     0             -0.14747543    -0.004747296  
  37700000   0.052131231   -0.18180898     0             -0.14051127    -0.0049713076 
  37710000   0.046570772   -0.17489423     0             -0.13800144    -0.036078046  
  37720000   0.051741935   -0.17220082     0             -0.13121151    -2.4589119e-05
  37730000   0.051276798   -0.17338625     0             -0.13276542    -0.021281808  
  37740000   0.047922935   -0.17625035     0             -0.1382864     -0.013849977  
  37750000   0.054696645   -0.17710834     0             -0.13377834     0.014397911  
  37760000   0.048997152   -0.17832081     0             -0.13950588    -0.002531236  
  37770000   0.051421506   -0.18082051     0             -0.14008504     0.01135105   
  37780000   0.049198217   -0.17246313     0             -0.13348892    -0.0019715583 
  37790000   0.049704536   -0.17670088     0             -0.13732557    -0.0061857909 
  37800000   0.04773867    -0.1748759      0             -0.13705792    -0.019075364  
  37810000   0.050576189   -0.17700137     0             -0.13693555     0.0060106236 
  37820000   0.043067187   -0.17731952     0             -0.14320223     0.0085732377 
  37830000   0.045926491   -0.1773918      0             -0.14100941    -0.010724285  
  37840000   0.05227289    -0.17961759     0             -0.13820766     0.0010870765 
  37850000   0.05380606    -0.18099137     0             -0.13836688    -0.012421908  
  37860000   0.048024097   -0.18536963     0             -0.14732554     0.01067669   
  37870000   0.050248947   -0.17528587     0             -0.13547928    -0.0062175202 
  37880000   0.050899357   -0.1802518      0             -0.13992996    -0.00051327161
  37890000   0.050038673   -0.1764307      0             -0.13679069    -0.028271012  
  37900000   0.049111989   -0.17790073     0             -0.13899482     0.019536291  
  37910000   0.049929334   -0.17720856     0             -0.13765517     0.028722925  
  37920000   0.046278687   -0.18763287     0             -0.15097147    -0.004355289  
  37930000   0.050087285   -0.18328673     0             -0.14360821    -0.0034000581 
  37940000   0.051300317   -0.17580292     0             -0.13516345     0.020892254  
  37950000   0.048474557   -0.1787827      0             -0.14038176    -0.016495705  
  37960000   0.055520567   -0.17333881     0             -0.12935611     0.012836373  
  37970000   0.05033563    -0.17446825     0             -0.13459299    -0.00086862149
  37980000   0.050967121   -0.17727843     0             -0.13690291     0.0083306148 
  37990000   0.047523314   -0.17433988     0             -0.13669251     0.0020192909 
  38000000   0.052361779   -0.17933851     0             -0.13785816    -0.014377445  
  38010000   0.054341866   -0.1726703      0             -0.12962135    -0.0098398258 
  38020000   0.051294097   -0.17079248     0             -0.13015794     0.0032851669 
  38030000   0.048946813   -0.17392441     0             -0.13514936     0.010346099  
  38040000   0.051688029   -0.17692423     0             -0.13597762    -0.0045513049 
  38050000   0.048681289   -0.17562283     0             -0.13705812     0.0020925592 
  38060000   0.048156039   -0.17821141     0             -0.14006279    -0.0029937489 
  38070000   0.044462379   -0.16971953     0             -0.13449699    -0.010028794  
  38080000   0.051501919   -0.16744544     0             -0.12664627     0.0032328318 
  38090000   0.048746167   -0.16672304     0             -0.12810694     0.0066835626 
  38100000   0.053942143   -0.16915057     0             -0.12641828     0.013282951  
  38110000   0.05268936    -0.17619947     0             -0.13445962    -0.024710935  
  38120000   0.051167094   -0.17455514     0             -0.1340212     -0.011311436  
  38130000   0.054773695   -0.18021824     0             -0.1368272     -0.0091076062 
  38140000   0.055709082   -0.17034561     0             -0.12621358    -0.0015743386 
  38150000   0.056040214   -0.18149702     0             -0.13710266     0.013723054  
  38160000   0.053963411   -0.18306914     0             -0.14032        0.014361934  
  38170000   0.050552674   -0.18169779     0             -0.1416506     -0.00024440907
  38180000   0.048645388   -0.18061859     0             -0.14208232     0.0031699125 
  38190000   0.045272122   -0.18206728     0             -0.14620327    -0.0013093873 
  38200000   0.056417925   -0.18932137     0             -0.14462779     0.0074396013 
  38210000   0.04857572    -0.1858878      0             -0.14740672     0.010762888  
  38220000   0.052841485   -0.18286353     0             -0.14100316    -0.0093928303 
  38230000   0.051787572   -0.18281455     0             -0.14178908     0.025510113  
  38240000   0.046511048   -0.18149934     0             -0.14465387     0.01108502   
  38250000   0.049501821   -0.183525       0             -0.14431028     0.0048025603 
  38260000   0.050900472   -0.17923189     0             -0.13890917    -0.011133565  
  38270000   0.052961044   -0.17981127     0             -0.13785619    -0.0057058838 
  38280000   0.049544367   -0.17764895     0             -0.13840052     0.019685961  
  38290000   0.048136671   -0.17660907     0             -0.13847581     0.0021084674 
  38300000   0.056211247   -0.18426624     0             -0.13973639     0.010031428  
  38310000   0.046516604   -0.17677394     0             -0.13992406     0.020898699  
  38320000   0.054622157   -0.17769693     0             -0.13442594     0.021117644  
  38330000   0.058788529   -0.173118       0             -0.12654646     0.034199225  
  38340000   0.055113795   -0.17327398     0             -0.12961352    -0.005816781  
  38350000   0.053636413   -0.1764062      0             -0.1339161      0.0020978889 
  38360000   0.050616537   -0.17971892     0             -0.13962113    -0.0082137706 
  38370000   0.05201691    -0.17632391     0             -0.13511676     0.012458856  
  38380000   0.048538369   -0.16990114     0             -0.13144965     0.0098399136 
  38390000   0.05100484    -0.17934188     0             -0.13893649     0.027504824  
  38400000   0.05091863    -0.17267661     0             -0.13233951     0.010377075  
  38410000   0.054423645   -0.17728153     0             -0.1341678      0.015389342  
  38420000   0.047963283   -0.1834371      0             -0.14544119    -0.018058926  
  38430000   0.049291234   -0.17946368     0             -0.14041578     0.016554576  
  38440000   0.056332074   -0.17734698     0             -0.13272141    -0.0071245895 
  38450000   0.047943824   -0.17401083     0             -0.13603033    -0.032904052  
  38460000   0.046945623   -0.1716609      0             -0.13447117    -0.006109921  
  38470000   0.050843009   -0.17573581     0             -0.13545861    -0.013465456  
  38480000   0.047465561   -0.17744742     0             -0.1398458     -0.0037489037 
  38490000   0.051303325   -0.17680441     0             -0.13616256     0.021165768  
  38500000   0.054223497   -0.17616794     0             -0.13321276    -0.014730943  
  38510000   0.048651637   -0.16833463     0             -0.12979341     0.035542372  
  38520000   0.047934653   -0.17469914     0             -0.13672591     0.015433643  
  38530000   0.051598052   -0.18045757     0             -0.13958224     0.040497163  
  38540000   0.047963377   -0.1714856      0             -0.13348962     0.014887222  
  38550000   0.050506059   -0.18272294     0             -0.14271267     0.01604131   
  38560000   0.049458193   -0.1762197      0             -0.13703954    -0.028263183  
  38570000   0.04930629    -0.18296777     0             -0.14390795     0.0059003484 
  38580000   0.049826608   -0.18112178     0             -0.14164976    -0.034994802  
  38590000   0.046817157   -0.18524353     0             -0.14815556     0.012052821  
  38600000   0.053433947   -0.18218765     0             -0.13985794     0.02782514   
  38610000   0.050182055   -0.18456963     0             -0.14481603     0.0019885877 
  38620000   0.052526722   -0.18240911     0             -0.14079809     0.017604721  
  38630000   0.047678382   -0.17649998     0             -0.13872976    -0.0053136954 
  38640000   0.051875716   -0.18493734     0             -0.14384205    -0.027429503  
  38650000   0.053892618   -0.18275943     0             -0.14006638    -0.00062133813
  38660000   0.047685956   -0.18697188     0             -0.14919566    -0.02029926   
  38670000   0.049109402   -0.17821415     0             -0.1393103     -0.00024777215
  38680000   0.049388679   -0.18219888     0             -0.14307378     0.010633919  
  38690000   0.0491994     -0.18597831     0             -0.14700316     0.023147564  
  38700000   0.049678334   -0.18560862     0             -0.14625407    -0.00060374365
  38710000   0.049903314   -0.17975396     0             -0.14022118     0.0047317696 
  38720000   0.047047717   -0.18554831     0             -0.1482777      0.0098865327 
  38730000   0.055334288   -0.19265288     0             -0.14881774    -0.00046901719
  38740000   0.050278735   -0.17880566     0             -0.13897547     0.0037164151 
  38750000   0.051387729   -0.18373754     0             -0.14302883    -0.0034362624 
  38760000   0.049664628   -0.18665004     0             -0.14730634    -0.00066398772
  38770000   0.049407248   -0.1782381      0             -0.1390983      0.0091342332 
  38780000   0.045778946   -0.17705095     0             -0.14078544    -0.021760588  
  38790000   0.049386674   -0.17640312     0             -0.13727962    -0.0051383247 
  38800000   0.048155855   -0.18667968     0             -0.14853121    -0.026017866  
  38810000   0.051445253   -0.18182483     0             -0.14107055    -0.0021949746 
  38820000   0.048988051   -0.1821758      0             -0.14336808     0.018587632  
  38830000   0.049689562   -0.1831917      0             -0.14382825     0.0032344503 
  38840000   0.053116239   -0.17979956     0             -0.13772154    -0.01170928   
  38850000   0.048449218   -0.18386881     0             -0.14548794     0.017576711  
  38860000   0.053119746   -0.18479251     0             -0.14271171    -0.0076077746 
  38870000   0.050026693   -0.18626343     0             -0.14663291     0.022540532  
  38880000   0.047495348   -0.18423104     0             -0.14660582     0.0018167324 
  38890000   0.048637827   -0.18255511     0             -0.14402483     0.0046299523 
  38900000   0.050347323   -0.18820408     0             -0.14831956    -0.0010499222 
  38910000   0.049108755   -0.18073884     0             -0.1418355      0.0096826589 
  38920000   0.049625998   -0.18959977     0             -0.15028668     0.029061068  
  38930000   0.048892402   -0.168562       0             -0.12983005    -0.01069158   
  38940000   0.054623982   -0.18035189     0             -0.13707945    -0.0095132513 
  38950000   0.051616143   -0.18224289     0             -0.14135323     0.0026709584 
  38960000   0.050369274   -0.19173642     0             -0.15183451     0.016894684  
  38970000   0.050573905   -0.19110314     0             -0.15103913    -0.0074489251 
  38980000   0.050213738   -0.19168458     0             -0.15190588     0.010555235  
  38990000   0.052217184   -0.1932116      0             -0.1518458     -0.0028179249 
  39000000   0.051403165   -0.19468977     0             -0.15396883     0.0032039072 
  39010000   0.04939545    -0.19076644     0             -0.15163599     0.022815138  
  39020000   0.054811677   -0.19197526     0             -0.14855414    -0.012962742  
  39030000   0.051978131   -0.19182526     0             -0.15064884     0.013513262  
  39040000   0.047879924   -0.19276233     0             -0.15483245     0.0057132117 
  39050000   0.045556869   -0.18747372     0             -0.15138414     0.00039161497
  39060000   0.051438954   -0.19412128     0             -0.15337199     0.026627505  
  39070000   0.052794942   -0.19486264     0             -0.15303915    -0.011618925  
  39080000   0.058892332   -0.19408976     0             -0.14743599    -0.0069084542 
  39090000   0.053165595   -0.19402602     0             -0.1519089      0.018072386  
  39100000   0.051197222   -0.19746366     0             -0.15690586     0.024603967  
  39110000   0.050319709   -0.19590155     0             -0.15603891    -0.0080256144 
  39120000   0.052017706   -0.18196426     0             -0.14075649    -0.0076895979 
  39130000   0.051658889   -0.18619778     0             -0.14527425     0.029484663  
  39140000   0.049466599   -0.18526519     0             -0.14607837    -0.021457099  
  39150000   0.048081355   -0.19712831     0             -0.15903886     0.010501762  
  39160000   0.045685502   -0.19531773     0             -0.15912625     0.0036595765 
  39170000   0.04433632    -0.18832464     0             -0.15320196    -0.0067931808 
  39180000   0.046758236   -0.18690764     0             -0.14986635    -0.016654041  
  39190000   0.053880131   -0.18830471     0             -0.14562155     0.0010294127 
  39200000   0.050014298   -0.18912913     0             -0.14950843     0.019492957  
  39210000   0.046183043   -0.18591501     0             -0.14932938    -0.0102962    
  39220000   0.051473554   -0.19044091     0             -0.1496642      0.021544592  
  39230000   0.052072497   -0.18589789     0             -0.14464671     0.017185555  
  39240000   0.0504362     -0.19425323     0             -0.15429831     0.023658647  
  39250000   0.048607985   -0.19127917     0             -0.15277254    -0.0020909191 
  39260000   0.053930873   -0.19555208     0             -0.15282871     0.01987034   
  39270000   0.047841086   -0.18974424     0             -0.15184513    -0.0069201172 
  39280000   0.053432759   -0.19069777     0             -0.14836901     0.016557786  
  39290000   0.049482108   -0.19198333     0             -0.15278422    -0.0095902724 
  39300000   0.047176484   -0.18686735     0             -0.14949473    -0.0075105416 
  39310000   0.048188671   -0.18548952     0             -0.14731506     0.0084883619 
  39320000   0.046451589   -0.19354201     0             -0.15674364    -0.01137417   
  39330000   0.053714183   -0.19872805     0             -0.15617634    -0.0079753397 
  39340000   0.048988      -0.20554075     0             -0.16673307    -0.013735803  
  39350000   0.05082453    -0.194675       0             -0.15441245     0.00068516876
  39360000   0.057145791   -0.19639315     0             -0.15112297    -0.036497324  
  39370000   0.05223401    -0.1949353      0             -0.15355617     0.0075216671 
  39380000   0.04897942    -0.19965699     0             -0.16085611    -0.0038828291 
  39390000   0.059472567   -0.20383081     0             -0.15671739     0.0001408308 
  39400000   0.051027981   -0.1951002      0             -0.15467647     0.0028354165 
  39410000   0.04363872    -0.197544       0             -0.16297395     0.0001480393 
  39420000   0.049006771   -0.19595888     0             -0.15713633    -0.0059846956 
  39430000   0.048142741   -0.20158551     0             -0.16344743    -0.018322024  
  39440000   0.050385333   -0.19551818     0             -0.15560355     0.018871903  
  39450000   0.05170342    -0.20368921     0             -0.16273041    -0.0061231654 
  39460000   0.052018543   -0.1994649      0             -0.15825646     0.029401019  
  39470000   0.045634629   -0.19707456     0             -0.16092337    -0.0031185524 
  39480000   0.049052315   -0.19429885     0             -0.15544022     0.023435917  
  39490000   0.053394032   -0.19659716     0             -0.15429907     0.037946117  
  39500000   0.050738927   -0.19435676     0             -0.15416202     0.015000536  
  39510000   0.051388047   -0.19714822     0             -0.15643925    -0.009175984  
  39520000   0.044606009   -0.18928829     0             -0.15395197    -0.0092691597 
  39530000   0.049837289   -0.19710614     0             -0.15762566    -0.03210576   
  39540000   0.048155319   -0.19501857     0             -0.15687053     0.0031560926 
  39550000   0.049519279   -0.20260132     0             -0.16337276    -0.0015145177 
  39560000   0.050538464   -0.20160606     0             -0.16157012     0.028568562  
  39570000   0.047912578   -0.19822057     0             -0.16026482     0.0016247456 
  39580000   0.050988015   -0.20132946     0             -0.16093739     0.032584708  
  39590000   0.044237429   -0.19864756     0             -0.16360322    -0.032834492  
  39600000   0.046086085   -0.19914788     0             -0.16263906     0.0077217526 
  39610000   0.054090492   -0.19667549     0             -0.15382568    -0.01558665   
  39620000   0.048252584   -0.19442114     0             -0.15619605     0.00033793999
  39630000   0.05322576    -0.19576915     0             -0.15360437     0.00068351788
  39640000   0.045804964   -0.19741794     0             -0.16113182    -0.0041340626 
  39650000   0.044642471   -0.19534286     0             -0.15997766    -0.0035754098 
  39660000   0.047767104   -0.19560108     0             -0.15776057    -0.021809656  
  39670000   0.048526838   -0.19970057     0             -0.16125821    -0.020367786  
  39680000   0.045108618   -0.1966334      0             -0.16089892    -0.02011816   
  39690000   0.055186815   -0.19800722     0             -0.15428891     0.039007093  
  39700000   0.047617824   -0.19064411     0             -0.15292186     0.00059948973
  39710000   0.054427538   -0.19118343     0             -0.14806661     0.022627894  
  39720000   0.050066734   -0.1851904      0             -0.14552816    -0.0035098389 
  39730000   0.045770529   -0.18856603     0             -0.15230719     0.010535336  
  39740000   0.049893764   -0.19076693     0             -0.15124171    -0.011837602  
  39750000   0.046778504   -0.18621208     0             -0.14915474    -0.0087243091 
  39760000   0.050103486   -0.19250635     0             -0.152815       0.012592882  
  39770000   0.046373602   -0.19523454     0             -0.15849796     0.011560389  
  39780000   0.044415055   -0.19460614     0             -0.15942109     0.0039861841 
  39790000   0.045389015   -0.19634118     0             -0.16038456    -0.019964399  
  39800000   0.046834568   -0.19656841     0             -0.15946665     0.008771348  
  39810000   0.050388824   -0.19442852     0             -0.15451112     0.02159436   
  39820000   0.050163206   -0.19233842     0             -0.15259976     0.0048961114 
  39830000   0.052999255   -0.19773771     0             -0.15575236     0.0050017363 
  39840000   0.048688807   -0.20016681     0             -0.16159614     0.0096735298 
  39850000   0.047753086   -0.2038481      0             -0.16601871     0.013286496  
  39860000   0.049764342   -0.20144341     0             -0.16202072    -0.013261703  
  39870000   0.050666326   -0.19607613     0             -0.1559389     -0.045585445  
  39880000   0.046867861   -0.19740891     0             -0.16028077     0.025045033  
  39890000   0.055018991   -0.20014584     0             -0.15656048     0.011643942  
  39900000   0.052939413   -0.1938795      0             -0.15194155     0.0046664494 
  39910000   0.045912854   -0.19533455     0             -0.15896296     0.016461377  
  39920000   0.051743177   -0.19436672     0             -0.15337642     0.011421636  
  39930000   0.051537953   -0.19489072     0             -0.154063      -0.028777804  
  39940000   0.054529527   -0.19640543     0             -0.15320782    -0.020756578  
  39950000   0.046937821   -0.19669278     0             -0.15950923     0.0096269511 
  39960000   0.052590684   -0.1957254      0             -0.15406372    -0.0012557497 
  39970000   0.049081867   -0.19611736     0             -0.15723532     0.018946515  
  39980000   0.052758702   -0.19968278     0             -0.15788799     0.0037131677 
  39990000   0.045905408   -0.19679949     0             -0.1604338     -0.012657885  
  40000000   0.047766383   -0.19908986     0             -0.16124993    -0.0004938014 
  40010000   0.049906936   -0.20520618     0             -0.16567053    -0.020790559  
  40020000   0.043432644   -0.19331534     0             -0.15890854     0.0013913125 
  40030000   0.050855649   -0.19765431     0             -0.1573671      0.014414838  
  40040000   0.051027767   -0.19867128     0             -0.15824772     0.016206545  
  40050000   0.04970188    -0.19564571     0             -0.1562725     -0.017241639  
  40060000   0.052635838   -0.19493332     0             -0.15323587     0.015470818  
  40070000   0.04979658    -0.19510164     0             -0.15565341     0.0024420647 
  40080000   0.054976981   -0.1943105      0             -0.15075842    -0.010140934  
  40090000   0.054821323   -0.19428958     0             -0.15086081     0.0025605649 
  40100000   0.049242138   -0.19935525     0             -0.16034624     0.0087060799 
  40110000   0.049400944   -0.19567579     0             -0.15654098     0.011288791  
  40120000   0.051292774   -0.2037633      0             -0.16312981     0.010969136  
  40130000   0.052431693   -0.20168363     0             -0.1601479     -0.0078788974 
  40140000   0.049458705   -0.19968764     0             -0.16050707     0.020846474  
  40150000   0.05318423    -0.20110077     0             -0.15896889     0.0069154412 
  40160000   0.054201031   -0.20188419     0             -0.15894681     0.012021237  
  40170000   0.048933547   -0.19936533     0             -0.16060078    -0.013785568  
  40180000   0.053083125   -0.1938751      0             -0.15182331    -0.013784281  
  40190000   0.053036596   -0.19952594     0             -0.15751101     0.0010205335 
  40200000   0.047866515   -0.19650535     0             -0.15858609    -0.0059676665 
  40210000   0.050558482   -0.1883308      0             -0.148279       0.040059949  
  40220000   0.049835343   -0.18812058     0             -0.14864164     0.021409187  
  40230000   0.046079112   -0.19474347     0             -0.15824017    -0.0051714735 
  40240000   0.046311018   -0.18650635     0             -0.14981934     0.0036279811 
  40250000   0.054347181   -0.19315921     0             -0.15010605    -0.030576946  
  40260000   0.048083769   -0.19184154     0             -0.15375018    -0.00602341   
  40270000   0.047627366   -0.19037736     0             -0.15264756    -0.0026884394 
  40280000   0.046665106   -0.19304488     0             -0.15607736    -0.018116626  
  40290000   0.044921666   -0.18412991     0             -0.14854352    -0.0033268094 
  40300000   0.051928909   -0.18714413     0             -0.1460067      0.0034678377 
  40310000   0.053678405   -0.18979995     0             -0.14727659    -0.0035668497 
  40320000   0.049835917   -0.18829689     0             -0.1488175      0.013566381  
  40330000   0.048668132   -0.19491382     0             -0.15635954    -0.022147656  
  40340000   0.04858964    -0.18475104     0             -0.14625894     0.0097030673 
  40350000   0.05267591    -0.18210796     0             -0.14037876    -0.01727138   
  40360000   0.048077216   -0.18723823     0             -0.14915207    -0.0037882727 
  40370000   0.051619852   -0.18649819     0             -0.14560559    -0.010260354  
  40380000   0.051508967   -0.17899771     0             -0.13819295    -0.011438051  
  40390000   0.050051972   -0.18695129     0             -0.14730075     0.023229298  
  40400000   0.056869101   -0.17558412     0             -0.13053313     0.019273052  
  40410000   0.048840854   -0.18521556     0             -0.14652445    -0.031223227  
  40420000   0.050278709   -0.1856996      0             -0.14586944     0.016344279  
  40430000   0.049878242   -0.18830263     0             -0.14878971     0.0017938655 
  40440000   0.048655353   -0.19022358     0             -0.15167942    -0.0033752971 
  40450000   0.052099146   -0.1844117      0             -0.1431394      0.02083009   
  40460000   0.046955528   -0.18515034     0             -0.14795276     0.017884225  
  40470000   0.047820197   -0.18513942     0             -0.14725686     0.025552501  
  40480000   0.048754145   -0.19178579     0             -0.15316336    -0.0099293979 
  40490000   0.052346522   -0.19024081     0             -0.14877255    -0.003389207  
  40500000   0.044542353   -0.18443042     0             -0.14914452     0.0068358958 
  40510000   0.05128677    -0.1877065      0             -0.14707776     0.0090300489 
  40520000   0.051505939   -0.19154629     0             -0.15074393    -0.016388377  
  40530000   0.050720062   -0.19008745     0             -0.14990765    -0.045013054  
  40540000   0.05502755    -0.18283001     0             -0.13923787    -0.0054063202 
  40550000   0.049478963   -0.18367571     0             -0.14447909     0.010684791  
  40560000   0.049600374   -0.18548498     0             -0.14619218    -0.012797489  
  40570000   0.054628483   -0.17996244     0             -0.13668643    -0.0088213433 
  40580000   0.049440535   -0.17947554     0             -0.14030937    -0.014538654  
  40590000   0.049897203   -0.18162041     0             -0.14209247    -0.0026290118 
  40600000   0.051369118   -0.18319094     0             -0.14249697    -0.015350038  
  40610000   0.055138691   -0.186717       0             -0.14303682    -0.0069364379 
  40620000   0.051854296   -0.18555265     0             -0.14447432    -0.0056465929 
  40630000   0.050503386   -0.17837476     0             -0.13836661     0.00072198348
  40640000   0.049175214   -0.17676839     0             -0.1378124     -0.020112303  
  40650000   0.058252362   -0.18155592     0             -0.13540912    -0.022576074  
  40660000   0.052947306   -0.18509213     0             -0.14314793    -0.0030544912 
  40670000   0.048320598   -0.18447664     0             -0.14619766     0.0063510997 
  40680000   0.049129697   -0.17998706     0             -0.14106713     0.038831607  
  40690000   0.047615209   -0.18739541     0             -0.14967523    -0.0103384    
  40700000   0.050743487   -0.18986147     0             -0.14966312     0.0042974134 
  40710000   0.056420959   -0.17762522     0             -0.13292924    -0.0032763676 
  40720000   0.048151427   -0.17879879     0             -0.14065383    -0.024610653  
  40730000   0.044601964   -0.19167036     0             -0.15633724    -0.012885985  
  40740000   0.05737888    -0.18966098     0             -0.14420615     0.018059757  
  40750000   0.053553268   -0.18645629     0             -0.14403206    -0.015381543  
  40760000   0.048044631   -0.19198031     0             -0.15391996     0.010079761  
  40770000   0.047214201   -0.19094601     0             -0.15354351    -0.0075145313 
  40780000   0.051026606   -0.18703591     0             -0.14661327    -0.0057392457 
  40790000   0.049804093   -0.18953792     0             -0.15008375    -0.0034922457 
  40800000   0.052190728   -0.17563564     0             -0.1342908     -0.0045751797 
  40810000   0.046327706   -0.17573509     0             -0.13903487    -0.0048836265 
  40820000   0.048192113   -0.17961182     0             -0.14143463    -0.018097549  
  40830000   0.051680253   -0.17761113     0             -0.13667068    -0.0080818531 
  40840000   0.053617411   -0.18034097     0             -0.13786592    -0.041177853  
  40850000   0.05575901    -0.17803686     0             -0.13386527    -0.012242118  
  40860000   0.049796474   -0.17951185     0             -0.1400637      0.029159126  
  40870000   0.052453415   -0.18071552     0             -0.13916258     0.02703808   
  40880000   0.055491596   -0.17633657     0             -0.13237682    -0.0034736032 
  40890000   0.048784586   -0.18228948     0             -0.14364294    -0.012641789  
  40900000   0.051022985   -0.18404061     0             -0.14362084    -0.0051782786 
  40910000   0.04481886    -0.19039477     0             -0.15488983     0.013132708  
  40920000   0.050837449   -0.18393428     0             -0.14366149    -0.0049120568 
  40930000   0.048887436   -0.19071862     0             -0.15199061    -0.026524353  
  40940000   0.047665026   -0.18613469     0             -0.14837505    -0.0019077195 
  40950000   0.046022657   -0.19060385     0             -0.15414527    -0.023715926  
  40960000   0.043299728   -0.18797292     0             -0.15367142     7.959425e-05 
  40970000   0.055369541   -0.18974292     0             -0.14587986    -0.030446919  
  40980000   0.049722422   -0.1991294      0             -0.15973992     0.023784276  
  40990000   0.055102187   -0.1903033      0             -0.14665204     0.0059503719 
  41000000   0.049566824   -0.19679627     0             -0.15753005    -0.0045859854 
  41010000   0.053959221   -0.19389335     0             -0.15114753     0.013983847  
  41020000   0.048278803   -0.185614       0             -0.14736814    -0.021738923  
  41030000   0.057047795   -0.19119182     0             -0.14599927     0.00040899021
  41040000   0.052621172   -0.19216161     0             -0.15047578     0.012862608  
  41050000   0.048888223   -0.1903617      0             -0.15163306    -0.018221527  
  41060000   0.048971711   -0.1836295      0             -0.14483472     0.0035858799 
  41070000   0.043891407   -0.18021291     0             -0.14544268     0.025274159  
  41080000   0.049379604   -0.18140506     0             -0.14228716    -0.016150165  
  41090000   0.051447073   -0.17927769     0             -0.13852196     0.004217776  
  41100000   0.053668067   -0.18017142     0             -0.13765625     0.011137945  
  41110000   0.05453349    -0.18604271     0             -0.14284196    -0.0047067384 
  41120000   0.051514169   -0.18769224     0             -0.14688336    -0.0013489075 
  41130000   0.053398938   -0.18801671     0             -0.14571474     0.0051596566 
  41140000   0.049912316   -0.18075938     0             -0.14121947     0.014111813  
  41150000   0.049097619   -0.18383869     0             -0.14494417    -0.0043461297 
  41160000   0.047684922   -0.18910956     0             -0.15133416     0.0039554531 
  41170000   0.047403061   -0.18236363     0             -0.14481152     0.0092359521 
  41180000   0.050229218   -0.18289497     0             -0.14310401     0.0088287969 
  41190000   0.052482023   -0.18494766     0             -0.14337206     0.016247099  
  41200000   0.053797114   -0.18787176     0             -0.14525436     0.0040854388 
  41210000   0.045388317   -0.18801544     0             -0.15205939    -0.001155751  
  41220000   0.049698405   -0.18527511     0             -0.14590465     0.031442813  
  41230000   0.049792073   -0.18675819     0             -0.14731353    -0.031002256  
  41240000   0.053223055   -0.1833451      0             -0.14118246    -0.03151129   
  41250000   0.051637153   -0.18495583     0             -0.14404952    -0.020558332  
  41260000   0.047087843   -0.17480232     0             -0.13749992    -0.029626035  
  41270000   0.046442959   -0.18092742     0             -0.14413589    -0.024135819  
  41280000   0.051559692   -0.18429257     0             -0.14344763     0.018817962  
  41290000   0.052997343   -0.18923916     0             -0.14725533     0.028938749  
  41300000   0.04782671    -0.1787647      0             -0.14087698    -0.0033246835 
  41310000   0.046270015   -0.18699522     0             -0.15034069     0.042539054  
  41320000   0.053119638   -0.18548433     0             -0.14340362     0.0076856249 
  41330000   0.049700714   -0.19558896     0             -0.15621668     0.017704134  
  41340000   0.047822217   -0.19488564     0             -0.15700147    -0.023303778  
  41350000   0.046981755   -0.19583205     0             -0.15861369    -0.024799792  
  41360000   0.051169831   -0.19133652     0             -0.15080042     0.0086925864 
  41370000   0.048227199   -0.19206484     0             -0.15385986     0.0082574706 
  41380000   0.05116199    -0.19552518     0             -0.15499529    -0.012451453  
  41390000   0.051299996   -0.18764279     0             -0.14700357    -0.024606326  
  41400000   0.054996283   -0.17776706     0             -0.13419969    -8.9949027e-05
  41410000   0.049873233   -0.17935035     0             -0.1398414     -0.0050695477 
  41420000   0.047394795   -0.18704283     0             -0.14949726    -0.021971888  
  41430000   0.049092884   -0.18688952     0             -0.14799875    -0.001117827  
  41440000   0.050735227   -0.18586728     0             -0.14567547    -0.024585797  
  41450000   0.049678732   -0.18565437     0             -0.1462995     -0.011754716  
  41460000   0.052859361   -0.18566295     0             -0.14378843    -0.0014064478 
  41470000   0.054573429   -0.1899028      0             -0.14667042     0.0097717104 
  41480000   0.045855658   -0.18634595     0             -0.15001967     0.021292534  
  41490000   0.050626143   -0.17994402     0             -0.13983862    -0.0019699694 
  41500000   0.045265566   -0.17383464     0             -0.13797583     0.0085305027 
  41510000   0.053707043   -0.17931832     0             -0.13677227     0.0026674584 
  41520000   0.04682281    -0.1775101      0             -0.14041765     0.0091912362 
  41530000   0.049738664   -0.18102649     0             -0.14162414     0.021096933  
  41540000   0.044934286   -0.18202065     0             -0.14642427     0.015049601  
  41550000   0.045083263   -0.18075225     0             -0.14503785    -0.00026080602
  41560000   0.051340751   -0.18696917     0             -0.14629767    -0.010784013  
  41570000   0.052713157   -0.18107888     0             -0.13932017     0.005171013  
  41580000   0.05061048    -0.18034696     0             -0.14025397    -0.0051672724 
  41590000   0.050024326   -0.17939373     0             -0.13976509     0.0093852113 
  41600000   0.052034359   -0.18799215     0             -0.14677119    -0.017144612  
  41610000   0.052188002   -0.18208645     0             -0.14074377     0.0014747347 
  41620000   0.04745844    -0.17833615     0             -0.14074017     0.022560928  
  41630000   0.049313756   -0.17510682     0             -0.13604107     0.0019914987 
  41640000   0.055369768   -0.17885447     0             -0.13499124    -0.026681136  
  41650000   0.058649522   -0.17735535     0             -0.13089393     0.0095190527 
  41660000   0.049915785   -0.16972844     0             -0.13018578    -0.0054520873 
  41670000   0.050118742   -0.17974556     0             -0.14004212     0.016788148  
  41680000   0.050809546   -0.17385383     0             -0.13360314     0.013285749  
  41690000   0.053016888   -0.18111842     0             -0.1391191      0.031257934  
  41700000   0.057905648   -0.17739699     0             -0.13152486     0.016854235  
  41710000   0.049065326   -0.17547224     0             -0.1366033     -0.0076587537 
  41720000   0.054671497   -0.17995288     0             -0.13664281    -0.012888382  
  41730000   0.050229923   -0.17586803     0             -0.13607652    -0.018302284  
  41740000   0.047353844   -0.17703603     0             -0.13952291     0.001495317  
  41750000   0.052694227   -0.17617774     0             -0.13443403     0.0097099015 
  41760000   0.046902896   -0.17281617     0             -0.13566028    -0.0067847947 
  41770000   0.054429644   -0.17542897     0             -0.13231048     0.00083888279
  41780000   0.046320963   -0.17633039     0             -0.1396355     -0.0047730224 
  41790000   0.048727521   -0.17371933     0             -0.13511799    -0.018392202  
  41800000   0.0530559     -0.17440876     0             -0.13237854    -0.018012323  
  41810000   0.042383692   -0.18195635     0             -0.14838052    -0.0074956168 
  41820000   0.053986175   -0.17408579     0             -0.13131862    -0.0051786662 
  41830000   0.053572687   -0.18238154     0             -0.13994192     0.029565351  
  41840000   0.041290873   -0.18185743     0             -0.14914732    -0.0077092612 
  41850000   0.053888221   -0.18756641     0             -0.14487684    -0.01915345   
  41860000   0.049890104   -0.18378437     0             -0.14426205     0.027768873  
  41870000   0.051989106   -0.17934322     0             -0.1381581     -0.012181814  
  41880000   0.048053843   -0.18797379     0             -0.14990614    -0.0098519967 
  41890000   0.051291757   -0.18090424     0             -0.14027155     0.00022202183
  41900000   0.04787667    -0.18266373     0             -0.14473643    -0.0029412629 
  41910000   0.0494892     -0.18662093     0             -0.1474162     -0.026142552  
  41920000   0.045510121   -0.18991514     0             -0.1538626     -0.0010316274 
  41930000   0.050792797   -0.19402994     0             -0.15379252    -0.014173283  
  41940000   0.058225508   -0.18740183     0             -0.14127631     0.01863428   
  41950000   0.050201817   -0.18754029     0             -0.14777104    -0.0072758297 
  41960000   0.051398753   -0.18731777     0             -0.14660032     0.029902485  
  41970000   0.05220187    -0.19206476     0             -0.1507111     -0.0052572051 
  41980000   0.048435567   -0.18171065     0             -0.1433406     -0.0066618102 
  41990000   0.051744173   -0.18927074     0             -0.14827965    -0.0027499021 
  42000000   0.049579114   -0.18280704     0             -0.14353108    -0.0061516734 
  42010000   0.044757826   -0.18479601     0             -0.14933942    -0.019490066  
  42020000   0.053959879   -0.18518171     0             -0.14243537    -0.007092805  
  42030000   0.043438188   -0.1873163      0             -0.15290511    -0.02525518   
  42040000   0.043917999   -0.1872581      0             -0.15246681    -0.015090804  
  42050000   0.055429985   -0.18248148     0             -0.13857054     0.01654281   
  42060000   0.052394691   -0.17858571     0             -0.13707929     0.015699066  
  42070000   0.051769077   -0.18545843     0             -0.14444762     0.020238324  
  42080000   0.047541708   -0.18949677     0             -0.15183482    -0.0033869233 
  42090000   0.046173756   -0.18166099     0             -0.14508271    -0.034983955  
  42100000   0.052265055   -0.17484074     0             -0.13343701     0.015110769  
  42110000   0.047464933   -0.17623806     0             -0.13863693    -0.01221152   
  42120000   0.05036841    -0.16738628     0             -0.12748506    -0.013834561  
  42130000   0.052154496   -0.17627753     0             -0.13496139     0.017143366  
  42140000   0.056266769   -0.17749349     0             -0.13291966    -0.013860057  
  42150000   0.051170641   -0.17914119     0             -0.13860445     0.0010530537 
  42160000   0.04921321    -0.17416707     0             -0.13518098    -0.023209484  
  42170000   0.045418457   -0.17077146     0             -0.13479153     0.00061105152
  42180000   0.052075291   -0.17330478     0             -0.13205139    -0.0050538843 
  42190000   0.050988035   -0.17707471     0             -0.13668263    -0.0012415978 
  42200000   0.050085455   -0.17005045     0             -0.13037338     0.019969331  
  42210000   0.05136985    -0.17711836     0             -0.13642381     0.010815464  
  42220000   0.046321768   -0.16976        0             -0.13306448     0.013488435  
  42230000   0.0458414     -0.17600991     0             -0.13969492    -0.010969191  
  42240000   0.050579779   -0.17220825     0             -0.13213959     0.0026282925 
  42250000   0.052143611   -0.16971494     0             -0.12840742    -0.012229939  
  42260000   0.055072487   -0.17600227     0             -0.13237453    -0.0025866985 
  42270000   0.052323257   -0.16928323     0             -0.1278334      0.0079170368 
  42280000   0.051192189   -0.17355472     0             -0.1330009     -0.0030010727 
  42290000   0.049766177   -0.17107018     0             -0.13164604    -0.025473323  
  42300000   0.055849847   -0.17551725     0             -0.1312737      0.014938698  
  42310000   0.048899315   -0.17211823     0             -0.13338081    -0.001643379  
  42320000   0.04948308    -0.17913986     0             -0.13993999    -0.018246591  
  42330000   0.051311654   -0.18299951     0             -0.14235106    -0.018850637  
  42340000   0.052408972   -0.1802986      0             -0.13878087     0.019266674  
  42350000   0.053688756   -0.17535087     0             -0.13281931     0.00055766006
  42360000   0.045409232   -0.17687514     0             -0.14090252     0.0025466393 
  42370000   0.05053132    -0.1732353      0             -0.13320502     0.019238212  
  42380000   0.046244207   -0.17875349     0             -0.1421194     -0.023508384  
  42390000   0.047445227   -0.18219176     0             -0.14460624    -0.0045617205 
  42400000   0.04666062    -0.17475856     0             -0.1377946      0.010891878  
  42410000   0.04840954    -0.17477138     0             -0.13642195     0.022998108  
  42420000   0.052452372   -0.18070673     0             -0.13915462     0.022980207  
  42430000   0.049987501   -0.18401263     0             -0.14441316    -0.02428122   
  42440000   0.050179248   -0.18419075     0             -0.14443938     0.0015138084 
  42450000   0.050031561   -0.18232561     0             -0.14269123     0.011372782  
  42460000   0.05065553    -0.18220148     0             -0.14207281     0.011759485  
  42470000   0.046721364   -0.18009065     0             -0.14307857    -0.011048645  
  42480000   0.049902832   -0.18600842     0             -0.14647602     0.0056794264 
  42490000   0.050070284   -0.18918874     0             -0.14952368     0.0032915221 
  42500000   0.04895787    -0.18764049     0             -0.14885667     0.0020283422 
  42510000   0.051339042   -0.18409013     0             -0.14341999    -0.018552202  
  42520000   0.045012939   -0.17888794     0             -0.14322926     0.008009538  
  42530000   0.047572607   -0.18349387     0             -0.14580744    -0.0055344141 
  42540000   0.04686022    -0.17802834     0             -0.14090626     0.024047306  
  42550000   0.048906041   -0.17951004     0             -0.14076729     0.015241719  
  42560000   0.046890739   -0.18316025     0             -0.14601399     0.012711839  
  42570000   0.051166575   -0.18728756     0             -0.14675404    -0.014549944  
  42580000   0.051679533   -0.1823486      0             -0.14140872    -0.011914202  
  42590000   0.053955622   -0.18932273     0             -0.14657976     0.016950701  
  42600000   0.054221585   -0.17816891     0             -0.13521525     0.0016222437 
  42610000   0.043625476   -0.1780187      0             -0.14345915    -0.0085882821 
  42620000   0.049321554   -0.18398162     0             -0.1449097      0.024147153  
  42630000   0.048405585   -0.18172469     0             -0.14337839    -0.037240064  
  42640000   0.053817705   -0.17899945     0             -0.13636573    -0.023641104  
  42650000   0.051503871   -0.18349227     0             -0.14269155    -0.0068731923 
  42660000   0.04532082    -0.18705251     0             -0.15114992    -0.0072654468 
  42670000   0.051542692   -0.18087385     0             -0.14004238    -0.0040775726 
  42680000   0.047609488   -0.17475109     0             -0.13703545    -0.015295698  
  42690000   0.046783143   -0.1739199      0             -0.13685888     0.0014394866 
  42700000   0.050833821   -0.18169826     0             -0.14142835     0.0114832    
  42710000   0.054358045   -0.17984933     0             -0.13678757    -0.02341696   
  42720000   0.050512919   -0.18372964     0             -0.14371393     0.0071101035 
  42730000   0.050745239   -0.18563232     0             -0.14543257     0.029439646  
  42740000   0.05666736    -0.18691782     0             -0.14202664    -0.016685456  
  42750000   0.054090373   -0.18056257     0             -0.13771285     0.014720337  
  42760000   0.047340581   -0.18872585     0             -0.15122323    -0.0041759251 
  42770000   0.047675746   -0.18773112     0             -0.14996299    -0.0055795713 
  42780000   0.049091409   -0.18697096     0             -0.14808136     0.00023975882
  42790000   0.050019333   -0.19067613     0             -0.15105144     0.012791353  
  42800000   0.050027361   -0.18967543     0             -0.15004438     0.0060271551 
  42810000   0.050811078   -0.18452034     0             -0.14426844    -0.036134293  
  42820000   0.05278833    -0.18625156     0             -0.1444333      0.0078532039 
  42830000   0.051876113   -0.18682214     0             -0.14572653     0.0034620091 
  42840000   0.049367807   -0.1863998      0             -0.14729124     0.038357253  
  42850000   0.051704968   -0.19210797     0             -0.15114794    -0.0074229144 
  42860000   0.047257024   -0.1928852      0             -0.15544878     0.0034372724 
  42870000   0.046218024   -0.19279149     0             -0.15617815     0.028413281  
  42880000   0.049614631   -0.18135568     0             -0.14205159     0.01950794   
  42890000   0.05028718    -0.18618293     0             -0.14634606     0.010643796  
  42900000   0.048027585   -0.17801739     0             -0.13997054    -0.021774599  
  42910000   0.049492216   -0.1797998      0             -0.14059269    -0.008465106  
  42920000   0.055345758   -0.18675442     0             -0.14291021    -0.0022481141 
  42930000   0.049552843   -0.19112756     0             -0.15187242    -0.0017880116 
  42940000   0.044629794   -0.18432847     0             -0.1489733     -0.0063296419 
  42950000   0.053419938   -0.19371974     0             -0.15140114     0.0031377743 
  42960000   0.04633918    -0.19352593     0             -0.15681661    -0.0039711124 
  42970000   0.050614695   -0.18715079     0             -0.14705446     0.013044176  
  42980000   0.050555229   -0.18010818     0             -0.14005896    -0.00079971139
  42990000   0.051046442   -0.18763542     0             -0.14719706    -0.027599946  
  43000000   0.048586372   -0.18334467     0             -0.14485515    -0.013702843  
  43010000   0.051396159   -0.1878186      0             -0.1471032      0.012253677  
  43020000   0.051813014   -0.18801582     0             -0.1469702     -0.0090370451 
  43030000   0.049638467   -0.18900544     0             -0.14968247    -0.0079923319 
  43040000   0.050186705   -0.18818499     0             -0.14842771     0.017102908  
  43050000   0.055615597   -0.18980839     0             -0.14575041    -0.010474418  
  43060000   0.049879236   -0.18660277     0             -0.14708906    -0.013056205  
  43070000   0.04104876    -0.18720029     0             -0.15468197     0.017837868  
  43080000   0.050722508   -0.18358994     0             -0.14340821     0.002196066  
  43090000   0.051449682   -0.18069747     0             -0.13993968     0.014958928  
  43100000   0.04515285    -0.1882911      0             -0.15252158    -0.0032004749 
  43110000   0.053378825   -0.17939551     0             -0.13710947     0.00019421814
  43120000   0.047764536   -0.18373432     0             -0.14589586     0.018275341  
  43130000   0.049700062   -0.18543156     0             -0.1460598     -0.0052145701 
  43140000   0.049904177   -0.19164947     0             -0.152116       0.0092326642 
  43150000   0.047613001   -0.19277024     0             -0.15505182     0.0016620954 
  43160000   0.049905243   -0.18980247     0             -0.15026816     0.011579487  
  43170000   0.046870418   -0.19000289     0             -0.15287273     0.0080831334 
  43180000   0.041588862   -0.18299718     0             -0.150051       0.00089807106
  43190000   0.050790496   -0.18763133     0             -0.14739574     0.0041045136 
  43200000   0.054154836   -0.18138237     0             -0.13848158     0.021975187  
  43210000   0.052497756   -0.18355526     0             -0.14196719     0.02144415   
  43220000   0.052089797   -0.18471094     0             -0.14344606    -0.015434201  
  43230000   0.053837389   -0.18458627     0             -0.14193696    -0.012924677  
  43240000   0.052045335   -0.18535703     0             -0.14412737    -0.012959094  
  43250000   0.050307416   -0.17761462     0             -0.13776171     0.022912466  
  43260000   0.052202863   -0.18291372     0             -0.14155927     0.016706874  
  43270000   0.053485865   -0.1838496      0             -0.14147877     0.012293107  
  43280000   0.049996611   -0.19107794     0             -0.15147125     0.021564956  
  43290000   0.046930716   -0.18018691     0             -0.14300898     0.023643934  
  43300000   0.04693919    -0.17381791     0             -0.13663327    -0.02676077   
  43310000   0.04401222    -0.18147841     0             -0.14661248     0.01383105   
  43320000   0.044273046   -0.18368356     0             -0.14861101     0.012741521  
  43330000   0.044255151   -0.18019268     0             -0.1451343      0.0014050838 
  43340000   0.047208458   -0.1787437      0             -0.14134575    -0.0058952499 
  43350000   0.047649147   -0.17736413     0             -0.13961708    -0.0074040896 
  43360000   0.054143152   -0.17736491     0             -0.13447338     0.011581491  
  43370000   0.050893422   -0.17340497     0             -0.13308783     0.017269044  
  43380000   0.048754798   -0.17272003     0             -0.13409709    -0.0090426112 
  43390000   0.047352657   -0.17767951     0             -0.14016732    -0.034420032  
  43400000   0.050573854   -0.17920968     0             -0.13914571     0.013758691  
  43410000   0.052517949   -0.18045214     0             -0.13884807     0.017757523  
  43420000   0.051695587   -0.17747051     0             -0.13651791     0.016894886  
  43430000   0.050795613   -0.18432904     0             -0.1440894     -0.0002654171 
  43440000   0.050314611   -0.18731139     0             -0.14745278    -0.021682069  
  43450000   0.046271155   -0.18398817     0             -0.14733274    -0.00040537212
  43460000   0.054185389   -0.18779915     0             -0.14487416     0.0097454961 
  43470000   0.047957504   -0.18983282     0             -0.15184148     0.0083223205 
  43480000   0.048843817   -0.18637785     0             -0.14768439    -0.0096158453 
  43490000   0.052438434   -0.18813579     0             -0.14659472     0.026803834  
  43500000   0.049347168   -0.19156998     0             -0.15247777    -0.020389055  
  43510000   0.047673309   -0.1851681      0             -0.1474019      0.0077214638 
  43520000   0.050918861   -0.19228809     0             -0.1519508      0.004880046  
  43530000   0.047369013   -0.19201126     0             -0.15448612    -0.023239157  
  43540000   0.052331917   -0.19669915     0             -0.15524246    -0.0028157074 
  43550000   0.047166836   -0.18992701     0             -0.15256204     0.0041455444 
  43560000   0.044062143   -0.19020325     0             -0.15529777    -0.031368004  
  43570000   0.050400365   -0.19248446     0             -0.15255792    -0.026525352  
  43580000   0.052564071   -0.18045129     0             -0.13881069     0.018959943  
  43590000   0.056166711   -0.18711502     0             -0.14262046    -0.01120852   
  43600000   0.047487756   -0.18639678     0             -0.14877757    -0.014191042  
  43610000   0.046957579   -0.18826403     0             -0.15106482     0.028404834  
  43620000   0.047247647   -0.18960465     0             -0.15217565    -0.017111693  
  43630000   0.047476021   -0.19638168     0             -0.15877177    -0.010354612  
  43640000   0.053930739   -0.19540532     0             -0.15268207    -0.025506857  
  43650000   0.047812772   -0.19303534     0             -0.15515866     0.012265367  
  43660000   0.05574578    -0.19469178     0             -0.15053067     0.040785632  
  43670000   0.053047714   -0.18461356     0             -0.14258983    -0.013432047  
  43680000   0.047773017   -0.18633376     0             -0.14848857    -0.016463934  
  43690000   0.046414003   -0.18821964     0             -0.15145105     0.0090739065 
  43700000   0.054221246   -0.19388033     0             -0.15092694     0.0033861282 
  43710000   0.043554236   -0.18849479     0             -0.15399167    -0.021089677  
  43720000   0.047939256   -0.1910034      0             -0.15302652     0.021769648  
  43730000   0.05057903    -0.1861465      0             -0.14607842     0.028493901  
  43740000   0.049250782   -0.19111484     0             -0.15209899    -0.0025824589 
  43750000   0.04833373    -0.18696888     0             -0.1486795     -0.012348381  
  43760000   0.048563426   -0.19152018     0             -0.15304884     0.01841593   
  43770000   0.051810367   -0.18585947     0             -0.14481594    -0.032785238  
  43780000   0.046687501   -0.19115387     0             -0.15416861    -0.00094159724
  43790000   0.050798868   -0.18715678     0             -0.14691455    -0.0046094917 
  43800000   0.05164511    -0.19094611     0             -0.1500335     -0.017392692  
  43810000   0.045346386   -0.18612944     0             -0.1502066      0.0093014698 
  43820000   0.053275188   -0.18715843     0             -0.14495449    -0.00032768054
  43830000   0.048489008   -0.19141537     0             -0.15300298     0.0040547844 
  43840000   0.045036729   -0.18615521     0             -0.15047767    -0.016748844  
  43850000   0.055037251   -0.19036384     0             -0.14676402     0.00091688095
  43860000   0.051394948   -0.19402405     0             -0.15330962     0.0098825549 
  43870000   0.049878167   -0.18475083     0             -0.14523797     0.0094817962 
  43880000   0.050615643   -0.18858067     0             -0.14848359    -0.0098419091 
  43890000   0.04630761    -0.18957388     0             -0.15288957     0.0086696924 
  43900000   0.048655783   -0.19388323     0             -0.15533872    -0.018869929  
  43910000   0.043913344   -0.18896018     0             -0.15417258    -0.0012410818 
  43920000   0.052008284   -0.18375385     0             -0.14255353    -0.0022801822 
  43930000   0.051762649   -0.18333918     0             -0.14233346     0.023004669  
  43940000   0.048754872   -0.18669079     0             -0.14806779    -0.019955071  
  43950000   0.047706939   -0.19090839     0             -0.15311555     0.031199306  
  43960000   0.045213714   -0.190066       0             -0.15424826     0.0042221194 
  43970000   0.045958154   -0.18891537     0             -0.15250789    -0.0061331289 
  43980000   0.051865175   -0.18744856     0             -0.14636162    -0.0011156429 
  43990000   0.050723765   -0.18249348     0             -0.14231075     0.0058863112 
  44000000   0.049319128   -0.18981211     0             -0.15074211    -0.0068868841 
  44010000   0.054783217   -0.18734555     0             -0.14394697    -0.017702862  
  44020000   0.052564874   -0.18931742     0             -0.14767618    -0.021813264  
  44030000   0.050582863   -0.18219267     0             -0.14212156     0.0012098455 
  44040000   0.052055685   -0.18527539     0             -0.14403753    -0.02834755   
  44050000   0.046817051   -0.18354203     0             -0.14645415    -0.0016677662 
  44060000   0.049530282   -0.18497323     0             -0.14573596    -0.015473654  
  44070000   0.053695141   -0.18296296     0             -0.14042634    -0.023618879  
  44080000   0.047511022   -0.17621824     0             -0.1385806      0.0019084632 
  44090000   0.051489446   -0.1794003      0             -0.138611      -0.0097600348 
  44100000   0.05082701    -0.17805198     0             -0.13778745     0.00029955054
  44110000   0.052726477   -0.17846585     0             -0.1366966     -0.013507356  
  44120000   0.0467679     -0.17983586     0             -0.14278691     0.0054162049 
  44130000   0.052738101   -0.17912364     0             -0.13734518     0.00064423645
  44140000   0.049791093   -0.17841306     0             -0.13896918     0.00012910365
  44150000   0.052224911   -0.18836232     0             -0.1469904     -0.0022383162 
  44160000   0.054618119   -0.18400683     0             -0.14073904     0.007873652  
  44170000   0.050985332   -0.17250507     0             -0.13211513     0.024477079  
  44180000   0.048296152   -0.18216479     0             -0.14390519    -0.012557976  
  44190000   0.04870549    -0.18299064     0             -0.14440676     0.015284979  
  44200000   0.051473846   -0.17639072     0             -0.13561378    -0.01290328   
  44210000   0.05124807    -0.18015489     0             -0.13955681     0.010931451  
  44220000   0.056865933   -0.17565472     0             -0.13060624    -0.0074674814 
  44230000   0.046483684   -0.18343986     0             -0.14661607     0.0081997033 
  44240000   0.055274151   -0.17888785     0             -0.13510036    -0.014970063  
  44250000   0.048775259   -0.19045376     0             -0.15181461     0.011510473  
  44260000   0.052861038   -0.18495062     0             -0.14307477     0.0073640184 
  44270000   0.046797765   -0.18617153     0             -0.14909892     0.027506065  
  44280000   0.055891325   -0.1837774      0             -0.13950099    -0.025501793  
  44290000   0.054731969   -0.18769266     0             -0.14433468     0.0020091272 
  44300000   0.046728305   -0.1890016      0             -0.15198402    -0.0027953447 
  44310000   0.050790227   -0.1882294      0             -0.14799402    -0.010129134  
  44320000   0.048375656   -0.17995189     0             -0.1416293      0.013918955  
  44330000   0.047213918   -0.18652999     0             -0.14912771    -0.02360179   
  44340000   0.050896507   -0.17973185     0             -0.13941228    -0.0027993113 
  44350000   0.043406654   -0.17714582     0             -0.14275961     0.012470484  
  44360000   0.048363525   -0.17232976     0             -0.13401678    -0.0017818884 
  44370000   0.053458156   -0.17672529     0             -0.13437641     0.033807862  
  44380000   0.052057249   -0.17615582     0             -0.13491672     0.01930653   
  44390000   0.051698674   -0.16729446     0             -0.12633941     0.0237571    
  44400000   0.047608793   -0.17221064     0             -0.13449555     0.01382142   
  44410000   0.049658215   -0.16921267     0             -0.12987405    -0.0008953155 
  44420000   0.052933743   -0.168445       0             -0.12651155     0.0018261283 
  44430000   0.048219605   -0.1658324      0             -0.12763343    -0.018694352  
  44440000   0.056038308   -0.17333125     0             -0.1289384      0.00047141107
  44450000   0.049943293   -0.17012986     0             -0.13056541    -0.00036775408
  44460000   0.048803229   -0.18242949     0             -0.14376818     0.0021300682 
  44470000   0.050722942   -0.1784106      0             -0.13822852    -0.036225349  
  44480000   0.058757008   -0.18084899     0             -0.13430243    -0.016477542  
  44490000   0.044296171   -0.17416227     0             -0.1390714      0.0025633536 
  44500000   0.054687566   -0.17854035     0             -0.13521754    -0.022412147  
  44510000   0.050824737   -0.17470903     0             -0.13444631    -0.028929561  
  44520000   0.047735664   -0.17591563     0             -0.13810003    -0.011085864  
  44530000   0.056838561   -0.17054875     0             -0.12552195     0.0092600779 
  44540000   0.054300038   -0.18177147     0             -0.13875566     0.0059081649 
  44550000   0.052847619   -0.18325496     0             -0.14138974    -0.0172776    
  44560000   0.053763177   -0.18008127     0             -0.13749075    -0.0029057177 
  44570000   0.051434499   -0.18030579     0             -0.13956002     0.012339376  
  44580000   0.047698507   -0.17714926     0             -0.1393631     -0.00039986599
  44590000   0.050411463   -0.17975311     0             -0.13981778     0.015971089  
  44600000   0.050069552   -0.17325599     0             -0.13359152    -0.0065821754 
  44610000   0.054695888   -0.16796899     0             -0.1246396      0.011313112  
  44620000   0.052661521   -0.17633302     0             -0.13461522     0.011295282  
  44630000   0.047583844   -0.18185685     0             -0.14416152     0.0094976936 
  44640000   0.051523254   -0.18655453     0             -0.14573845     0.033342103  
  44650000   0.050450222   -0.18909121     0             -0.14912518     0.011965069  
  44660000   0.048365999   -0.18721111     0             -0.14889617    -0.013584966  
  44670000   0.05245992    -0.18936642     0             -0.14780833    -0.0077756951 
  44680000   0.049625658   -0.18308493     0             -0.1437721     -0.0021142184 
  44690000   0.047762304   -0.18526476     0             -0.14742806     0.0074726023 
  44700000   0.047682289   -0.18322544     0             -0.14545213    -0.0010373698 
  44710000   0.050441282   -0.18468761     0             -0.14472866     0.018745107  
  44720000   0.047366528   -0.18721764     0             -0.14969447     0.01030593   
  44730000   0.049632296   -0.18120171     0             -0.14188362    -0.00019917912
  44740000   0.046854131   -0.17560684     0             -0.13848959     0.018767789  
  44750000   0.05039506    -0.18101155     0             -0.14108922     0.00022623471
  44760000   0.04915324    -0.18420827     0             -0.14526969     0.022880982  
  44770000   0.052189996   -0.18174992     0             -0.14040566    -0.010767956  
  44780000   0.045429481   -0.18607792     0             -0.15008925    -0.035306632  
  44790000   0.043344693   -0.18598979     0             -0.15165267    -0.0064992736 
  44800000   0.048994399   -0.18480943     0             -0.14599668    -0.018118003  
  44810000   0.053820369   -0.17484806     0             -0.13221224     0.024088838  
  44820000   0.047576028   -0.18529996     0             -0.14761082     0.024449457  
  44830000   0.052994099   -0.18704436     0             -0.1450631     -0.012547653  
  44840000   0.04955247    -0.18655167     0             -0.14729682     0.011049043  
  44850000   0.054905031   -0.1807897      0             -0.13729462     0.0083139802 
  44860000   0.04963961    -0.17540398     0             -0.1360801     -0.016995186  
  44870000   0.051815131   -0.17757986     0             -0.13653256     0.0030431999 
  44880000   0.048938132   -0.18319886     0             -0.14443068     0.017800354  
  44890000   0.056756002   -0.18583141     0             -0.14087002    -0.0044302675 
  44900000   0.050210831   -0.1774728      0             -0.13769641     0.016034338  
  44910000   0.054356949   -0.17968319     0             -0.13662229     0.015966829  
  44920000   0.0514342     -0.17542177     0             -0.13467624     0.020506473  
  44930000   0.051411204   -0.17047327     0             -0.12974596    -0.015909035  
  44940000   0.051308713   -0.18382187     0             -0.14317575    -0.0048676221 
  44950000   0.054679221   -0.18441172     0             -0.14109552    -0.0071406233 
  44960000   0.045956853   -0.17907645     0             -0.14267        0.022050335  
  44970000   0.046311616   -0.17319903     0             -0.13651155     0.0072014767 
  44980000   0.048583335   -0.16986116     0             -0.13137405     0.041172836  
  44990000   0.045752381   -0.17342777     0             -0.13718331     0.01096591   
  45000000   0.055284492   -0.18200242     0             -0.13820674    -0.014400194  
  45010000   0.047684492   -0.17666857     0             -0.13889352    -0.014592911  
  45020000   0.048426617   -0.17212905     0             -0.13376609    -0.017744806  
  45030000   0.049934457   -0.17222538     0             -0.13266792    -0.0019860835 
  45040000   0.049811614   -0.1705783      0             -0.13111816    -0.0059813929 
  45050000   0.048393034   -0.17498272     0             -0.13664637     0.010867346  
  45060000   0.051250072   -0.18252947     0             -0.1419298      0.006618951  
  45070000   0.052881847   -0.17874543     0             -0.1368531      0.038779619  
  45080000   0.048263124   -0.18077398     0             -0.14254054     0.0077201052 
  45090000   0.043556131   -0.1787882      0             -0.14428358     0.0013024359 
  45100000   0.047233649   -0.18722002     0             -0.14980211    -0.010346868  
  45110000   0.050631246   -0.17557012     0             -0.13546068     0.045316514  
  45120000   0.046348199   -0.17777434     0             -0.14105787    -0.0050238694 
  45130000   0.054214487   -0.17902918     0             -0.13608114    -0.010206165  
  45140000   0.052871733   -0.17894471     0             -0.13706038    -0.0041201759 
  45150000   0.051665351   -0.18126085     0             -0.1403322     -0.031457914  
  45160000   0.048955602   -0.16961847     0             -0.13083645    -0.038683857  
  45170000   0.049388658   -0.17920934     0             -0.14008427     0.0049709764 
  45180000   0.045999203   -0.17596478     0             -0.13952479    -0.021305648  
  45190000   0.048492741   -0.18237015     0             -0.14395481     0.0075637993 
  45200000   0.052109663   -0.18565842     0             -0.1443778     -0.0014326145 
  45210000   0.052501526   -0.18660966     0             -0.14501861     0.0048759304 
  45220000   0.048042513   -0.18519673     0             -0.14713805    -0.015740305  
  45230000   0.055120381   -0.18351011     0             -0.13984443     0.0034320679 
  45240000   0.0459678     -0.17364665     0             -0.13723154     0.0075980416 
  45250000   0.051093385   -0.17329434     0             -0.1328188     -0.0017125571 
  45260000   0.050754407   -0.17352404     0             -0.13331703    -0.011241134  
  45270000   0.045732119   -0.17462659     0             -0.13839818     0.00061047871
  45280000   0.052941536   -0.17599887     0             -0.13405925     0.0098724902 
  45290000   0.055168302   -0.17966891     0             -0.13596527     0.012758576  
  45300000   0.050534338   -0.17420036     0             -0.13416769     0.0094547666 
  45310000   0.051273742   -0.18181839     0             -0.14119998    -0.022569075  
  45320000   0.05146778    -0.18358017     0             -0.14280804    -0.020706918  
  45330000   0.048988935   -0.18641874     0             -0.14761032     0.0053694571 
  45340000   0.043379892   -0.19006136     0             -0.15569635    -0.05398977   
  45350000   0.0528016     -0.17634335     0             -0.13451459     0.0047246377 
  45360000   0.046988767   -0.17967889     0             -0.14245497    -0.016922638  
  45370000   0.049105379   -0.18813964     0             -0.14923897     0.0057278632 
  45380000   0.050118889   -0.19019774     0             -0.15049418    -0.0008925739 
  45390000   0.051902385   -0.19235849     0             -0.15124207    -0.023632545  
  45400000   0.049311522   -0.19455281     0             -0.15548884    -0.039120733  
  45410000   0.046936028   -0.19694369     0             -0.15976156    -0.0082043181 
  45420000   0.048088161   -0.19960856     0             -0.16151372    -0.0093895807 
  45430000   0.05532168    -0.19774672     0             -0.15392158     0.006469675  
  45440000   0.048863851   -0.20733231     0             -0.16862298     0.0016054687 
  45450000   0.051293479   -0.19798146     0             -0.1573474      0.005283006  
  45460000   0.051895827   -0.20312256     0             -0.16201134     0.014125466  
  45470000   0.049383893   -0.19238359     0             -0.15326229     0.0085761945 
  45480000   0.049308728   -0.19549652     0             -0.15643476     0.0021215651 
  45490000   0.051126998   -0.19604032     0             -0.15553815    -0.00081889473
  45500000   0.051395775   -0.19759896     0             -0.15688387    -0.012601498  
  45510000   0.049471259   -0.2025794      0             -0.16338889    -0.010450938  
  45520000   0.045380113   -0.194642       0             -0.15869245    -0.009876873  
  45530000   0.053746467   -0.20039943     0             -0.15782215    -0.0033728796 
  45540000   0.046583225   -0.20480429     0             -0.16790165     0.034382136  
  45550000   0.049353616   -0.19005385     0             -0.15095653     0.008600319  
  45560000   0.046663658   -0.19521793     0             -0.15825156     0.018003785  
  45570000   0.045812523   -0.19069275     0             -0.15440064    -0.0059637452 
  45580000   0.052307648   -0.1981824      0             -0.15674494    -0.013689384  
  45590000   0.052776775   -0.19214168     0             -0.15033258     0.018880087  
  45600000   0.047429462   -0.18432319     0             -0.14675016     0.0083347089 
  45610000   0.044433094   -0.1837451      0             -0.14854576    -0.018987388  
  45620000   0.051282361   -0.18927584     0             -0.1486506     -0.012842432  
  45630000   0.051751819   -0.19273882     0             -0.15174167     0.023838878  
  45640000   0.05253022    -0.18860214     0             -0.14698835    -0.0052087805 
  45650000   0.048950542   -0.20376329     0             -0.16498528    -0.01718887   
  45660000   0.052105623   -0.19374234     0             -0.15246492     0.031703271  
  45670000   0.046647507   -0.19361772     0             -0.15666415    -0.028990886  
  45680000   0.049023307   -0.19391352     0             -0.15507787    -0.0080060551 
  45690000   0.047557166   -0.19458341     0             -0.15690921     0.0033404592 
  45700000   0.047347147   -0.19351108     0             -0.15600326    -0.019676551  
  45710000   0.044945417   -0.19764132     0             -0.16203613     0.011381786  
  45720000   0.052067802   -0.1880997      0             -0.14685224    -0.0043670956 
  45730000   0.050907272   -0.19174131     0             -0.1514132      0.0034953133 
  45740000   0.051189114   -0.18711838     0             -0.14656701     0.019063165  
  45750000   0.049476743   -0.18463856     0             -0.14544371     0.00060825553
  45760000   0.052652429   -0.18828983     0             -0.14657923     0.0087930657 
  45770000   0.051437245   -0.18204944     0             -0.1413015     -0.027710489  
  45780000   0.052430472   -0.19260329     0             -0.15106853     0.0054305446 
  45790000   0.05134601    -0.18890546     0             -0.14822979    -0.0016979972 
  45800000   0.048103845   -0.19301799     0             -0.15491073     0.04367775   
  45810000   0.045860772   -0.19616938     0             -0.15983905     0.021630861  
  45820000   0.053033105   -0.19301017     0             -0.15099801     0.0085858885 
  45830000   0.052643587   -0.20279293     0             -0.16108933     0.013149154  
  45840000   0.049107514   -0.19487641     0             -0.15597405    -0.019392089  
  45850000   0.051661554   -0.19881095     0             -0.15788531    -0.0011657892 
  45860000   0.050472984   -0.19809914     0             -0.15811507    -0.014473288  
  45870000   0.052440909   -0.20106926     0             -0.15952622    -0.011035144  
  45880000   0.051580737   -0.1960538      0             -0.15519218     0.034592777  
  45890000   0.049400924   -0.1933534      0             -0.1542186     -0.016720999  
  45900000   0.047349212   -0.19873969     0             -0.16123024     0.018745967  
  45910000   0.050052102   -0.19641034     0             -0.15675969     0.01178904   
  45920000   0.049824573   -0.19229099     0             -0.15282059    -0.00028217849
  45930000   0.059526043   -0.20092796     0             -0.15377217     0.0018235081 
  45940000   0.049017712   -0.20318336     0             -0.16435214     0.00065572253
  45950000   0.047516457   -0.18651653     0             -0.14887459     0.017738296  
  45960000   0.048475732   -0.18404859     0             -0.14564672     0.010248178  
  45970000   0.050975872   -0.18569558     0             -0.14531313     0.0064262937 
  45980000   0.054463915   -0.1804568      0             -0.13731117     0.011962972  
  45990000   0.045964663   -0.18774119     0             -0.15132856     0.0041651195 
  46000000   0.047320399   -0.18321556     0             -0.14572893     0.029361416  
  46010000   0.049043505   -0.18081591     0             -0.14196426     0.0060782995 
  46020000   0.04568788    -0.18111885     0             -0.14492548    -0.0023213671 
  46030000   0.049370494   -0.1852444      0             -0.14613371     0.022175169  
  46040000   0.048818017   -0.18032879     0             -0.14165577    -0.0083380112 
  46050000   0.051018168   -0.17561615     0             -0.1352002     -0.038825682  
  46060000   0.053368893   -0.17330151     0             -0.13102334     0.0024792804 
  46070000   0.043874473   -0.17401639     0             -0.13925958     0.001287446  
  46080000   0.049576287   -0.17203254     0             -0.13275883    -0.0029734908 
  46090000   0.052831696   -0.17826829     0             -0.13641568     0.0034664042 
  46100000   0.04392545    -0.17215435     0             -0.13735716     0.024590512  
  46110000   0.052330139   -0.17159595     0             -0.13014067     0.0019697142 
  46120000   0.047205001   -0.17583921     0             -0.138444       0.009571631  
  46130000   0.045118594   -0.17061331     0             -0.13487092     0.020273833  
  46140000   0.047501406   -0.17762379     0             -0.13999377    -0.010067524  
  46150000   0.050983111   -0.17546969     0             -0.13508151    -0.012911457  
  46160000   0.044096418   -0.17882283     0             -0.1438902     -0.020263778  
  46170000   0.056023927   -0.17402149     0             -0.12964004     0.0065514597 
  46180000   0.047736116   -0.17353516     0             -0.13571921     0.0027981279 
  46190000   0.04952944    -0.17494111     0             -0.13570451     0.015470464  
  46200000   0.047519437   -0.17231567     0             -0.13467137    -0.0010743325 
  46210000   0.049979386   -0.16763132     0             -0.12803827     0.028130988  
  46220000   0.044692748   -0.17659067     0             -0.14118564     0.016132531  
  46230000   0.048175222   -0.17521824     0             -0.13705444    -0.0027221233 
  46240000   0.053875379   -0.18374258     0             -0.14106318    -0.0061477841 
  46250000   0.051308349   -0.18194369     0             -0.14129786    -0.024751745  
  46260000   0.047413226   -0.17011474     0             -0.13255457    -0.020723553  
  46270000   0.052780927   -0.17759313     0             -0.13578074    -0.0016816601 
  46280000   0.049944505   -0.18293827     0             -0.14337286    -0.00026936477
  46290000   0.051484028   -0.1855065      0             -0.14472149     0.018295946  
  46300000   0.048640532   -0.18624493     0             -0.14771251    -0.018340557  
  46310000   0.048046076   -0.18875854     0             -0.15069704     0.0022148891 
  46320000   0.054469373   -0.1860115      0             -0.14286154    -0.015813495  
  46330000   0.050399975   -0.17952796     0             -0.13960173     0.023854961  
  46340000   0.050234594   -0.18323232     0             -0.1434371     -0.0053020721 
  46350000   0.045900869   -0.1827067      0             -0.14634461     0.0038161521 
  46360000   0.04291348    -0.18716039     0             -0.15316486    -0.010910268  
  46370000   0.05311242    -0.18737265     0             -0.14529765    -0.0018912896 
  46380000   0.048674914   -0.17817101     0             -0.13961135    -0.019276473  
  46390000   0.051485508   -0.17754369     0             -0.13675752    -0.0075971876 
  46400000   0.050771017   -0.19140456     0             -0.1511844     -0.0050858151 
  46410000   0.046531674   -0.18269871     0             -0.1458369      0.0037781703 
  46420000   0.0497564     -0.18929537     0             -0.14987898     0.01584504   
  46430000   0.053712661   -0.18899818     0             -0.14644768    -0.0056449761 
  46440000   0.055062184   -0.18705203     0             -0.14343245     0.010448259  
  46450000   0.051438673   -0.1902367      0             -0.14948762     0.00054289927
  46460000   0.050301333   -0.193324       0             -0.15347591     0.0064916058 
  46470000   0.046968808   -0.19039606     0             -0.15318796    -0.015766534  
  46480000   0.056454799   -0.19415487     0             -0.14943209    -0.0039890015 
  46490000   0.053141734   -0.18930754     0             -0.14720932     0.022046649  
  46500000   0.055777762   -0.18934656     0             -0.14516011     0.0029358647 
  46510000   0.053617964   -0.19449211     0             -0.15201663     0.0089565503 
  46520000   0.052145033   -0.18835901     0             -0.14705037     0.00014902804
  46530000   0.053234821   -0.1887214      0             -0.14654944    -0.018342218  
  46540000   0.049977926   -0.19057094     0             -0.15097906     0.022926003  
  46550000   0.05159864    -0.1989249      0             -0.1580491      0.0050251085 
  46560000   0.051307415   -0.19435749     0             -0.1537124     -0.00069504244
  46570000   0.051014758   -0.18726231     0             -0.14684906    -0.042017179  
  46580000   0.047795633   -0.19072289     0             -0.15285979     0.03309991   
  46590000   0.05267492    -0.19407817     0             -0.15234976    -0.03791776   
  46600000   0.053590998   -0.19409149     0             -0.15163737    -0.019040334  
  46610000   0.055549961   -0.19413046     0             -0.15012448     0.016514964  
  46620000   0.050764317   -0.19334956     0             -0.1531347     -0.012859432  
  46630000   0.051019878   -0.19774693     0             -0.15732962    -0.0088775164 
  46640000   0.046562992   -0.18614155     0             -0.14925493    -0.018135057  
  46650000   0.052367763   -0.18276335     0             -0.14127826    -0.0088522044 
  46660000   0.049278184   -0.18722587     0             -0.14818831     0.027641817  
  46670000   0.049203242   -0.18271793     0             -0.14373974     0.009714366  
  46680000   0.045685126   -0.18234995     0             -0.14615876    -0.0032137679 
  46690000   0.050315029   -0.1854339      0             -0.14557496    -0.0077177328 
  46700000   0.052671605   -0.17741307     0             -0.13568729    -0.014777609  
  46710000   0.050748704   -0.17809831     0             -0.13789582    -0.024143842  
  46720000   0.051929167   -0.17612108     0             -0.13498344     0.00090405163
  46730000   0.055079435   -0.17028905     0             -0.12665581     0.029969803  
  46740000   0.050444171   -0.1836076      0             -0.14364636     0.00026058482
  46750000   0.049404117   -0.186365       0             -0.14722767     0.00099482647
  46760000   0.047621779   -0.18437042     0             -0.14664505    -0.0056386488 
  46770000   0.045674896   -0.18665228     0             -0.1504692      0.0088608611 
  46780000   0.05294105    -0.18925685     0             -0.14731761    -0.032210172  
  46790000   0.051101078   -0.17993618     0             -0.13945455     0.0070236312 
  46800000   0.052544993   -0.17666474     0             -0.13503925     0.021295614  
  46810000   0.044569776   -0.18025927     0             -0.14495165    -0.0099952898 
  46820000   0.042859269   -0.17355599     0             -0.13960341     0.021962126  
  46830000   0.047643436   -0.17326218     0             -0.13551965    -0.018145917  
  46840000   0.052914375   -0.17071061     0             -0.12879251     0.028689105  
  46850000   0.048918246   -0.1709563      0             -0.13220388     0.014621016  
  46860000   0.049549603   -0.16566493     0             -0.12641236     0.034177191  
  46870000   0.053934546   -0.17108827     0             -0.128362      -0.0023155463 
  46880000   0.044459208   -0.16945469     0             -0.13423466    -0.019193429  
  46890000   0.046244757   -0.16840928     0             -0.13177476    -0.0055460076 
  46900000   0.0482906     -0.17217851     0             -0.1339233      0.019282451  
  46910000   0.057311041   -0.16799493     0             -0.12259384    -0.009207357  
  46920000   0.051000069   -0.17082892     0             -0.1304273     -0.02297635   
  46930000   0.049715884   -0.16930257     0             -0.12991827    -0.038475074  
  46940000   0.054668696   -0.17165835     0             -0.1283505      0.0053241628 
  46950000   0.044151634   -0.16613031     0             -0.13115394     0.010546083  
  46960000   0.051979214   -0.16747735     0             -0.12630007     0.00081699395
  46970000   0.05398384    -0.16400217     0             -0.12123684    -0.0039676835 
  46980000   0.04641198    -0.16828584     0             -0.13151885     0.012978377  
  46990000   0.048118462   -0.16808211     0             -0.12996326    -0.0065788152 
  47000000   0.047940316   -0.16311869     0             -0.12514097     0.027551983  
  47010000   0.048118065   -0.16394238     0             -0.12582385    -0.0033197646 
  47020000   0.042769462   -0.17773964     0             -0.14385821    -0.012280145  
  47030000   0.048512002   -0.17117683     0             -0.13274623     0.017681995  
  47040000   0.049354229   -0.18173056     0             -0.14263276     0.0076024219 
  47050000   0.04778107    -0.18431232     0             -0.14646075    -0.0053355159 
  47060000   0.057249137   -0.18126729     0             -0.13591524     0.001427572  
  47070000   0.054857009   -0.17570901     0             -0.13225197    -0.012361396  
  47080000   0.048697565   -0.17629916     0             -0.13772156    -0.038304509  
  47090000   0.04815811    -0.18129336     0             -0.14314311     0.024486     
  47100000   0.048527454   -0.18090964     0             -0.1424668     -0.009033858  
  47110000   0.051816059   -0.18803507     0             -0.14698703     0.002956879  
  47120000   0.050428417   -0.18981765     0             -0.14986889     0.0088219853 
  47130000   0.048423967   -0.18732844     0             -0.14896758    -0.017615726  
  47140000   0.04517649    -0.18099707     0             -0.14520882     0.0034266313 
  47150000   0.050798019   -0.1816443      0             -0.14140275     0.0080901337 
  47160000   0.046698361   -0.18747083     0             -0.15047697     0.0036087643 
  47170000   0.044821229   -0.18067901     0             -0.14517219    -0.029556524  
  47180000   0.051303267   -0.18056008     0             -0.13991827     0.013282449  
  47190000   0.051519783   -0.17915896     0             -0.13834563     0.051737059  
  47200000   0.050085445   -0.18572788     0             -0.14605081    -0.022246801  
  47210000   0.053274098   -0.18841872     0             -0.14621564    -0.015104572  
  47220000   0.053943574   -0.19039279     0             -0.14765937     0.0058385875 
  47230000   0.045475776   -0.18546006     0             -0.14943472     0.00486023   
  47240000   0.046098851   -0.18948516     0             -0.15296623    -0.0064170372 
  47250000   0.047462115   -0.18599636     0             -0.14839747    -0.0074280999 
  47260000   0.051175511   -0.18932207     0             -0.14878147    -0.0010752864 
  47270000   0.049570199   -0.18174031     0             -0.14247142    -0.010969989  
  47280000   0.047474208   -0.18649523     0             -0.14888676     0.033086821  
  47290000   0.055103973   -0.18720165     0             -0.14354897    -0.00027028636
  47300000   0.048104538   -0.18242189     0             -0.14431407    -0.016713394  
  47310000   0.047070891   -0.19174989     0             -0.15446092     0.010536256  
  47320000   0.051557719   -0.19616565     0             -0.15532227    -0.024166813  
  47330000   0.053341935   -0.19310858     0             -0.15085176    -0.0045319894 
  47340000   0.045895059   -0.19660482     0             -0.16024732     0.0042044707 
  47350000   0.046258215   -0.18773997     0             -0.15109479     0.029729661  
  47360000   0.049994569   -0.18822172     0             -0.14861665     0.003241826  
  47370000   0.050121367   -0.19677297     0             -0.15706745     0.0017882112 
  47380000   0.055778834   -0.19841539     0             -0.1542281     -0.040648959  
  47390000   0.050606275   -0.19280063     0             -0.15271097    -0.0079602676 
  47400000   0.050446744   -0.19177166     0             -0.15180838     0.028968781  
  47410000   0.047573257   -0.1937369      0             -0.15604996    -0.0119267    
  47420000   0.04775729    -0.19282615     0             -0.15499342     0.032065249  
  47430000   0.048926139   -0.18884679     0             -0.15008811    -0.024275361  
  47440000   0.051888993   -0.18888238     0             -0.14777657    -0.0043142788 
  47450000   0.047538808   -0.1890572      0             -0.15139755    -0.012084667  
  47460000   0.049227772   -0.18832197     0             -0.14932434    -0.032048975  
  47470000   0.053675823   -0.18521713     0             -0.14269582     0.01022827   
  47480000   0.04525748    -0.18184986     0             -0.14599745    -0.011658142  
  47490000   0.055823409   -0.19376931     0             -0.1495467     -0.014672997  
  47500000   0.051344132   -0.18798793     0             -0.14731376    -0.0069561946 
  47510000   0.045739974   -0.18934127     0             -0.15310663    -0.0035261686 
  47520000   0.045835392   -0.18049185     0             -0.14418162     0.014893599  
  47530000   0.048969867   -0.19071158     0             -0.15191826    -0.00027547164
  47540000   0.05232348    -0.18912632     0             -0.14767632    -0.021720834  
  47550000   0.047965889   -0.19149106     0             -0.15349309    -0.021134808  
  47560000   0.052843504   -0.1907486      0             -0.14888664     0.0069148771 
  47570000   0.049292354   -0.18368189     0             -0.1446331     -0.01016069   
  47580000   0.056646376   -0.17911965     0             -0.1342451      0.0098064384 
  47590000   0.048447787   -0.18479995     0             -0.14642022     0.017345556  
  47600000   0.04608778    -0.18227632     0             -0.14576616     0.0084800598 
  47610000   0.051076303   -0.17556943     0             -0.13510742     0.004808333  
  47620000   0.047974752   -0.17763805     0             -0.13963305    -0.024833057  
  47630000   0.057219428   -0.17725187     0             -0.13192336     0.019080253  
  47640000   0.046144476   -0.17677239     0             -0.14021732     0.03924084   
  47650000   0.049370103   -0.18164403     0             -0.14253365     0.021595565  
  47660000   0.049568932   -0.17588343     0             -0.13661554     0.013939652  
  47670000   0.047810725   -0.18084156     0             -0.1429665     -0.0012713542 
  47680000   0.0519808     -0.17706163     0             -0.13588309    -0.022441386  
  47690000   0.054903091   -0.17169578     0             -0.12820224    -0.015096345  
  47700000   0.054235071   -0.17553089     0             -0.13256654    -0.002451453  
  47710000   0.051754044   -0.18379422     0             -0.14279532    -0.0077029475 
  47720000   0.051524539   -0.17964991     0             -0.13883282    -0.0099762354 
  47730000   0.052344144   -0.16899768     0             -0.1275313      0.013720191  
  47740000   0.05312461    -0.18060507     0             -0.13852042    -0.010815665  
  47750000   0.05463161    -0.18438971     0             -0.14111123    -0.026874328  
  47760000   0.048294258   -0.17790113     0             -0.13964302     0.010416443  
  47770000   0.048606123   -0.18127787     0             -0.1427727     -0.0028357495 
  47780000   0.058206771   -0.18468745     0             -0.13857678    -0.0048435462 
  47790000   0.049517916   -0.18629667     0             -0.1470692     -0.0050363696 
  47800000   0.048176251   -0.18477287     0             -0.14660825     0.0015006644 
  47810000   0.04531429    -0.19454302     0             -0.1586456      0.014670753  
  47820000   0.046058361   -0.18426872     0             -0.14778186    -0.030047231  
  47830000   0.047856632   -0.19188855     0             -0.15397713    -0.012692917  
  47840000   0.05288714    -0.19716908     0             -0.15527255    -0.0007432955 
  47850000   0.050685909   -0.19542758     0             -0.15527483     0.0076314756 
  47860000   0.047887239   -0.1833913      0             -0.14545563     0.018744543  
  47870000   0.046030584   -0.17641153     0             -0.13994668    -0.023087615  
  47880000   0.050887547   -0.17462017     0             -0.13430769     0.015946103  
  47890000   0.044827429   -0.17424848     0             -0.13873675     0.038561933  
  47900000   0.048707662   -0.1749022      0             -0.13631659     0.0042298507 
  47910000   0.05196058    -0.18130087     0             -0.14013835    -0.019911221  
  47920000   0.049818576   -0.17565163     0             -0.13618598    -0.018439736  
  47930000   0.047898412   -0.17726126     0             -0.13931674     0.035538397  
  47940000   0.054422321   -0.18151374     0             -0.13840106    -0.00016035715
  47950000   0.051588453   -0.17447418     0             -0.13360645     0.027825073  
  47960000   0.049056218   -0.17074438     0             -0.13188266    -0.0094327833 
  47970000   0.045672177   -0.1755433      0             -0.13936237     0.0023418647 
  47980000   0.052349509   -0.18119439     0             -0.13972376    -0.011422321  
  47990000   0.048332057   -0.17609144     0             -0.13780338     0.01051882   
  48000000   0.046458675   -0.18291786     0             -0.14611388    -0.014097419  
  48010000   0.051630928   -0.18293838     0             -0.142037       0.019746434  
  48020000   0.046708234   -0.17629054     0             -0.13928886     0.018004539  
  48030000   0.050682216   -0.184607       0             -0.14445719    -0.017242497  
  48040000   0.053266252   -0.18117453     0             -0.13897767     0.0133947    
  48050000   0.053354891   -0.17918946     0             -0.13692238     0.019731756  
  48060000   0.051177531   -0.17222256     0             -0.13168036     0.0015628716 
  48070000   0.0489982     -0.17712078     0             -0.13830502    -0.038334773  
  48080000   0.051279402   -0.17188716     0             -0.13126426    -0.012892871  
  48090000   0.049159024   -0.17079529     0             -0.13185213     0.0013232325 
  48100000   0.049932378   -0.16761145     0             -0.12805565    -0.024042746  
  48110000   0.04640352    -0.17689201     0             -0.14013172    -0.018558328  
  48120000   0.051483841   -0.17437315     0             -0.13358829     0.011051143  
  48130000   0.047496964   -0.16730316     0             -0.12967666     0.013402953  
  48140000   0.049971083   -0.16836206     0             -0.1287756      0.0036212569 
  48150000   0.044049723   -0.16954098     0             -0.13464534    -0.017401489  
  48160000   0.048337596   -0.1749572      0             -0.13666476    -0.017923065  
  48170000   0.053355547   -0.17558372     0             -0.13331612     0.0079860041 
  48180000   0.04427767    -0.16959188     0             -0.13451567    -0.010310863  
  48190000   0.057162919   -0.17093679     0             -0.12565304     0.0016927744 
  48200000   0.048060309   -0.16586997     0             -0.12779719    -0.013332626  
  48210000   0.048982137   -0.17388783     0             -0.13508479    -0.00027087053
  48220000   0.053647764   -0.17659252     0             -0.13409343     0.024907828  
  48230000   0.053213083   -0.17479358     0             -0.13263884     0.021943708  
  48240000   0.054947404   -0.1762856      0             -0.13275695    -0.020486956  
  48250000   0.048402973   -0.17157858     0             -0.13323435    -0.0013033288 
  48260000   0.051831216   -0.17847684     0             -0.1374168     -0.010475851  
  48270000   0.046514185   -0.17436406     0             -0.13751611     0.0084432251 
  48280000   0.048244597   -0.18062026     0             -0.14240149    -0.014887912  
  48290000   0.053369819   -0.17940193     0             -0.13712303     0.018235847  
  48300000   0.049642154   -0.17821969     0             -0.13889379     0.033842138  
  48310000   0.048257858   -0.18192617     0             -0.1436969      0.0054092005 
  48320000   0.050984956   -0.18085716     0             -0.14046752     0.0325219    
  48330000   0.047711856   -0.17808926     0             -0.14029252     0.0022037372 
  48340000   0.04639528    -0.17949617     0             -0.14274241     0.013932202  
  48350000   0.049323194   -0.1884283      0             -0.14935508    -0.010675985  
  48360000   0.046518495   -0.18836455     0             -0.15151318     0.036481025  
  48370000   0.050301801   -0.18925136     0             -0.1494029      0.037436976  
  48380000   0.050125457   -0.18825449     0             -0.14854573     0.0037421847 
  48390000   0.04941497    -0.18623931     0             -0.14709339    -0.0047909065 
  48400000   0.048679495   -0.1826758      0             -0.14411251     0.0097614265 
  48410000   0.047923029   -0.17823261     0             -0.14026859     0.017423027  
  48420000   0.050536771   -0.18089351     0             -0.14085892    -0.0087169401 
  48430000   0.053237606   -0.1892315      0             -0.14705733     0.013726756  
  48440000   0.050348654   -0.18056145     0             -0.14067587     0.020216024  
  48450000   0.054793497   -0.1731743      0             -0.12976758     0.0019145174 
  48460000   0.049733784   -0.1780107      0             -0.13861222    -0.005934748  
  48470000   0.049842057   -0.17537488     0             -0.13589062     0.0060292278 
  48480000   0.042579904   -0.17735327     0             -0.14362201    -0.0037707671 
  48490000   0.056633956   -0.17825916     0             -0.13339445     0.019192014  
  48500000   0.045966918   -0.17856422     0             -0.1421498      0.0061283171 
  48510000   0.054648568   -0.18113408     0             -0.13784217     0.020524368  
  48520000   0.050536376   -0.18061374     0             -0.14057946     0.0082976696 
  48530000   0.053428244   -0.18180913     0             -0.13948395    -0.016332389  
  48540000   0.049516654   -0.17941238     0             -0.14018591     0.0076036516 
  48550000   0.052158191   -0.18322749     0             -0.14190842     0.0040732847 
  48560000   0.054029138   -0.1831638      0             -0.1403626     -0.0016722922 
  48570000   0.049239986   -0.17931569     0             -0.14030839    -0.019848522  
  48580000   0.04716866    -0.18535722     0             -0.1479908      0.020094899  
  48590000   0.049734829   -0.18717001     0             -0.1477707     -0.015528186  
  48600000   0.049757243   -0.18905987     0             -0.14964281     0.0029814696 
  48610000   0.051103085   -0.17892467     0             -0.13844144     0.0082629444 
  48620000   0.05517372    -0.1850106      0             -0.14130267     0.0099801401 
  48630000   0.053763795   -0.18271935     0             -0.14012835     0.009036987  
  48640000   0.048020235   -0.19043321     0             -0.15239218     0.0067724847 
  48650000   0.051742202   -0.18410016     0             -0.14311064     0.034514816  
  48660000   0.047538622   -0.18869249     0             -0.15103299     0.0068694029 
  48670000   0.048056353   -0.18483507     0             -0.14676543    -0.015888146  
  48680000   0.049624984   -0.18834749     0             -0.1490352      0.016847375  
  48690000   0.049861307   -0.1860577      0             -0.1465582      0.012881018  
  48700000   0.052253462   -0.18383567     0             -0.14244113    -0.014034421  
  48710000   0.054312756   -0.17979185     0             -0.13676596    -0.023265727  
  48720000   0.051549899   -0.18120305     0             -0.14036586    -0.0013074242 
  48730000   0.052715904   -0.19246346     0             -0.15070258     0.0036499459 
  48740000   0.049406998   -0.19131373     0             -0.15217412     0.0054540039 
  48750000   0.052817295   -0.19302273     0             -0.15118153     0.0081973906 
  48760000   0.049623624   -0.18607424     0             -0.14676303    -0.015461057  
  48770000   0.054140509   -0.19050679     0             -0.14761736     0.0026480032 
  48780000   0.046688388   -0.18494579     0             -0.14795983     0.00087144188
  48790000   0.049943883   -0.18924806     0             -0.14968314     0.0042699909 
  48800000   0.051717715   -0.19282431     0             -0.15185418    -0.0076836958 
  48810000   0.052082037   -0.19295563     0             -0.15169689    -0.051965566  
  48820000   0.050143172   -0.19402949     0             -0.1543067     -0.023408417  
  48830000   0.048644657   -0.19175936     0             -0.15322367     0.021516771  
  48840000   0.048403502   -0.19404218     0             -0.15569753     0.0024617607 
  48850000   0.052722377   -0.19854465     0             -0.15677864     0.0076698681 
  48860000   0.052450885   -0.1970692      0             -0.15551826    -0.0070635075 
  48870000   0.047530241   -0.19808559     0             -0.16043273     0.013440283  
  48880000   0.052643084   -0.19745639     0             -0.1557532      0.014089818  
  48890000   0.052066862   -0.1971023      0             -0.15585558    -0.013766784  
  48900000   0.051772634   -0.18963833     0             -0.1486247     -0.017958168  
  48910000   0.052314377   -0.18594339     0             -0.1445006      0.009782544  
  48920000   0.050813026   -0.18901958     0             -0.14876613    -0.0059459201 
  48930000   0.048586125   -0.19172073     0             -0.15323141     0.0092815872 
  48940000   0.049338366   -0.18633975     0             -0.14725451    -0.024315166  
  48950000   0.0513519     -0.19910752     0             -0.15842719    -0.014716769  
  48960000   0.049307973   -0.19036469     0             -0.15130353     0.01884977   
  48970000   0.053048049   -0.19675982     0             -0.15473581    -0.0047181139 
  48980000   0.053263852   -0.19952322     0             -0.15732827    -0.025838764  
  48990000   0.055818882   -0.1975262      0             -0.15330718    -0.0064489692 
  49000000   0.051107073   -0.19377227     0             -0.15328589    -0.010831518  
  49010000   0.05222154    -0.18781869     0             -0.14644944    -0.012069138  
  49020000   0.046986314   -0.1917092      0             -0.15448723     0.0040250276 
  49030000   0.043842878   -0.19722517     0             -0.16249339     0.017984684  
  49040000   0.055644746   -0.19669094     0             -0.15260987    -0.011227622  
  49050000   0.051438229   -0.19411211     0             -0.15336339     0.018066801  
  49060000   0.04726145    -0.19314533     0             -0.1557054      0.0019554313 
  49070000   0.051280723   -0.20076567     0             -0.16014172    -0.012404725  
  49080000   0.053497584   -0.19781502     0             -0.15543491     0.0096684995 
  49090000   0.050106506   -0.19797995     0             -0.15828621    -0.0090202535 
  49100000   0.04567464    -0.20203199     0             -0.16584911    -0.011484674  
  49110000   0.051509188   -0.19776446     0             -0.15695952     0.045590396  
  49120000   0.05368145    -0.1987132      0             -0.15618742     0.010529721  
  49130000   0.053581005   -0.19870791     0             -0.15626171    -0.015255122  
  49140000   0.045881307   -0.20103415     0             -0.16468755    -0.00067044859
  49150000   0.05185532    -0.1972386      0             -0.15615946    -0.025628948  
  49160000   0.051463422   -0.1951444      0             -0.15437572    -0.037325931  
  49170000   0.05179979    -0.18558964     0             -0.14455449    -0.01603256   
  49180000   0.046349222   -0.19512138     0             -0.1584041      0.0081777897 
  49190000   0.054318349   -0.19727516     0             -0.15424484    -0.012711775  
  49200000   0.049852645   -0.19631089     0             -0.15681824     0.0041429603 
  49210000   0.052269614   -0.19719909     0             -0.15579175    -0.020248734  
  49220000   0.055887926   -0.19864327     0             -0.15436956     0.0013985832 
  49230000   0.050435076   -0.19604953     0             -0.15609549     0.0230734    
  49240000   0.050739887   -0.19602978     0             -0.15583428     0.010266731  
  49250000   0.06013449    -0.19427525     0             -0.14663746    -0.011518927  
  49260000   0.053757539   -0.19581025     0             -0.1532242      0.024795768  
  49270000   0.047892804   -0.19746037     0             -0.15952029     0.019243323  
  49280000   0.054947659   -0.18618576     0             -0.14265691     0.0010425664 
  49290000   0.049370878   -0.18570451     0             -0.14659351     0.0064325002 
  49300000   0.048572632   -0.1872717      0             -0.14879307     0.028599441  
  49310000   0.053519003   -0.1920457      0             -0.14964862    -0.0013410567 
  49320000   0.053181845   -0.19272149     0             -0.15059149    -0.01048082   
  49330000   0.049136803   -0.1907516      0             -0.15182603     0.0063971967 
  49340000   0.049852715   -0.18878835     0             -0.14929566     0.0084162999 
  49350000   0.051725717   -0.19243543     0             -0.15145896     0.01729865   
  49360000   0.047396638   -0.18117402     0             -0.143627      -0.0093418256 
  49370000   0.04874308    -0.1789625      0             -0.14034884     0.0022634847 
  49380000   0.05212394    -0.18076735     0             -0.13947541    -0.0091033245 
  49390000   0.041965394   -0.19073486     0             -0.1574904      0.010495379  
  49400000   0.046203387   -0.19250659     0             -0.15590484     0.011347907  
  49410000   0.043453185   -0.2004712      0             -0.16604813     0.031196231  
  49420000   0.049809693   -0.19689666     0             -0.15743804    -0.0033956544 
  49430000   0.054816012   -0.20183557     0             -0.15841101    -0.0099656741 
  49440000   0.052571057   -0.18761463     0             -0.14596849     0.0083437661 
  49450000   0.048447612   -0.19756499     0             -0.1591854     -0.017714174  
  49460000   0.050931676   -0.19589206     0             -0.15554462    -0.012799192  
  49470000   0.055269654   -0.19375088     0             -0.14996695     0.0033518508 
  49480000   0.048153287   -0.19174601     0             -0.15359957    -0.0089788163 
  49490000   0.051375882   -0.19428867     0             -0.15358934    -0.015472259  
  49500000   0.048650282   -0.17873112     0             -0.14019097     0.0033026927 
  49510000   0.04487657    -0.17850082     0             -0.14295017     0.015992424  
  49520000   0.045893523   -0.17715601     0             -0.14079974    -0.008563746  
  49530000   0.051999566   -0.16986925     0             -0.12867584     0.032181909  
  49540000   0.046434022   -0.1832593      0             -0.14647485    -0.0093758996 
  49550000   0.049163965   -0.18440853     0             -0.14546145     0.017985554  
  49560000   0.050899035   -0.18054117     0             -0.14021959     0.012025411  
  49570000   0.052826649   -0.18418941     0             -0.1423408      0.0033594857 
  49580000   0.050780541   -0.1802932      0             -0.14006549     0.026056213  
  49590000   0.05305419    -0.18610669     0             -0.14407782     0.015243531  
  49600000   0.048352548   -0.18465201     0             -0.14634772     0.009119367  
  49610000   0.049724794   -0.189287       0             -0.14989565     0.0016838985 
  49620000   0.046382975   -0.18739185     0             -0.15064784    -0.0040135214 
  49630000   0.050799197   -0.17826581     0             -0.13802332    -0.01862349   
  49640000   0.051711427   -0.1847218      0             -0.14375665    -0.013034926  
  49650000   0.047453575   -0.18384935     0             -0.14625722     0.0057203642 
  49660000   0.042446761   -0.19689307     0             -0.16326728     0.031735901  
  49670000   0.05287836    -0.1893768      0             -0.14748723     0.0077928585 
  49680000   0.049767997   -0.18364955     0             -0.14422397     0.027142538  
  49690000   0.048410684   -0.18242557     0             -0.14407523     0.0042363008 
  49700000   0.055090435   -0.18321853     0             -0.13957657    -0.024094386  
  49710000   0.05039157    -0.18618673     0             -0.14626716     0.028278763  
  49720000   0.050741379   -0.18717753     0             -0.14698085     0.012530149  
  49730000   0.043823499   -0.18843078     0             -0.15371435     0.0096953407 
  49740000   0.051938044   -0.19007286     0             -0.14892819    -0.010596366  
  49750000   0.052861149   -0.18579708     0             -0.14392114     0.006066614  
  49760000   0.055396262   -0.1847647      0             -0.14088047    -0.013097006  
  49770000   0.053541575   -0.18947835     0             -0.14706338     0.028700265  
  49780000   0.04925724    -0.18844403     0             -0.14942306    -0.010179001  
  49790000   0.051768501   -0.19101342     0             -0.15000306    -0.0058596668 
  49800000   0.051181997   -0.17726237     0             -0.13671663    -0.0076904147 
  49810000   0.049816675   -0.18399422     0             -0.14453007    -0.0059230146 
  49820000   0.050293037   -0.18568302     0             -0.14584151    -0.0016871677 
  49830000   0.052428614   -0.18464698     0             -0.14311368     0.0073290945 
  49840000   0.045158382   -0.19343439     0             -0.15766048     0.039632213  
  49850000   0.051927338   -0.19171439     0             -0.15057821     0.00068185691
  49860000   0.051070022   -0.19730342     0             -0.15684639    -0.005957127  
  49870000   0.050342838   -0.19132328     0             -0.15144232     0.0021528827 
  49880000   0.049084012   -0.19071521     0             -0.15183147     0.018257861  
  49890000   0.056948211   -0.18735093     0             -0.14223727     0.0092097531 
  49900000   0.049697783   -0.18874169     0             -0.14937173     0.012052718  
  49910000   0.052361177   -0.19550425     0             -0.15402439     0.0089652803 
  49920000   0.045870618   -0.19004532     0             -0.15370719    -0.0094781093 
  49930000   0.044527633   -0.18593264     0             -0.15065841    -0.018576959  
  49940000   0.048691058   -0.18941247     0             -0.15084002    -0.0060516497 
  49950000   0.057122885   -0.18514671     0             -0.13989467    -0.0075885236 
  49960000   0.052208767   -0.18985142     0             -0.14849228     0.0067957591 
  49970000   0.048230689   -0.18573851     0             -0.14753076    -0.0066340596 
  49980000   0.047851574   -0.18839336     0             -0.15048594     0.013081528  
  49990000   0.051567177   -0.1901365      0             -0.14928562     0.01627489   
  50000000   0.054347458   -0.19205685     0             -0.14900347     0.015070283  
  50010000   0.046482593   -0.19009564     0             -0.15327271    -0.014807705  
  50020000   0.048924921   -0.19261524     0             -0.15385753    -0.020524632  
  50030000   0.050527758   -0.18645443     0             -0.14642697    -0.015361067  
  50040000   0.044987285   -0.18044092     0             -0.14480255     0.015753381  
  50050000   0.051685411   -0.19265542     0             -0.15171088    -0.014436417  
  50060000   0.051713217   -0.18676946     0             -0.14580289    -0.0029622921 
  50070000   0.050707429   -0.18682443     0             -0.14665464    -0.021097866  
  50080000   0.046505061   -0.1904597      0             -0.15361898     0.018078619  
  50090000   0.050371399   -0.18697892     0             -0.14707532    -0.0059723984 
  50100000   0.042895989   -0.18672248     0             -0.15274082     0.022456892  
  50110000   0.052265822   -0.18129724     0             -0.13989291    -0.0070750278 
  50120000   0.051085613   -0.18528925     0             -0.14481987    -0.019965673  
  50130000   0.046273289   -0.18517976     0             -0.14852263     0.0014995111 
  50140000   0.047311772   -0.19281253     0             -0.15533274    -0.019840112  
  50150000   0.050116786   -0.19211179     0             -0.1524099     -0.005183064  
  50160000   0.051746874   -0.1854576      0             -0.14446438     0.022179198  
  50170000   0.051239915   -0.18109943     0             -0.14050781    -0.0087249847 
  50180000   0.050408063   -0.18101831     0             -0.14108567     0.00095565964
  50190000   0.04764621    -0.18662702     0             -0.14888229     0.032903523  
  50200000   0.055531108   -0.18685926     0             -0.14286821    -0.016192385  
  50210000   0.048548458   -0.18996492     0             -0.15150544     0.031495112  
  50220000   0.047269394   -0.18430605     0             -0.14685983     0.00079172856
  50230000   0.057450394   -0.188102       0             -0.14259052     0.01374214   
  50240000   0.048560052   -0.18507405     0             -0.14660538     0.0077508039 
  50250000   0.050244272   -0.18408698     0             -0.1442841      0.0038257832 
  50260000   0.048392948   -0.18427158     0             -0.1459353     -0.0089106654 
  50270000   0.044857042   -0.18670452     0             -0.15116933    -0.025822576  
  50280000   0.054370504   -0.1927809      0             -0.14970926     0.013763984  
  50290000   0.049418577   -0.18651141     0             -0.14736263    -0.0031761417 
  50300000   0.046838096   -0.18557864     0             -0.14847409     0.012686825  
  50310000   0.047068369   -0.18998795     0             -0.15270098    -0.024612598  
  50320000   0.055378609   -0.18952239     0             -0.14565215     0.0021180328 
  50330000   0.051794174   -0.18197574     0             -0.14094505    -0.0061812011 
  50340000   0.048551112   -0.18233245     0             -0.14387087    -0.024611101  
  50350000   0.055971432   -0.18844595     0             -0.14410608    -0.01076164   
  50360000   0.046602717   -0.18582295     0             -0.14890486     0.0048740785 
  50370000   0.047748745   -0.18419258     0             -0.14636662    -0.0074805127 
  50380000   0.046109357   -0.18613889     0             -0.14961163    -0.003859275  
  50390000   0.049850996   -0.17925614     0             -0.13976481    -0.033563601  
  50400000   0.048755951   -0.18342272     0             -0.14479887     0.0041489863 
  50410000   0.049599566   -0.18501618     0             -0.14572402    -0.0057369821 
  50420000   0.047487036   -0.17721912     0             -0.13960049    -0.017889432  
  50430000   0.054897565   -0.17773338     0             -0.13424422     0.0018917339 
  50440000   0.054024203   -0.19032759     0             -0.14753029    -0.010579719  
  50450000   0.052133197   -0.19205281     0             -0.15075355     0.0085952378 
  50460000   0.053021092   -0.19033518     0             -0.14833253     0.021417105  
  50470000   0.05382484    -0.19150186     0             -0.14886249     0.012753639  
  50480000   0.054309642   -0.19156581     0             -0.14854239     0.017598167  
  50490000   0.053714556   -0.19825943     0             -0.15570743     0.0040903585 
  50500000   0.045188514   -0.20081036     0             -0.16501259     0.0059456149 
  50510000   0.047314192   -0.19825509     0             -0.16077338     0.022868921  
  50520000   0.05006233    -0.19605307     0             -0.15639432    -0.014769504  
  50530000   0.050468066   -0.20046863     0             -0.16048846    -0.0027925417 
  50540000   0.054582019   -0.19661245     0             -0.15337326    -0.0057220808 
  50550000   0.047855502   -0.19474126     0             -0.15683073    -0.025431303  
  50560000   0.049635094   -0.18574427     0             -0.14642397    -0.010716139  
  50570000   0.048363664   -0.18564012     0             -0.14732703    -0.019781645  
  50580000   0.050839613   -0.19854123     0             -0.15826672    -0.00620683   
  50590000   0.049524354   -0.19713729     0             -0.15790472     0.017448661  
  50600000   0.045777296   -0.19652694     0             -0.16026273    -0.012129474  
  50610000   0.047126542   -0.20407734     0             -0.16674428    -0.02415988   
  50620000   0.048675186   -0.20067353     0             -0.16211366     0.009254688  
  50630000   0.051914541   -0.19613365     0             -0.1550076      0.011405004  
  50640000   0.055635088   -0.2008993      0             -0.15682588    -0.0056952296 
  50650000   0.050267968   -0.20504466     0             -0.16522301    -0.010131095  
  50660000   0.046769845   -0.2007486      0             -0.16369811     0.0035648579 
  50670000   0.046774156   -0.18994137     0             -0.15288746     0.023493972  
  50680000   0.053754309   -0.19997374     0             -0.15739025     0.01066478   
  50690000   0.051452062   -0.19487701     0             -0.15411733    -0.0022039375 
  50700000   0.050411908   -0.19664791     0             -0.15671223    -0.012533967  
  50710000   0.051796276   -0.19312448     0             -0.15209212     0.010253091  
  50720000   0.043750244   -0.20140286     0             -0.16674446    -0.0091965664 
  50730000   0.051576207   -0.19673325     0             -0.15587522     0.030912786  
  50740000   0.051388172   -0.1944274      0             -0.15371834     0.0025159685 
  50750000   0.049985307   -0.1954737      0             -0.15587597    -0.0044848311 
  50760000   0.049579463   -0.19241507     0             -0.15313884     0.01000478   
  50770000   0.049037163   -0.19536531     0             -0.15651869     0.0059891319 
  50780000   0.048966116   -0.20023779     0             -0.16144744     0.0015158761 
  50790000   0.048367171   -0.19102033     0             -0.15270446    -0.0026685242 
  50800000   0.04913125    -0.19366476     0             -0.1547436      0.010316746  
  50810000   0.058668866   -0.19366893     0             -0.14719219     1.4947094e-05
  50820000   0.049974215   -0.19088204     0             -0.15129309     0.013784254  
  50830000   0.05016163    -0.19094109     0             -0.15120367     0.0014474661 
  50840000   0.047286969   -0.19534426     0             -0.15788411     0.0015724765 
  50850000   0.053470201   -0.18905511     0             -0.14669668    -0.0089699231 
  50860000   0.051999397   -0.19695258     0             -0.15575931    -0.018787503  
  50870000   0.05186793    -0.19642411     0             -0.15533498     0.02152627   
  50880000   0.057972416   -0.19929335     0             -0.15336832     0.022489416  
  50890000   0.049435756   -0.19555052     0             -0.15638813     0.013536459  
  50900000   0.045196029   -0.19788365     0             -0.16207992     0.034257778  
  50910000   0.052106817   -0.20262466     0             -0.16134629     0.0076848152 
  50920000   0.049320524   -0.20311044     0             -0.16403934     0.051297251  
  50930000   0.050644558   -0.2039082      0             -0.16378821    -0.028428511  
  50940000   0.049710504   -0.20248305     0             -0.16310301    -0.020449558  
  50950000   0.047600297   -0.19761559     0             -0.15990723     0.013616018  
  50960000   0.044956106   -0.20323844     0             -0.16762478     0.011991274  
  50970000   0.046555756   -0.1991873      0             -0.16230641     0.0045640765 
  50980000   0.054507628   -0.20261878     0             -0.15943852    -0.038896063  
  50990000   0.049698939   -0.20095108     0             -0.1615802      0.036959104  
  51000000   0.051412922   -0.20788793     0             -0.16715926    -0.017554631  
  51010000   0.047315219   -0.20925739     0             -0.17177486    -0.0014551449 
  51020000   0.05522653    -0.20768329     0             -0.16393353    -0.00042505565
  51030000   0.052117752   -0.21094685     0             -0.16965982    -0.011512309  
  51040000   0.054108643   -0.20662896     0             -0.16376477     0.0076131629 
  51050000   0.055152095   -0.20126711     0             -0.15757631    -0.0076069103 
  51060000   0.053134148   -0.1969749      0             -0.15488269    -0.025502052  
  51070000   0.051048211   -0.20344492     0             -0.16300516     0.022844133  
  51080000   0.05367055    -0.20614132     0             -0.16362418     0.0035401507 
  51090000   0.049683269   -0.20323501     0             -0.16387655     0.025674938  
  51100000   0.050693641   -0.206598       0             -0.16643913    -0.0021119037 
  51110000   0.050681054   -0.2064444      0             -0.1662955     -0.02721886   
  51120000   0.04722836    -0.20695659     0             -0.16954287     0.036020333  
  51130000   0.048516869   -0.19639877     0             -0.15796431     0.029879967  
  51140000   0.048318233   -0.19874129     0             -0.16046419    -0.02022342   
  51150000   0.051558439   -0.19877322     0             -0.15792927     0.008942876  
  51160000   0.051451346   -0.1984658      0             -0.15770669    -0.0073156034 
  51170000   0.047427443   -0.19781814     0             -0.16024671    -0.018327569  
  51180000   0.048629865   -0.19856555     0             -0.16004158    -0.00075937503
  51190000   0.049833416   -0.20530674     0             -0.16582933     0.0038601048 
  51200000   0.049427025   -0.19768044     0             -0.15852496    -0.0072576428 
  51210000   0.049835535   -0.19840984     0             -0.15893076     0.021775834  
  51220000   0.047794095   -0.19606205     0             -0.15820017    -0.0022525423 
  51230000   0.049210642   -0.20116119     0             -0.16217713    -0.01483858   
  51240000   0.047603111   -0.20091747     0             -0.16320688    -0.017279171  
  51250000   0.052392465   -0.20186047     0             -0.16035582    -0.005804713  
  51260000   0.053332941   -0.19906897     0             -0.15681928    -0.011778992  
  51270000   0.054930943   -0.20512397     0             -0.16160836     0.004461425  
  51280000   0.048968739   -0.20619977     0             -0.16740735    -0.0065337054 
  51290000   0.050504127   -0.20385215     0             -0.16384342     0.0078016113 
  51300000   0.051053739   -0.20295011     0             -0.16250598     0.018238449  
  51310000   0.048284516   -0.1960642      0             -0.15781381    -0.02355761   
  51320000   0.048631196   -0.20002291     0             -0.16149788     0.0069499682 
  51330000   0.048307792   -0.20014524     0             -0.16187642     0.0089201348 
  51340000   0.049605939   -0.2052113      0             -0.1659141      0.023743016  
  51350000   0.052558595   -0.20341028     0             -0.16177402    -0.012724021  
  51360000   0.049678296   -0.19637071     0             -0.15701618     0.024765647  
  51370000   0.050728226   -0.19400342     0             -0.15381715     0.0103785    
  51380000   0.056277814   -0.19917633     0             -0.15459375     0.010657745  
  51390000   0.052341605   -0.19497513     0             -0.15351076     0.028603455  
  51400000   0.050244362   -0.19703666     0             -0.1572337      0.0018231632 
  51410000   0.054686373   -0.19439207     0             -0.15107021    -0.027549029  
  51420000   0.046688845   -0.19472693     0             -0.15774061    -0.0092812794 
  51430000   0.054035327   -0.19715271     0             -0.1543466     -0.0070899542 
  51440000   0.047721361   -0.19304488     0             -0.15524061     0.00043668543
  51450000   0.050946515   -0.19261612     0             -0.15225692    -0.00087151019
  51460000   0.049261887   -0.19842706     0             -0.15940241    -0.024557472  
  51470000   0.053727124   -0.20101724     0             -0.15845529    -0.0050237464 
  51480000   0.047081076   -0.1966686      0             -0.15937156     0.0069378998 
  51490000   0.052680838   -0.19693473     0             -0.15520163    -0.0069939254 
  51500000   0.051003616   -0.20169202     0             -0.1612876     -0.035751899  
  51510000   0.048073882   -0.19489768     0             -0.15681415    -0.0052091923 
  51520000   0.052211247   -0.19882933     0             -0.15746823    -0.012386296  
  51530000   0.050896198   -0.1929917      0             -0.15267237     0.0087595897 
  51540000   0.051261246   -0.19552647     0             -0.15491795    -0.0021055864 
  51550000   0.052774879   -0.20284344     0             -0.16103584    -0.040401223  
  51560000   0.048351693   -0.20231139     0             -0.16400778     0.016466741  
  51570000   0.051569688   -0.19615405     0             -0.15530119     0.038502314  
  51580000   0.045332381   -0.19953093     0             -0.16361919    -0.021635984  
  51590000   0.047782904   -0.20086988     0             -0.16301686    -0.0051363294 
  51600000   0.051028828   -0.2071924      0             -0.166768       0.0022426065 
  51610000   0.046166595   -0.20647565     0             -0.16990305     0.0049340747 
  51620000   0.04345323    -0.19972768     0             -0.16530458     0.019929719  
  51630000   0.045843822   -0.20185104     0             -0.16553413     0.012941876  
  51640000   0.047370809   -0.20671578     0             -0.16918922     0.0006239094 
  51650000   0.054509455   -0.2037716      0             -0.16058989    -0.011633416  
  51660000   0.04653886    -0.20085974     0             -0.16399224    -0.029784644  
  51670000   0.044898088   -0.20344648     0             -0.16787877    -0.020576622  
  51680000   0.052887219   -0.20430749     0             -0.16241089    -0.016094344  
  51690000   0.045038501   -0.19621596     0             -0.16053702    -0.017942935  
  51700000   0.050286995   -0.20128449     0             -0.16144776     0.0041902264 
  51710000   0.051725818   -0.20118635     0             -0.1602098      0.011859516  
  51720000   0.055172268   -0.19727776     0             -0.15357098    -0.015525851  
  51730000   0.057296376   -0.2013536      0             -0.15596413    -0.025524514  
  51740000   0.052973049   -0.19378439     0             -0.15181981     0.0026245456 
  51750000   0.05360852    -0.19614476     0             -0.15367676    -0.0030154297 
  51760000   0.052708826   -0.19020215     0             -0.14844688    -0.019023292  
  51770000   0.048662811   -0.19223161     0             -0.15368154     0.018072812  
  51780000   0.045996227   -0.19510373     0             -0.1586661      0.014235513  
  51790000   0.050710683   -0.19770619     0             -0.15753382    -0.030059799  
  51800000   0.047270737   -0.2069066      0             -0.16945931    -0.020141123  
  51810000   0.046717801   -0.20457764     0             -0.16756838     0.0092806368 
  51820000   0.043078976   -0.19637453     0             -0.16224791    -0.01215067   
  51830000   0.051369575   -0.19329256     0             -0.15259823     0.0047819481 
  51840000   0.046838964   -0.19853568     0             -0.16143044    -0.0056168891 
  51850000   0.052267551   -0.19317329     0             -0.15176759     0.016197433  
  51860000   0.050769347   -0.20033713     0             -0.16011829     0.003948526  
  51870000   0.046573233   -0.19005955     0             -0.15316482    -0.00045901352
  51880000   0.04471483    -0.19378088     0             -0.15835835    -0.0080891131 
  51890000   0.056357299   -0.19196982     0             -0.14732427    -0.0051356709 
  51900000   0.047324726   -0.18289786     0             -0.14540781    -0.021293329  
  51910000   0.053534508   -0.18777113     0             -0.14536176     0.0069144062 
  51920000   0.049198295   -0.19007574     0             -0.15110147     0.0016383218 
  51930000   0.055056385   -0.18419191     0             -0.14057693     0.017738966  
  51940000   0.051892805   -0.18455536     0             -0.14344653     0.015203222  
  51950000   0.054081501   -0.18547867     0             -0.14263598     0.0036131721 
  51960000   0.047272039   -0.19368668     0             -0.15623836    -0.010305918  
  51970000   0.050370097   -0.19224314     0             -0.15234058    -0.020778054  
  51980000   0.049192659   -0.19124717     0             -0.15227736    -0.016926128  
  51990000   0.047836511   -0.18837919     0             -0.15048371     0.004119437  
  52000000   0.048498298   -0.18932846     0             -0.15090872     0.027734248  
  52010000   0.045514628   -0.186363       0             -0.15030688     0.010554859  
  52020000   0.050302885   -0.18199584     0             -0.14214652    -0.0054685484 
  52030000   0.054312321   -0.19076488     0             -0.14773934     0.00035692733
  52040000   0.046933205   -0.19112831     0             -0.15394842     0.037943961  
  52050000   0.049705297   -0.18783245     0             -0.14845653    -0.017478631  
  52060000   0.048829857   -0.18683147     0             -0.14814907     0.015388164  
  52070000   0.048450558   -0.19039778     0             -0.15201586    -0.0027966569 
  52080000   0.048064852   -0.18343368     0             -0.14535731     0.0005528621 
  52090000   0.05375152    -0.18056864     0             -0.13798735    -0.014886395  
  52100000   0.051696572   -0.19267186     0             -0.15171849    -0.019244271  
  52110000   0.049290468   -0.19187277     0             -0.15282548     0.013686362  
  52120000   0.049266771   -0.19059415     0             -0.15156563    -0.0025656547 
  52130000   0.049187132   -0.18782964     0             -0.14886421     0.024620764  
  52140000   0.054226384   -0.19275392     0             -0.14979645    -0.025720126  
  52150000   0.048220319   -0.1943955      0             -0.15619596    -0.0043922447 
  52160000   0.052249523   -0.1894135      0             -0.14802208     0.013096904  
  52170000   0.048999394   -0.18938785     0             -0.15057115    -0.023337968  
  52180000   0.053246257   -0.194883       0             -0.15270198     0.00054099536
  52190000   0.046806248   -0.1910953      0             -0.15401597    -0.00020409902
  52200000   0.045972089   -0.18519257     0             -0.14877405     0.017713799  
  52210000   0.047752233   -0.19171604     0             -0.15388732     0.0068909633 
  52220000   0.051342376   -0.1914494      0             -0.15077661    -0.004183996  
  52230000   0.050827063   -0.19367923     0             -0.15341467     0.014878732  
  52240000   0.044416746   -0.18527514     0             -0.15008875     0.0072918263 
  52250000   0.054202587   -0.18867095     0             -0.14573234     0.020578511  
  52260000   0.05129625    -0.18585835     0             -0.1452221     -0.0086310971 
  52270000   0.052157434   -0.18621204     0             -0.14489357     0.035849808  
  52280000   0.049875288   -0.18836925     0             -0.14885867     0.017784268  
  52290000   0.050243597   -0.19088407     0             -0.15108172     0.020975398  
  52300000   0.046490089   -0.18465651     0             -0.14782764    -0.023327946  
  52310000   0.051955296   -0.18462869     0             -0.14347035    -0.018084327  
  52320000   0.05001135    -0.18987904     0             -0.15026067     0.0075820599 
  52330000   0.049339364   -0.18806256     0             -0.14897653    -0.017953127  
  52340000   0.04864541    -0.18534457     0             -0.14680828    -0.0015828918 
  52350000   0.047647398   -0.18551927     0             -0.1477736      0.0034810995 
  52360000   0.050981375   -0.18232786     0             -0.14194106     0.0042029003 
  52370000   0.051249112   -0.18741494     0             -0.14681603    -0.0090055546 
  52380000   0.04500566    -0.19093673     0             -0.15528381     0.010524725  
  52390000   0.048442302   -0.18919882     0             -0.15082344     0.0067568751 
  52400000   0.04691552    -0.19067397     0             -0.15350808    -0.0056170692 
  52410000   0.050766234   -0.18895212     0             -0.14873575    -0.0090604078 
  52420000   0.053047283   -0.18747007     0             -0.14544667    -0.0036157384 
  52430000   0.048859546   -0.18531448     0             -0.14660856    -0.0035321299 
  52440000   0.043567697   -0.18792949     0             -0.1534157      0.00061133723
  52450000   0.045306343   -0.18491636     0             -0.14902524     0.0030915733 
  52460000   0.050866707   -0.18093192     0             -0.14063595     0.002151139  
  52470000   0.048556857   -0.18814237     0             -0.14967623     0.0080099775 
  52480000   0.053985775   -0.19175945     0             -0.1489926      0.012350443  
  52490000   0.048421345   -0.18571822     0             -0.14735943    -0.011267471  
  52500000   0.048642324   -0.19875955     0             -0.16022571     0.02050756   
  52510000   0.051981799   -0.19954278     0             -0.15836345    -0.0143485    
  52520000   0.049951671   -0.19327835     0             -0.15370726    -0.017010314  
  52530000   0.054399378   -0.19638491     0             -0.1532904     -0.011309717  
  52540000   0.045130042   -0.19480713     0             -0.15905568     3.9445286e-05
  52550000   0.049933671   -0.19073411     0             -0.15117728    -0.0064957157 
  52560000   0.048749192   -0.18996654     0             -0.15134803    -0.0055447352 
  52570000   0.046060516   -0.18815297     0             -0.15166441     0.032920442  
  52580000   0.049440457   -0.19392093     0             -0.15475481     0.018694038  
  52590000   0.047848603   -0.19296932     0             -0.15506426     0.013095181  
  52600000   0.053490288   -0.19835933     0             -0.15598499     0.013640151  
  52610000   0.048472941   -0.19580974     0             -0.15741008    -0.009722185  
  52620000   0.050151292   -0.19018341     0             -0.15045419    -0.045756391  
  52630000   0.055089962   -0.19029368     0             -0.1466521     -0.0033567477 
  52640000   0.047359219   -0.18962327     0             -0.15210588    -0.0022772432 
  52650000   0.051941015   -0.19259383     0             -0.15144681    -0.012639787  
  52660000   0.05302905    -0.18473841     0             -0.14272946     0.0039451808 
  52670000   0.048983064   -0.18499945     0             -0.14619568     0.015553098  
  52680000   0.048060799   -0.18805901     0             -0.14998585    -0.0031826898 
  52690000   0.045479836   -0.19279425     0             -0.1567657      0.008611917  
  52700000   0.052832742   -0.1905961      0             -0.14874267     0.0027501305 
  52710000   0.048843195   -0.18519926     0             -0.14650629     0.0033619891 
  52720000   0.049004432   -0.19047722     0             -0.15165652    -0.039381171  
  52730000   0.049760886   -0.19437194     0             -0.15495199     0.032858254  
  52740000   0.052618589   -0.19110677     0             -0.14942298     0.020652524  
  52750000   0.052579858   -0.19867808     0             -0.15702498    -0.021362226  
  52760000   0.05043756    -0.19599422     0             -0.15603822     0.011559311  
  52770000   0.049557567   -0.19570114     0             -0.15644226    -0.037106832  
  52780000   0.047994443   -0.19499809     0             -0.15697749     0.02440091   
  52790000   0.053612809   -0.1922994      0             -0.149828       0.0056818431 
  52800000   0.048564102   -0.19026921     0             -0.15179733    -0.0014366976 
  52810000   0.053105638   -0.18214525     0             -0.14007563     0.0091155257 
  52820000   0.053415243   -0.18929049     0             -0.1469756     -0.012205153  
  52830000   0.049756529   -0.19577892     0             -0.15636242     0.0025175315 
  52840000   0.055062652   -0.19784294     0             -0.154223       0.018116227  
  52850000   0.050389703   -0.19387405     0             -0.15395596    -0.0075537887 
  52860000   0.051751839   -0.19566518     0             -0.15466802     0.0063996363 
  52870000   0.050089712   -0.19322717     0             -0.15354672    -0.016119802  
  52880000   0.050779455   -0.19158663     0             -0.15135978    -0.0037325817 
  52890000   0.051672216   -0.19051788     0             -0.14958379    -0.0032697857 
  52900000   0.04964612    -0.19683777     0             -0.15750873    -0.0014809028 
  52910000   0.049646181   -0.19051152     0             -0.15118243    -0.017797116  
  52920000   0.053737417   -0.19091938     0             -0.14834927     0.001111537  
  52930000   0.049089616   -0.18593669     0             -0.14704851    -0.0026070334 
  52940000   0.044954985   -0.18933228     0             -0.1537195     -0.0043716757 
  52950000   0.047513808   -0.18807299     0             -0.15043314     0.0072722994 
  52960000   0.055252586   -0.18794315     0             -0.14417274     0.0013474193 
  52970000   0.047501158   -0.1954068      0             -0.15777698     0.013486096  
  52980000   0.050205112   -0.19504351     0             -0.15527165    -0.030333056  
  52990000   0.057418345   -0.19401038     0             -0.14852428     0.0045244315 
  53000000   0.050839263   -0.19100615     0             -0.15073192     0.041181194  
  53010000   0.052031222   -0.19373048     0             -0.152512      -0.017395935  
  53020000   0.048914444   -0.19146478     0             -0.15271537     0.00018002447
  53030000   0.050762091   -0.19187305     0             -0.15165995    -0.011412527  
  53040000   0.051019552   -0.19493517     0             -0.15451812    -0.027213476  
  53050000   0.051699505   -0.19756829     0             -0.15661259     0.015404616  
  53060000   0.053108577   -0.19286595     0             -0.150794      -0.016174797  
  53070000   0.053344458   -0.19358478     0             -0.15132597    -0.0065233413 
  53080000   0.046681497   -0.1899235      0             -0.152943      -0.010916837  
  53090000   0.053981157   -0.20087082     0             -0.15810762    -0.031188383  
  53100000   0.051629114   -0.19578282     0             -0.15488288     0.0061568607 
  53110000   0.048372008   -0.19315056     0             -0.15483086    -0.014451368  
  53120000   0.052514285   -0.18840706     0             -0.14680589    -0.012178938  
  53130000   0.051369285   -0.18919952     0             -0.14850541    -0.00071085265
  53140000   0.05207879    -0.1905978      0             -0.14934164     4.2893111e-05
  53150000   0.046034991   -0.18944525     0             -0.15297691     0.018301769  
  53160000   0.049101597   -0.19089949     0             -0.15200182    -0.0074241367 
  53170000   0.051433904   -0.19085685     0             -0.15011155    -0.0056336393 
  53180000   0.04962264    -0.19163359     0             -0.15232316     0.0086878675 
  53190000   0.050628574   -0.18862825     0             -0.14852093    -0.002652998  
  53200000   0.054227338   -0.19624264     0             -0.15328442     0.0030982838 
  53210000   0.048022709   -0.19419576     0             -0.15615277     0.0033751111 
  53220000   0.054189538   -0.18929224     0             -0.14636397     0.0014518144 
  53230000   0.050370679   -0.18891824     0             -0.14901521     0.023876415  
  53240000   0.045930954   -0.19072129     0             -0.15433536    -0.017975645  
  53250000   0.054704671   -0.19136566     0             -0.1480293     -0.0028618876 
  53260000   0.05287076    -0.19157122     0             -0.14968767     0.0091359667 
  53270000   0.048241776   -0.1916246      0             -0.15340807    -0.028530201  
  53280000   0.048855401   -0.18986165     0             -0.15115901    -0.031443951  
  53290000   0.052172124   -0.18885593     0             -0.14752582     0.035047085  
  53300000   0.047803081   -0.18884581     0             -0.15097681    -0.0048172227 
  53310000   0.05215125    -0.19494079     0             -0.15362722     0.007659847  
  53320000   0.04908609    -0.18996513     0             -0.15107974    -0.00034022125
  53330000   0.045320036   -0.18784503     0             -0.15194307    -0.0047804061 
  53340000   0.050138725   -0.18798289     0             -0.14826362     0.0089667007 
  53350000   0.041978255   -0.18371351     0             -0.15045886     0.037701317  
  53360000   0.051831127   -0.1856693      0             -0.14460933    -0.010135539  
  53370000   0.051844312   -0.18059297     0             -0.13952256    -0.010267554  
  53380000   0.044369474   -0.17954075     0             -0.14439181    -0.0090646107 
  53390000   0.05719424    -0.17224528     0             -0.12693672     0.03629068   
  53400000   0.049432123   -0.17452054     0             -0.13536103    -8.1227865e-05
  53410000   0.052924672   -0.17600582     0             -0.13407955     0.0058676305 
  53420000   0.048879834   -0.18142647     0             -0.14270448    -0.013826134  
  53430000   0.053007187   -0.18108127     0             -0.13908964    -0.01543006   
  53440000   0.056069892   -0.17360972     0             -0.12919185    -0.02761046   
  53450000   0.047757958   -0.17603443     0             -0.13820117     0.0026964027 
  53460000   0.053348397   -0.17667383     0             -0.13441189     0.028204054  
  53470000   0.054488678   -0.17849943     0             -0.13533418    -0.00049542699
  53480000   0.059194836   -0.18709448     0             -0.14020107    -0.028117879  
  53490000   0.051020865   -0.17980754     0             -0.13938945     0.01810647   
  53500000   0.047027032   -0.17526783     0             -0.1380136      0.018170019  
  53510000   0.045450351   -0.1759485      0             -0.1399433     -0.007146569  
  53520000   0.048870333   -0.1702867      0             -0.13157223    -0.0088768186 
  53530000   0.046690255   -0.17678669     0             -0.13979926     0.011496898  
  53540000   0.0437233     -0.180159       0             -0.14552195     0.00031434476
  53550000   0.051371225   -0.17922384     0             -0.1385282      0.034446949  
  53560000   0.059757509   -0.17863485     0             -0.1312957     -0.022237629  
  53570000   0.046093095   -0.17273767     0             -0.13622329    -0.0074170771 
  53580000   0.055398534   -0.18075056     0             -0.13686453     0.032396697  
  53590000   0.04848616    -0.17746914     0             -0.13905901     0.019922007  
  53600000   0.055265094   -0.18542534     0             -0.14164503    -0.031636505  
  53610000   0.05162181    -0.18617148     0             -0.14527732    -0.0051757786 
  53620000   0.053030567   -0.17987551     0             -0.13786536     0.010701487  
  53630000   0.051742042   -0.18554461     0             -0.14455521     0.03210715   
  53640000   0.043369422   -0.1810561      0             -0.14669939     0.0001255465 
  53650000   0.048442281   -0.18186668     0             -0.14349131     0.012427391  
  53660000   0.051099944   -0.18138929     0             -0.14090855     0.0042559545 
  53670000   0.04779983    -0.18672375     0             -0.14885732    -0.0065601708 
  53680000   0.044886835   -0.18577018     0             -0.1502114     -0.0030032941 
  53690000   0.050287187   -0.17548881     0             -0.13565193     0.025852247  
  53700000   0.049771514   -0.17670637     0             -0.13727799     0.01752372   
  53710000   0.047330341   -0.17634658     0             -0.13885208     0.0025853921 
  53720000   0.054361317   -0.18200893     0             -0.13894457     0.0059377767 
  53730000   0.047674614   -0.1778944      0             -0.14012717    -0.015449579  
  53740000   0.05018287    -0.17847602     0             -0.13872178     0.01176791   
  53750000   0.053002048   -0.18681709     0             -0.14482954     0.0044400623 
  53760000   0.048039445   -0.18227049     0             -0.14421425     0.022800296  
  53770000   0.04740732    -0.18044713     0             -0.14289165    -0.024589639  
  53780000   0.046785404   -0.18842105     0             -0.15135824    -0.0070908682 
  53790000   0.04913014    -0.17764219     0             -0.13872191     0.0073443074 
  53800000   0.049534451   -0.18265025     0             -0.14340968     0.020589583  
  53810000   0.053032815   -0.18408621     0             -0.14207428    -0.011243958  
  53820000   0.050360973   -0.18023436     0             -0.14033902     0.030997548  
  53830000   0.054591842   -0.18087966     0             -0.13763269     0.0061915734 
  53840000   0.0495371     -0.17817972     0             -0.13893705    -0.0031967657 
  53850000   0.052192014   -0.18016386     0             -0.138818       0.014393276  
  53860000   0.047783379   -0.17619949     0             -0.1383461     -0.011586114  
  53870000   0.052246105   -0.18863999     0             -0.14725128    -0.00085072743
  53880000   0.054110098   -0.19053135     0             -0.14766601    -0.032724856  
  53890000   0.047486972   -0.19029414     0             -0.15267555    -0.00087933274
  53900000   0.048051264   -0.19047968     0             -0.15241407    -0.0050404748 
  53910000   0.049365617   -0.19022731     0             -0.15112049    -0.012645168  
  53920000   0.054392066   -0.18594917     0             -0.14286046    -0.01715914   
  53930000   0.056721493   -0.17994529     0             -0.13501123     0.012802041  
  53940000   0.046605944   -0.18458063     0             -0.14765999     0.018601625  
  53950000   0.051168342   -0.18234089     0             -0.14180597    -0.004794468  
  53960000   0.04717225    -0.18895582     0             -0.15158656     0.02138926   
  53970000   0.049713995   -0.18082473     0             -0.14144192    -0.023662625  
  53980000   0.047163196   -0.18623381     0             -0.14887171    -0.014398501  
  53990000   0.047906192   -0.1823401      0             -0.14438941    -0.013366079  
  54000000   0.051412826   -0.18784072     0             -0.14711212     0.0034394679 
  54010000   0.053331252   -0.18785773     0             -0.14560938     0.0032778829 
  54020000   0.05238494    -0.17663704     0             -0.13513834    -0.037740191  
  54030000   0.049796009   -0.18544266     0             -0.14599489    -0.019537305  
  54040000   0.05000552    -0.18670529     0             -0.14709155    -0.0086609306 
  54050000   0.04495255    -0.18837799     0             -0.15276714     0.017542067  
  54060000   0.052862673   -0.18918768     0             -0.14731053    -0.013523742  
  54070000   0.052975822   -0.19229823     0             -0.15033145    -0.0051507818 
  54080000   0.045468086   -0.19027643     0             -0.15425718    -0.031688694  
  54090000   0.049945044   -0.18960303     0             -0.15003719     0.0054963355 
  54100000   0.04858552    -0.18071746     0             -0.14222862    -0.01932192   
  54110000   0.048597397   -0.18708233     0             -0.14858408     0.005568529  
  54120000   0.042893942   -0.18696625     0             -0.1529862     -0.0067604623 
  54130000   0.045940512   -0.1894668      0             -0.1530733     -0.015034022  
  54140000   0.051924642   -0.19148873     0             -0.15035468    -0.0050161778 
  54150000   0.051539945   -0.19034308     0             -0.14951378     0.005100917  
  54160000   0.044314901   -0.19184924     0             -0.15674353    -0.0086166578 
  54170000   0.049801186   -0.19438893     0             -0.15493705    -0.02099101   
  54180000   0.051751304   -0.19970996     0             -0.15871323     0.011632739  
  54190000   0.050987164   -0.19470447     0             -0.15431308     0.0044872295 
  54200000   0.057675634   -0.18736346     0             -0.14167355    -0.0047132592 
  54210000   0.050298747   -0.19085215     0             -0.15100612     0.011133891  
  54220000   0.058645038   -0.183253       0             -0.13679514     0.012529244  
  54230000   0.051871738   -0.18614582     0             -0.14505367     0.031528484  
  54240000   0.048338553   -0.19140957     0             -0.15311637     0.013190541  
  54250000   0.049944147   -0.18268593     0             -0.1431208      0.026301823  
  54260000   0.049413624   -0.18332392     0             -0.14417907     0.00057132778
  54270000   0.046334052   -0.18197821     0             -0.14527295    -0.0016851292 
  54280000   0.052612953   -0.18547744     0             -0.14379811     0.008022422  
  54290000   0.045917979   -0.18497746     0             -0.14860181     0.01406859   
  54300000   0.046362923   -0.18538256     0             -0.14865443     0.04728705   
  54310000   0.051866251   -0.18419144     0             -0.14310364     0.0063610702 
  54320000   0.049227451   -0.18746533     0             -0.14846796    -0.0051437456 
  54330000   0.049922541   -0.19006749     0             -0.15051948    -0.028629011  
  54340000   0.049247909   -0.19076446     0             -0.15175088     0.0036217363 
  54350000   0.051374523   -0.18948958     0             -0.14879132     0.0044411626 
  54360000   0.046838991   -0.18777391     0             -0.15066865     0.007693691  
  54370000   0.046159705   -0.18559177     0             -0.14902463    -0.00059074364
  54380000   0.054339831   -0.1908592      0             -0.14781186    -0.005628629  
  54390000   0.050103053   -0.19086175     0             -0.15117074    -0.018048688  
  54400000   0.045971305   -0.19012155     0             -0.15370365     0.016383488  
  54410000   0.048946664   -0.19189691     0             -0.15312197     0.0091867943 
  54420000   0.04415948    -0.19367812     0             -0.15869553     0.00063105199
  54430000   0.048268298   -0.18608543     0             -0.14784789     0.0038948781 
  54440000   0.045898816   -0.19160514     0             -0.15524467    -0.016769288  
  54450000   0.053079309   -0.19196512     0             -0.14991635     0.023164892  
  54460000   0.047136738   -0.19166958     0             -0.15432845    -0.0023988708 
  54470000   0.051775431   -0.1903334      0             -0.14931755     0.034501659  
  54480000   0.047827758   -0.18770683     0             -0.14981828     0.015386018  
  54490000   0.05220169    -0.18535052     0             -0.14399699     0.0045708795 
  54500000   0.054238824   -0.18174208     0             -0.13877476    -0.016728064  
  54510000   0.049305355   -0.17691354     0             -0.13785445     0.0050540309 
  54520000   0.052487256   -0.1786642      0             -0.13708445     0.0017874098 
  54530000   0.04842773    -0.18445956     0             -0.14609572    -0.007073175  
  54540000   0.045404409   -0.17248534     0             -0.13651653    -0.02074281   
  54550000   0.050443296   -0.1841967      0             -0.14423615    -0.030887305  
  54560000   0.051451343   -0.1843348      0             -0.14357569    -0.007627936  
  54570000   0.04821141    -0.1799548      0             -0.14176233    -0.013172069  
  54580000   0.048850757   -0.18164686     0             -0.1429479     -0.013703726  
  54590000   0.050948643   -0.18679252     0             -0.14643164    -0.0021146411 
  54600000   0.055867456   -0.1820733      0             -0.1378158      0.010449253  
  54610000   0.047752633   -0.17861895     0             -0.14078991    -0.02020744   
  54620000   0.053524888   -0.17669532     0             -0.13429358    -0.03099542   
  54630000   0.050305509   -0.18264839     0             -0.14279699     0.028844778  
  54640000   0.047649612   -0.18628214     0             -0.14853471    -0.0012420206 
  54650000   0.049575632   -0.18131808     0             -0.14204488     0.0022507159 
  54660000   0.048643578   -0.18130576     0             -0.14277093    -0.003145605  
  54670000   0.051181242   -0.1784296      0             -0.13788446     0.011357302  
  54680000   0.049948516   -0.17571518     0             -0.13614659    -0.023304123  
  54690000   0.047634446   -0.17463197     0             -0.13689656    -0.017319894  
  54700000   0.049470221   -0.18020792     0             -0.14101823    -0.0038201441 
  54710000   0.048457119   -0.1842778      0             -0.14589068    -0.020613556  
  54720000   0.054254801   -0.18095581     0             -0.13797583    -0.0016220232 
  54730000   0.055043914   -0.17801337     0             -0.13440827    -0.022277812  
  54740000   0.047825616   -0.18473337     0             -0.14684652    -0.001578299  
  54750000   0.046826012   -0.17890365     0             -0.14180867    -0.00051957308
  54760000   0.051022815   -0.17079058     0             -0.13037094    -0.0033347669 
  54770000   0.051658523   -0.17747135     0             -0.13654812     0.03564252   
  54780000   0.047836797   -0.17250441     0             -0.1346087     -0.0065644358 
  54790000   0.050263839   -0.17871152     0             -0.13889313    -0.011651951  
  54800000   0.053959864   -0.18066764     0             -0.13792131    -0.014076489  
  54810000   0.047302616   -0.17576641     0             -0.13829387    -0.015148867  
  54820000   0.046650858   -0.17509141     0             -0.13813518     0.019145619  
  54830000   0.051952036   -0.17560275     0             -0.13444699    -0.013312069  
  54840000   0.052788276   -0.18435599     0             -0.14253777     0.01252978   
  54850000   0.053393271   -0.1788715      0             -0.13657402     0.019310313  
  54860000   0.053435507   -0.18436065     0             -0.14202971    -0.0022741792 
  54870000   0.048375532   -0.17886793     0             -0.14054544     0.014195678  
  54880000   0.045980293   -0.18232608     0             -0.14590106     0.0077563715 
  54890000   0.051781355   -0.18035577     0             -0.13933523     0.00170267   
  54900000   0.052460168   -0.18724517     0             -0.14568688     0.023154837  
  54910000   0.051489195   -0.18753826     0             -0.14674916     0.013001755  
  54920000   0.047371294   -0.1885032      0             -0.15097625     0.014796333  
  54930000   0.04856861    -0.17679205     0             -0.13831661     0.021504097  
  54940000   0.054938256   -0.18186968     0             -0.13834828     0.032850314  
  54950000   0.056033415   -0.18794092     0             -0.14355195     0.0045626182 
  54960000   0.052185309   -0.18432213     0             -0.14298158     0.0042124312 
  54970000   0.050154744   -0.1884028      0             -0.14867084     0.014842045  
  54980000   0.053316862   -0.19071876     0             -0.14848181    -0.013564054  
  54990000   0.051214116   -0.19600791     0             -0.15543673    -0.0043371072 
  55000000   0.051464044   -0.19667361     0             -0.15590444     0.013853385  
  55010000   0.047964947   -0.19307328     0             -0.15507604    -0.04629265   
  55020000   0.053737547   -0.19520754     0             -0.15263732     0.0069530335 
  55030000   0.048640554   -0.19841592     0             -0.15988348     0.032317395  
  55040000   0.05002747    -0.19272281     0             -0.15309167    -0.0073972427 
  55050000   0.044642621   -0.19743596     0             -0.16207063    -0.0096796659 
  55060000   0.057568875   -0.19562027     0             -0.15001492     0.017279488  
  55070000   0.057188266   -0.19348646     0             -0.14818263    -0.016189041  
  55080000   0.049521716   -0.1885625      0             -0.14933201     0.033696264  
  55090000   0.047099803   -0.19286587     0             -0.15555399     0.0040292292 
  55100000   0.053153768   -0.19484081     0             -0.15273305     0.031994012  
  55110000   0.049155224   -0.19160234     0             -0.15266219    -0.013212423  
  55120000   0.051400553   -0.19714616     0             -0.15642729    -0.004529108  
  55130000   0.050409126   -0.18884587     0             -0.14891239    -0.0063052052 
  55140000   0.044767834   -0.19455611     0             -0.15909159    -0.00093179035
  55150000   0.048284212   -0.19335809     0             -0.15510795     0.0058090905 
  55160000   0.05106679    -0.19028484     0             -0.14983037     0.015210735  
  55170000   0.046221317   -0.18829368     0             -0.15167773    -0.014594239  
  55180000   0.047782609   -0.18460383     0             -0.14675105    -0.013955361  
  55190000   0.043334505   -0.18493203     0             -0.15060298     0.013404037  
  55200000   0.052401909   -0.18210966     0             -0.14059752    -0.016868051  
  55210000   0.054352687   -0.18151965     0             -0.13846213     0.023436757  
  55220000   0.055483906   -0.1870597      0             -0.14310605    -0.0024961763 
  55230000   0.053408591   -0.18358408     0             -0.14127446     0.003391617  
  55240000   0.048325135   -0.18289538     0             -0.14461281     0.011423945  
  55250000   0.055921787   -0.18756814     0             -0.1432676      0.0060252628 
  55260000   0.050666077   -0.18739549     0             -0.14725846    -0.022249674  
  55270000   0.055933108   -0.18953561     0             -0.1452261      0.033931976  
  55280000   0.04555702    -0.18506657     0             -0.14897686    -0.012854273  
  55290000   0.051285263   -0.18791636     0             -0.14728882     0.00095302817
  55300000   0.050732489   -0.18380773     0             -0.14361809    -0.0088016262 
  55310000   0.05149376    -0.18838892     0             -0.14759621     0.028427732  
  55320000   0.048454518   -0.18608179     0             -0.14769673    -0.012519543  
  55330000   0.049825558   -0.18435234     0             -0.14488116     0.011603213  
  55340000   0.051316385   -0.18518375     0             -0.14453155    -0.0040947712 
  55350000   0.047916383   -0.18478045     0             -0.14682169     0.0069676175 
  55360000   0.0487083     -0.19280785     0             -0.15422174     0.0071475267 
  55370000   0.056837342   -0.19497934     0             -0.14995351     0.018991072  
  55380000   0.049827238   -0.18848216     0             -0.14900965    -0.021862938  
  55390000   0.052895168   -0.19096519     0             -0.14906229    -0.018717518  
  55400000   0.048578136   -0.18190213     0             -0.14341914    -0.043212806  
  55410000   0.053381654   -0.1816325      0             -0.13934422    -0.027349849  
  55420000   0.058788726   -0.18311548     0             -0.13654379     0.0071252615 
  55430000   0.048578564   -0.18458228     0             -0.14609895     0.002347101  
  55440000   0.049923421   -0.18081762     0             -0.14126891     0.01877635   
  55450000   0.053417115   -0.18318201     0             -0.14086563    -0.028406289  
  55460000   0.054816152   -0.17305515     0             -0.12963048     0.012887952  
  55470000   0.056683912   -0.18358573     0             -0.13868144    -0.0024447856 
  55480000   0.050521885   -0.18183396     0             -0.14181115     0.0020961318 
  55490000   0.046763678   -0.18440463     0             -0.14735903    -0.02301732   
  55500000   0.045205855   -0.17559867     0             -0.13978715     0.0037910693 
  55510000   0.049238648   -0.17608207     0             -0.13707583    -0.021210654  
  55520000   0.049569144   -0.17744016     0             -0.13817211    -0.0011700074 
  55530000   0.046528678   -0.17746501     0             -0.14060558    -0.0020140232 
  55540000   0.055289461   -0.18077865     0             -0.13697903    -0.016949287  
  55550000   0.042568075   -0.17207676     0             -0.13835486     0.0057812637 
  55560000   0.055802691   -0.17482199     0             -0.13061579     0.0006039001 
  55570000   0.042680653   -0.17522154     0             -0.14141046    -0.0033878711 
  55580000   0.050356523   -0.16637164     0             -0.12647984    -0.035439737  
  55590000   0.046807477   -0.18141851     0             -0.14433821     0.044638345  
  55600000   0.050043852   -0.18514636     0             -0.14550224     0.012874853  
  55610000   0.051247444   -0.18614054     0             -0.14554296    -0.01388625   
  55620000   0.05793946    -0.1828513      0             -0.13695239    -0.02233137   
  55630000   0.04775433    -0.18847888     0             -0.15064849     0.0085478772 
  55640000   0.053596899   -0.19037249     0             -0.14791369     0.022424848  
  55650000   0.049179458   -0.17665225     0             -0.1376929     -0.010070153  
  55660000   0.051923613   -0.18088045     0             -0.13974721     0.005811447  
  55670000   0.049538974   -0.17664293     0             -0.13739877     0.0025737635 
  55680000   0.047998459   -0.1767932      0             -0.13876942    -0.011607223  
  55690000   0.052293178   -0.18100133     0             -0.13957533    -0.007308439  
  55700000   0.050851253   -0.18491961     0             -0.14463588    -0.0011221448 
  55710000   0.053746749   -0.18994256     0             -0.14736506     0.001428103  
  55720000   0.051530532   -0.19217925     0             -0.15135741    -0.023005279  
  55730000   0.047455882   -0.18663137     0             -0.14903742     0.0094288874 
  55740000   0.051418827   -0.18148362     0             -0.14075027    -0.0059263984 
  55750000   0.047430493   -0.18176561     0             -0.14419177     0.015747011  
  55760000   0.053945116   -0.179723       0             -0.13698836    -0.017169017  
  55770000   0.048135823   -0.17706824     0             -0.13893565    -0.0091257025 
  55780000   0.046013024   -0.18270476     0             -0.14625381    -0.027289407  
  55790000   0.050462328   -0.18127581     0             -0.14130019    -0.01886457   
  55800000   0.046560824   -0.1838072      0             -0.1469223      0.0151088    
  55810000   0.047980968   -0.17941199     0             -0.14140207    -0.0040724911 
  55820000   0.052986519   -0.18297936     0             -0.1410041      0.0028022804 
  55830000   0.045323137   -0.18743806     0             -0.15153364     0.015452735  
  55840000   0.051474018   -0.18755116     0             -0.14677409    -0.014661285  
  55850000   0.048639319   -0.18616099     0             -0.14762953     0.030175114  
  55860000   0.046854243   -0.18899513     0             -0.15187778     0.013933856  
  55870000   0.042296565   -0.18800953     0             -0.15450272     0.012876057  
  55880000   0.050436042   -0.18314536     0             -0.14319055     0.0044192989 
  55890000   0.053048143   -0.18946208     0             -0.14743801     0.024416609  
  55900000   0.049798684   -0.17868854     0             -0.13923864    -0.00017771282
  55910000   0.052803312   -0.18120449     0             -0.13937437    -0.0046681073 
  55920000   0.051361225   -0.18083243     0             -0.14014471     0.020596608  
  55930000   0.050536717   -0.18394624     0             -0.14391168     0.0033683921 
  55940000   0.051459252   -0.18843948     0             -0.14767411    -0.029284932  
  55950000   0.048052502   -0.18412786     0             -0.14606127    -0.01110277   
  55960000   0.054112695   -0.18697198     0             -0.14410458     0.015036583  
  55970000   0.05061643    -0.1894423      0             -0.14934459    -0.027974519  
  55980000   0.052794685   -0.18879775     0             -0.14697446     0.021258221  
  55990000   0.048386929   -0.18135858     0             -0.14302706     0.023776272  
  56000000   0.052237933   -0.19012172     0             -0.14873949     0.021745908  
  56010000   0.046997806   -0.18958143     0             -0.15235036    -0.030697443  
  56020000   0.061781453   -0.18977217     0             -0.14082967     0.0024025815 
  56030000   0.050029995   -0.18650233     0             -0.14686919    -0.002561542  
  56040000   0.049700821   -0.18624898     0             -0.14687661     0.0066338938 
  56050000   0.049058671   -0.18518768     0             -0.14632402     0.01563872   
  56060000   0.04545581    -0.18781568     0             -0.15180616     0.00047610467
  56070000   0.051872106   -0.1836139      0             -0.14252147     0.023763504  
  56080000   0.04923441    -0.19185124     0             -0.15284836    -0.0041071892 
  56090000   0.047287699   -0.19450236     0             -0.15704164    -0.014329505  
  56100000   0.053790335   -0.19135585     0             -0.14874382    -0.0077651778 
  56110000   0.046989738   -0.19456921     0             -0.15734453     0.0058647415 
  56120000   0.054519574   -0.18834922     0             -0.1451595     -0.034440214  
  56130000   0.048675742   -0.18555958     0             -0.14699927    -0.019071091  
  56140000   0.052431568   -0.19141289     0             -0.14987726    -0.0079851317 
  56150000   0.051873443   -0.18587897     0             -0.14478547    -0.00096235417
  56160000   0.04917464    -0.18196155     0             -0.14300601    -0.013881233  
  56170000   0.052821756   -0.18820661     0             -0.14636187    -0.010186106  
  56180000   0.048152425   -0.1895162      0             -0.15137045     0.017798199  
  56190000   0.048672557   -0.1872348      0             -0.14867701     0.0085244665 
  56200000   0.05253787    -0.19046313     0             -0.14884329    -0.032155671  
  56210000   0.05369167    -0.18941514     0             -0.14688127    -0.0061306852 
  56220000   0.047446221   -0.19266198     0             -0.15507568     0.051678135  
  56230000   0.048045743   -0.19074818     0             -0.15268694    -0.0082904567 
  56240000   0.053241209   -0.19722788     0             -0.15505086     0.0025577503 
  56250000   0.049772501   -0.19833459     0             -0.15890544    -0.01796909   
  56260000   0.046580586   -0.19527591     0             -0.15837535     0.010902576  
  56270000   0.047586277   -0.18823999     0             -0.15054274     0.0011401443 
  56280000   0.046908106   -0.18596705     0             -0.14880704    -0.011791919  
  56290000   0.056898424   -0.19168028     0             -0.14660606     0.017345878  
  56300000   0.053303885   -0.18829795     0             -0.14607128     0.018894728  
  56310000   0.048725262   -0.19315965     0             -0.1545601     -0.0042714863 
  56320000   0.051564816   -0.18929778     0             -0.14844877    -0.024418937  
  56330000   0.051829137   -0.1954994      0             -0.154441      -0.01514413   
  56340000   0.051259337   -0.1930064      0             -0.1523994     -0.016643123  
  56350000   0.051159859   -0.19186977     0             -0.15134157     0.018251275  
  56360000   0.051986562   -0.19601076     0             -0.15482766     0.010967639  
  56370000   0.052206085   -0.19051118     0             -0.14915417    -0.0040211386 
  56380000   0.050682664   -0.19919024     0             -0.15904006    -0.011064065  
  56390000   0.049408325   -0.18900658     0             -0.14986592     0.001732061  
  56400000   0.055311075   -0.19967877     0             -0.15586203     0.016301972  
  56410000   0.049141058   -0.19945454     0             -0.16052561    -0.028107054  
  56420000   0.05054697    -0.20173348     0             -0.1616908     -0.00096453854
  56430000   0.047578781   -0.1951739      0             -0.15748259    -0.038916264  
  56440000   0.04429955    -0.19545098     0             -0.16035743     0.018387161  
  56450000   0.054743878   -0.19421998     0             -0.15085257     0.019510325  
  56460000   0.055565537   -0.18615101     0             -0.14213269    -0.0059321066 
  56470000   0.053419272   -0.19042666     0             -0.14810858    -0.0036551309 
  56480000   0.051455883   -0.19043132     0             -0.14966861     0.023707335  
  56490000   0.045932369   -0.19380802     0             -0.15742097    -0.019748871  
  56500000   0.052398751   -0.19714887     0             -0.15563923    -0.01007946   
  56510000   0.051783988   -0.19829541     0             -0.15727278    -0.01105197   
  56520000   0.052453629   -0.19245271     0             -0.1508996     -0.016258484  
  56530000   0.049687183   -0.19487506     0             -0.1555135      0.017609598  
  56540000   0.052988563   -0.1946996      0             -0.15272272     0.0018193625 
  56550000   0.047969753   -0.19936525     0             -0.16136422    -0.00084005103
  56560000   0.051749011   -0.1977109      0             -0.15671598     0.034373062  
  56570000   0.047492007   -0.18922317     0             -0.1516006     -0.044884161  
  56580000   0.053291335   -0.19243078     0             -0.15021405     0.013013734  
  56590000   0.05116172    -0.18394884     0             -0.14341916    -0.013148787  
  56600000   0.051069039   -0.18476398     0             -0.14430773    -0.017519159  
  56610000   0.03961443    -0.18893908     0             -0.15755702    -0.0011203109 
  56620000   0.048697405   -0.19231163     0             -0.15373415     0.011173451  
  56630000   0.046188111   -0.18624066     0             -0.14965102    -0.0083727927 
  56640000   0.054422727   -0.18876315     0             -0.14565014    -0.0340771    
  56650000   0.055021258   -0.19048318     0             -0.14689602     0.0089733795 
  56660000   0.057091066   -0.19057256     0             -0.14534573    -0.010059994  
  56670000   0.051330982   -0.19023275     0             -0.14956898    -0.011906446  
  56680000   0.048142471   -0.18824006     0             -0.1501022      0.0071404334 
  56690000   0.048550338   -0.18875443     0             -0.15029346     0.023464964  
  56700000   0.048469743   -0.18391997     0             -0.14552285     0.0023540854 
  56710000   0.055784917   -0.1856791      0             -0.14148699    -0.017454771  
  56720000   0.050223322   -0.18853877     0             -0.14875249    -0.017970272  
  56730000   0.046305409   -0.18472115     0             -0.14803859     0.012849162  
  56740000   0.048214754   -0.18615658     0             -0.14796145    -0.017440335  
  56750000   0.050659561   -0.18595612     0             -0.14582425     0.025369024  
  56760000   0.05350468    -0.19271053     0             -0.15032479     0.036608013  
  56770000   0.050557722   -0.1874274      0             -0.1473762      0.0021982638 
  56780000   0.05451637    -0.18744916     0             -0.14426198     0.023196003  
  56790000   0.04466654    -0.18482307     0             -0.1494388     -0.00031183342
  56800000   0.052656157   -0.18570588     0             -0.14399233    -0.010939159  
  56810000   0.048619382   -0.18810041     0             -0.14958474     0.011223345  
  56820000   0.050161015   -0.19028596     0             -0.15054903     0.0090964635 
  56830000   0.050710334   -0.18777593     0             -0.14760384    -0.012966198  
  56840000   0.054344285   -0.19246581     0             -0.14941494     0.051583841  
  56850000   0.051374276   -0.18733952     0             -0.14664146     0.046399925  
  56860000   0.05560961    -0.1896507      0             -0.14559746     0.010354333  
  56870000   0.04400112    -0.19034966     0             -0.15549253    -0.014170146  
  56880000   0.047829335   -0.18598554     0             -0.14809573     0.0015815171 
  56890000   0.047056978   -0.19147163     0             -0.15419368    -0.0098821877 
  56900000   0.053754248   -0.18546055     0             -0.14287711     0.012470198  
  56910000   0.053645176   -0.19111829     0             -0.14862125    -0.0066799744 
  56920000   0.052166137   -0.18840242     0             -0.14707706     0.020973134  
  56930000   0.048141935   -0.18143741     0             -0.14329997    -0.0032919922 
  56940000   0.053971743   -0.18457367     0             -0.14181793     0.018755569  
  56950000   0.046644445   -0.18997167     0             -0.15302053     0.0081652234 
  56960000   0.04707098    -0.19657126     0             -0.15928221     0.0042532134 
  56970000   0.051965869   -0.19739268     0             -0.15622597     0.0095017411 
  56980000   0.05399777    -0.19401547     0             -0.15123911    -0.0094859042 
  56990000   0.047206188   -0.18858639     0             -0.15119023    -0.01749437   
  57000000   0.05437582    -0.19480279     0             -0.15172694    -0.0083445274 
  57010000   0.050896329   -0.18962911     0             -0.14930967    -0.0016840645 
  57020000   0.049197944   -0.18828709     0             -0.14931309     0.014355031  
  57030000   0.051453746   -0.18782616     0             -0.14706514    -0.011252903  
  57040000   0.049786942   -0.18702712     0             -0.14758652    -0.016802269  
  57050000   0.049559239   -0.19052059     0             -0.15126038    -0.0016292269 
  57060000   0.046610044   -0.18801736     0             -0.15109346     0.0043378061 
  57070000   0.05485407    -0.18573965     0             -0.14228494    -0.028773484  
  57080000   0.049867106   -0.19031269     0             -0.15080859     0.020188086  
  57090000   0.050584138   -0.19072357     0             -0.15065145    -0.0055919312 
  57100000   0.051316046   -0.18581473     0             -0.1451628     -0.0064316188 
  57110000   0.050742958   -0.18204325     0             -0.14184532     0.011030793  
  57120000   0.050550566   -0.18581821     0             -0.14577269    -0.019300139  
  57130000   0.055337261   -0.18453358     0             -0.1406961     -0.0078129892 
  57140000   0.047020939   -0.18600696     0             -0.14875756     0.018143153  
  57150000   0.046963865   -0.1872827      0             -0.15007852     0.022578848  
  57160000   0.044099855   -0.18652378     0             -0.15158843     0.012763167  
  57170000   0.048614686   -0.18797303     0             -0.14946109    -0.01438987   
  57180000   0.050730175   -0.18480396     0             -0.14461615     0.028063489  
  57190000   0.051474867   -0.18493204     0             -0.1441543     -0.017217516  
  57200000   0.052258904   -0.1955501      0             -0.15415125     0.0043614549 
  57210000   0.04932329    -0.18605042     0             -0.14697713     0.0025043467 
  57220000   0.051015963   -0.18736097     0             -0.14694676     0.016835924  
  57230000   0.052758198   -0.18625376     0             -0.14445937     0.0046444209 
  57240000   0.050155075   -0.18434081     0             -0.14460859    -0.0099691413 
  57250000   0.050920711   -0.18209609     0             -0.14175734     0.0055721464 
  57260000   0.051351889   -0.18608602     0             -0.14540569     0.0091148765 
  57270000   0.048012076   -0.18398495     0             -0.14595038     0.027126011  
  57280000   0.051273796   -0.18664859     0             -0.14603013     0.0082600703 
  57290000   0.052881215   -0.18481529     0             -0.14292345    -0.013215535  
  57300000   0.053299654   -0.18482852     0             -0.1426052     -0.030958728  
  57310000   0.04607424    -0.19075881     0             -0.15425937    -0.028298325  
  57320000   0.052562415   -0.18530331     0             -0.14366403     0.0027390905 
  57330000   0.046815378   -0.18462587     0             -0.14753931     0.0064644275 
  57340000   0.04437084    -0.18539391     0             -0.15024388     0.022297901  
  57350000   0.049398869   -0.18097137     0             -0.1418382     -0.0080422979 
  57360000   0.05271125    -0.18669535     0             -0.14493816     0.004799011  
  57370000   0.052209514   -0.19044284     0             -0.14908312    -0.013673985  
  57380000   0.05017219    -0.19065038     0             -0.1509046      0.023654604  
  57390000   0.048835476   -0.18824012     0             -0.14955326    -0.0095849337 
  57400000   0.05532693    -0.18760013     0             -0.14377083    -0.019813659  
  57410000   0.055674886   -0.19090419     0             -0.14679924     0.020245113  
  57420000   0.048648404   -0.18738472     0             -0.14884606     0.033642596  
  57430000   0.049635078   -0.18571469     0             -0.1463944     -0.012623492  
  57440000   0.052786931   -0.19079819     0             -0.14898105    -0.01627198   
  57450000   0.043934423   -0.19790543     0             -0.16310113     0.0082290057 
  57460000   0.050102888   -0.19288573     0             -0.15319485    -0.016905051  
  57470000   0.047349178   -0.19264731     0             -0.15513788     0.0063425796 
  57480000   0.044378457   -0.18874417     0             -0.15358811     0.0070982817 
  57490000   0.053206326   -0.19592255     0             -0.15377316    -0.0046222836 
  57500000   0.053494418   -0.19313298     0             -0.15075537     0.045993096  
  57510000   0.056599802   -0.19294999     0             -0.14811234     0.017684422  
  57520000   0.048090996   -0.18471734     0             -0.14662025    -0.010899867  
  57530000   0.046198134   -0.1883203      0             -0.15172271    -0.0079897028 
  57540000   0.047700959   -0.18935378     0             -0.15156568     0.031318774  
  57550000   0.045651097   -0.18932548     0             -0.15316125     0.0040778717 
  57560000   0.045032089   -0.19004538     0             -0.15437152     0.0026479482 
  57570000   0.051478598   -0.19194737     0             -0.15116666    -0.021738139  
  57580000   0.048817297   -0.19172957     0             -0.15305712     0.006487709  
  57590000   0.046004957   -0.1966567      0             -0.16021215    -0.022060051  
  57600000   0.052931843   -0.19390536     0             -0.15197342     0.01132146   
  57610000   0.054132933   -0.19017805     0             -0.14729461     0.00017454665
  57620000   0.05079926    -0.19189003     0             -0.15164749     0.014408084  
  57630000   0.049615679   -0.19366048     0             -0.15435556    -0.003954519  
  57640000   0.051924362   -0.19893523     0             -0.1578014     -0.015186354  
  57650000   0.045742114   -0.19511419     0             -0.15887786     0.014362803  
  57660000   0.051222587   -0.19524644     0             -0.15466855    -0.0052736754 
  57670000   0.051734546   -0.19034229     0             -0.14935883    -0.0092514167 
  57680000   0.045311153   -0.19241849     0             -0.15652356     0.0038323626 
  57690000   0.046532448   -0.18807314     0             -0.15121072     0.0014777926 
  57700000   0.050379103   -0.19163508     0             -0.15172539    -0.005018284  
  57710000   0.05783627    -0.19726863     0             -0.15145146    -0.0043510009 
  57720000   0.048005678   -0.19293755     0             -0.15490805     0.0067716037 
  57730000   0.048220251   -0.19421191     0             -0.15601243     0.022357814  
  57740000   0.050734479   -0.19515861     0             -0.15496739    -0.0075868511 
  57750000   0.046805929   -0.19633372     0             -0.15925465    -0.018268766  
  57760000   0.049060985   -0.19674834     0             -0.15788285     0.029323337  
  57770000   0.048738095   -0.19192438     0             -0.15331467    -0.0073152506 
  57780000   0.047457902   -0.19489468     0             -0.15729912     0.012624258  
  57790000   0.054521135   -0.19084588     0             -0.14765492    -0.01741411   
  57800000   0.054794157   -0.19130985     0             -0.1479026     -0.021212784  
  57810000   0.046928809   -0.18833485     0             -0.15115844    -0.00087723894
  57820000   0.048929975   -0.19007589     0             -0.15131417    -0.020324936  
  57830000   0.048852879   -0.18384513     0             -0.14514449     0.0061548206 
  57840000   0.052151579   -0.19188406     0             -0.15057023    -0.012433247  
  57850000   0.050263151   -0.18828533     0             -0.14846749    -0.006704315  
  57860000   0.050202588   -0.18648347     0             -0.14671361    -0.0065006357 
  57870000   0.052326329   -0.18749828     0             -0.14604601     0.01757947   
  57880000   0.042579596   -0.19001971     0             -0.15628868    -0.014453919  
  57890000   0.050927149   -0.18448573     0             -0.14414188    -0.018053509  
  57900000   0.056468783   -0.18754768     0             -0.14281381    -0.002625168  
  57910000   0.048429358   -0.19003295     0             -0.15166781    -0.015068125  
  57920000   0.04576472    -0.19096674     0             -0.15471251     0.017464966  
  57930000   0.044011382   -0.1929171      0             -0.15805183     0.0022162763 
  57940000   0.053035076   -0.18639781     0             -0.14438409    -0.010785205  
  57950000   0.049340525   -0.19513232     0             -0.15604537    -0.0032088943 
  57960000   0.046857732   -0.19401515     0             -0.15689504    -0.038841531  
  57970000   0.053989903   -0.19727428     0             -0.15450415    -0.017740246  
  57980000   0.045550439   -0.19088946     0             -0.15480497    -0.0005840249 
  57990000   0.048948022   -0.18707924     0             -0.14830323    -0.01355106   
  58000000   0.043749906   -0.18497096     0             -0.15031283    -0.010906385  
  58010000   0.049408795   -0.18436979     0             -0.14522876    -0.0064594397 
  58020000   0.055697356   -0.17892751     0             -0.13480476    -7.1399992e-05
  58030000   0.052574666   -0.17768326     0             -0.13603426     0.018540015  
  58040000   0.046534926   -0.16854762     0             -0.13168323     0.017118274  
  58050000   0.044659333   -0.18198802     0             -0.14660945    -0.00097020246
  58060000   0.045810451   -0.19054957     0             -0.15425911     0.012921782  
  58070000   0.050634766   -0.18516873     0             -0.1450565      0.012210787  
  58080000   0.042020502   -0.18645412     0             -0.15316601     0.0037243366 
  58090000   0.046579381   -0.18611299     0             -0.14921338    -0.011060801  
  58100000   0.04934773    -0.18687754     0             -0.14778488    -0.012658423  
  58110000   0.052892308   -0.1857448      0             -0.14384418     0.0058431144 
  58120000   0.047956977   -0.1833136      0             -0.14532269    -0.013595352  
  58130000   0.046805011   -0.17677364     0             -0.1396953     -0.01762867   
  58140000   0.051652554   -0.1737439      0             -0.13282539     0.0029688283 
  58150000   0.052701686   -0.18527321     0             -0.14352359     0.0036473437 
  58160000   0.049578636   -0.1765974      0             -0.13732182    -0.025629621  
  58170000   0.046015416   -0.18416268     0             -0.14770984     0.0024238218 
  58180000   0.048595709   -0.18796961     0             -0.14947269     0.010991923  
  58190000   0.049310039   -0.18420639     0             -0.14514359    -0.0263692    
  58200000   0.050017824   -0.18613345     0             -0.14650995    -0.0022570811 
  58210000   0.04500428    -0.1919847      0             -0.15633287     0.0074173039 
  58220000   0.04817067    -0.18322632     0             -0.14506612     0.013779849  
  58230000   0.056792755   -0.18419318     0             -0.13920267     0.004026796  
  58240000   0.0519826     -0.18270491     0             -0.14152495    -0.025579833  
  58250000   0.050693627   -0.17328467     0             -0.13312581     0.0036319468 
  58260000   0.051253496   -0.18526978     0             -0.1446674      0.006257808  
  58270000   0.053165461   -0.1851035      0             -0.14298649    -0.018702414  
  58280000   0.050820015   -0.18817664     0             -0.14791766     0.029472854  
  58290000   0.050322959   -0.18925267     0             -0.14938745     0.044314232  
  58300000   0.053817037   -0.19236467     0             -0.14973149     0.0075876051 
  58310000   0.057111971   -0.19358777     0             -0.14834438     0.017003949  
  58320000   0.048603901   -0.19629024     0             -0.15778684    -0.012069523  
  58330000   0.048260346   -0.18457587     0             -0.14634463     0.013052123  
  58340000   0.050296936   -0.18646238     0             -0.14661778     0.0043645034 
  58350000   0.054798676   -0.1874589      0             -0.14404808    -0.0040194915 
  58360000   0.05332378    -0.18741806     0             -0.14517563     0.01575125   
  58370000   0.047200285   -0.18784899     0             -0.15045752     0.0024990521 
  58380000   0.050183908   -0.18037432     0             -0.14061925    -0.0046848471 
  58390000   0.051876801   -0.18137228     0             -0.14027612     0.021958743  
  58400000   0.052509777   -0.18651083     0             -0.14491324    -0.0071353981 
  58410000   0.045588471   -0.18923359     0             -0.15311897     0.0058451408 
  58420000   0.052107679   -0.19038971     0             -0.14911066    -0.012177807  
  58430000   0.056775523   -0.18961579     0             -0.14463893     0.0066018957 
  58440000   0.048728257   -0.18599067     0             -0.14738876     0.0041889092 
  58450000   0.048194738   -0.18323628     0             -0.14505701     0.019279135  
  58460000   0.048133962   -0.18744846     0             -0.14931733    -0.027433703  
  58470000   0.055774831   -0.18627471     0             -0.14209058    -0.030342093  
  58480000   0.04388902    -0.18643621     0             -0.15166788    -0.04050067   
  58490000   0.048245802   -0.18840698     0             -0.15018725     0.013342756  
  58500000   0.04634241    -0.18455526     0             -0.14784338     0.032561195  
  58510000   0.044172427   -0.18452607     0             -0.14953323     0.027118144  
  58520000   0.052084075   -0.18285462     0             -0.14159427    -0.0081138713 
  58530000   0.054700099   -0.194558       0             -0.15122526     0.012821908  
  58540000   0.050531222   -0.19450659     0             -0.15447639     0.0014034466 
  58550000   0.048914592   -0.19163292     0             -0.15288339     0.0037441247 
  58560000   0.050288054   -0.19124264     0             -0.15140507     0.017205788  
  58570000   0.044941855   -0.17306783     0             -0.13746546    -0.0042757162 
  58580000   0.052869386   -0.18029459     0             -0.13841213     0.00041857043
  58590000   0.052406247   -0.18585087     0             -0.1443353     -8.35494e-05  
  58600000   0.043646854   -0.18060066     0             -0.14602417     0.013425104  
  58610000   0.049462893   -0.1813059      0             -0.14212201     0.029343198  
  58620000   0.04746491    -0.18309495     0             -0.14549384    -0.0089251757 
  58630000   0.051953485   -0.18450207     0             -0.14334517     0.0072766614 
  58640000   0.049065117   -0.18404597     0             -0.1451772      0.0043369091 
  58650000   0.046705614   -0.17613371     0             -0.13913411     0.003922165  
  58660000   0.057371247   -0.18944792     0             -0.14399914     0.01217539   
  58670000   0.050273698   -0.18992572     0             -0.15009952     0.0058363714 
  58680000   0.048124513   -0.18605065     0             -0.14792702    -0.017997264  
  58690000   0.057500971   -0.1886771      0             -0.14312555    -0.019248423  
  58700000   0.054123405   -0.18554905     0             -0.14267317    -0.015111936  
  58710000   0.052458804   -0.17591087     0             -0.13435366    -0.022231011  
  58720000   0.048583874   -0.18394054     0             -0.14545301     0.012424067  
  58730000   0.052924636   -0.19076762     0             -0.14884139    -0.01168057   
  58740000   0.046580095   -0.18225621     0             -0.14535604     0.030287564  
  58750000   0.055086027   -0.1837384      0             -0.14009994    -0.0050000169 
  58760000   0.050591128   -0.17896824     0             -0.13889058    -0.0092117737 
  58770000   0.052004415   -0.18911914     0             -0.14792189    -0.035978856  
  58780000   0.051232957   -0.18581844     0             -0.14523233     0.012450866  
  58790000   0.057737169   -0.17495177     0             -0.12921311     0.0024427929 
  58800000   0.052603607   -0.17937882     0             -0.1377069      0.016725286  
  58810000   0.048491835   -0.17523268     0             -0.13681806    -0.010482779  
  58820000   0.050817436   -0.17877245     0             -0.13851551    -0.0059944314 
  58830000   0.054144165   -0.17809682     0             -0.13520449    -0.001089306  
  58840000   0.051730657   -0.1718758      0             -0.13089542     0.0062855203 
  58850000   0.050952826   -0.17761555     0             -0.13725136     0.0080270765 
  58860000   0.052909192   -0.17570544     0             -0.13379144     0.022862175  
  58870000   0.049438374   -0.17547641     0             -0.13631195     0.0060257319 
  58880000   0.046728116   -0.17549228     0             -0.13847485     0.02769076   
  58890000   0.053322344   -0.18760024     0             -0.14535894    -0.013756399  
  58900000   0.052842968   -0.18140398     0             -0.13954244    -0.001543562  
  58910000   0.051063389   -0.18434658     0             -0.1438948      0.013561659  
  58920000   0.050121196   -0.18229212     0             -0.14258673    -0.017227124  
  58930000   0.048185091   -0.18704215     0             -0.14887052    -0.030626865  
  58940000   0.053402006   -0.18354487     0             -0.14124046    -0.010371097  
  58950000   0.048734521   -0.18159292     0             -0.14298604    -0.014681657  
  58960000   0.049558844   -0.1759456      0             -0.1366857     -0.024291222  
  58970000   0.055602493   -0.16324477     0             -0.11919717     0.0056158228 
  58980000   0.050614659   -0.16929332     0             -0.12919702     0.013713748  
  58990000   0.049022312   -0.17329872     0             -0.13446385     0.026742586  
  59000000   0.050947419   -0.17921966     0             -0.13885976    -0.0013636936 
  59010000   0.048805221   -0.1754916      0             -0.13682871     0.013810415  
  59020000   0.048858803   -0.17457803     0             -0.13587269     0.018372158  
  59030000   0.050010234   -0.18036495     0             -0.14074747     0.0064600828 
  59040000   0.050280706   -0.17904784     0             -0.13921609     0.012446367  
  59050000   0.052761518   -0.1802434      0             -0.13844638    -0.0036469766 
  59060000   0.048796211   -0.17897753     0             -0.14032178    -0.00064632108
  59070000   0.048084839   -0.18173413     0             -0.14364193    -0.0096585039 
  59080000   0.055783624   -0.17283737     0             -0.12864628    -0.015174757  
  59090000   0.047862734   -0.17554816     0             -0.1376319      0.0056973261 
  59100000   0.045335358   -0.17339005     0             -0.13747595    -0.01350948   
  59110000   0.051734775   -0.17958252     0             -0.13859888    -0.0072586288 
  59120000   0.050020643   -0.17860929     0             -0.13898357    -0.0092956259 
  59130000   0.049671767   -0.17713283     0             -0.13778348    -0.025447255  
  59140000   0.052653297   -0.17838127     0             -0.13666999    -0.010441422  
  59150000   0.045551698   -0.18086289     0             -0.1447774      0.00079642102
  59160000   0.04995659    -0.1772952      0             -0.13772021     0.012935462  
  59170000   0.049323871   -0.18047802     0             -0.14140427    -0.010157991  
  59180000   0.045945608   -0.17022894     0             -0.1338314     -0.0057078644 
  59190000   0.045932391   -0.16628062     0             -0.12989355    -0.011097915  
  59200000   0.050943481   -0.17373398     0             -0.13337719     0.0045704395 
  59210000   0.051965421   -0.17162242     0             -0.13045606    -0.02293439   
  59220000   0.050229956   -0.17771977     0             -0.13792823     0.0010914849 
  59230000   0.049583128   -0.17956565     0             -0.14028652    -0.0018848844 
  59240000   0.05291222    -0.18100276     0             -0.13908636     0.0067311823 
  59250000   0.05225703    -0.16933588     0             -0.12793851    -0.00044341025
  59260000   0.046536479   -0.17029027     0             -0.13342465     0.0073554162 
  59270000   0.050340554   -0.17257428     0             -0.13269512     0.0081461926 
  59280000   0.047978101   -0.17035907     0             -0.13235142    -0.0069536459 
  59290000   0.048466208   -0.17448004     0             -0.13608572    -0.0048990076 
  59300000   0.047933796   -0.17242499     0             -0.13445244    -0.028598932  
  59310000   0.049008346   -0.17938022     0             -0.14055642     0.0044561963 
  59320000   0.053138074   -0.18511663     0             -0.14302131    -0.010161393  
  59330000   0.052874881   -0.18716198     0             -0.14527516     0.013111177  
  59340000   0.046474813   -0.17374349     0             -0.13692673    -0.027514662  
  59350000   0.0531781     -0.17843462     0             -0.13630759     0.00078308672
  59360000   0.053750825   -0.18596323     0             -0.14338249     0.0067465259 
  59370000   0.050947135   -0.18768543     0             -0.14732574    -0.00023701108
  59380000   0.048699282   -0.19060793     0             -0.15202897     0.013677763  
  59390000   0.053314434   -0.18790913     0             -0.14567411    -0.00064623833
  59400000   0.045492258   -0.182259       0             -0.1462206      0.024175002  
  59410000   0.049956067   -0.19435618     0             -0.15478161    -0.02909516   
  59420000   0.052105058   -0.18899274     0             -0.14771576    -0.0052822115 
  59430000   0.051449662   -0.19200017     0             -0.15124239     0.040710657  
  59440000   0.056544142   -0.19282256     0             -0.148029       0.0036768738 
  59450000   0.05327213    -0.18902917     0             -0.14682766    -0.0074328793 
  59460000   0.046931707   -0.1893605      0             -0.15218178    -0.0048161539 
  59470000   0.055056675   -0.19311823     0             -0.14950302    -0.027724145  
  59480000   0.0442909     -0.18849206     0             -0.15340536     0.01978856   
  59490000   0.054468715   -0.18926804     0             -0.1461186     -0.0029416196 
  59500000   0.052682904   -0.19221921     0             -0.15048448    -0.0027817576 
  59510000   0.050964608   -0.18637501     0             -0.14600149    -0.027175519  
  59520000   0.049475528   -0.18839039     0             -0.1491965      0.023715585  
  59530000   0.048102272   -0.18795214     0             -0.14984612     0.020967676  
  59540000   0.04707892    -0.18939685     0             -0.15210152    -0.0081852778 
  59550000   0.048424241   -0.19193148     0             -0.1535704      0.021454021  
  59560000   0.052758676   -0.18516456     0             -0.1433698      0.0067347511 
  59570000   0.052965193   -0.18256888     0             -0.14061051    -0.0021045855 
  59580000   0.053513358   -0.18608879     0             -0.14369618    -0.0052511572 
  59590000   0.050271603   -0.17989717     0             -0.14007263    -0.0030149817 
  59600000   0.054977938   -0.18407792     0             -0.14052509    -0.043775849  
  59610000   0.053609381   -0.18150252     0             -0.13903383     0.0013267222 
  59620000   0.046620639   -0.18312578     0             -0.14619349    -0.0012882664 
  59630000   0.056780407   -0.17959065     0             -0.13460992    -0.0054664556 
  59640000   0.045529982   -0.181402       0             -0.14533371    -0.028459654  
  59650000   0.045354986   -0.17495329     0             -0.13902364     0.0091328495 
  59660000   0.045006472   -0.17347822     0             -0.13782466     0.016613702  
  59670000   0.051895771   -0.16692711     0             -0.12581593    -0.010894618  
  59680000   0.057443708   -0.16697644     0             -0.12147026    -0.012477809  
  59690000   0.052099637   -0.17188947     0             -0.13061679     0.01251894   
  59700000   0.049320275   -0.18195707     0             -0.14288616    -0.00053635949
  59710000   0.053514949   -0.17697615     0             -0.13458227    -0.0044420633 
  59720000   0.053400965   -0.17455477     0             -0.13225119     0.0030538115 
  59730000   0.051555899   -0.16846806     0             -0.12762612     0.0020923229 
  59740000   0.052975245   -0.17305402     0             -0.1310877     -0.0092267099 
  59750000   0.05200903    -0.17810608     0             -0.13690517    -0.011586046  
  59760000   0.050772883   -0.1789239      0             -0.13870226     0.018028404  
  59770000   0.055311901   -0.18011413     0             -0.13629674     0.014027776  
  59780000   0.055278445   -0.17503737     0             -0.13124648    -0.0072611114 
  59790000   0.051957434   -0.18213872     0             -0.14097869     0.030963951  
  59800000   0.046605264   -0.17554235     0             -0.13862225    -0.014981657  
  59810000   0.046171884   -0.17779606     0             -0.14121927     0.022684363  
  59820000   0.055796894   -0.18077129     0             -0.13656969     0.0014496758 
  59830000   0.049151398   -0.18130671     0             -0.14236959    -0.015865474  
  59840000   0.050477086   -0.17842676     0             -0.13843944     0.0012796357 
  59850000   0.050288898   -0.18184906     0             -0.14201082     0.0067527756 
  59860000   0.050419471   -0.18306772     0             -0.14312605     0.0070987828 
  59870000   0.051664608   -0.18597759     0             -0.14504953     0.023252399  
  59880000   0.04717313    -0.18636879     0             -0.14899883    -0.031935711  
  59890000   0.049744345   -0.18611983     0             -0.14671298    -0.010084322  
  59900000   0.046780292   -0.18895542     0             -0.15189666    -0.015268017  
  59910000   0.049328668   -0.19080252     0             -0.15172497     0.010493463  
  59920000   0.050389091   -0.19185244     0             -0.15193483    -0.022098824  
  59930000   0.049220174   -0.18662646     0             -0.14763485     0.0024961366 
  59940000   0.047824384   -0.17976312     0             -0.14187724     0.0052048041 
  59950000   0.046791691   -0.18638682     0             -0.14931902     0.013125683  
  59960000   0.051414078   -0.18301079     0             -0.1422812     -0.019706801  
  59970000   0.048392511   -0.17930623     0             -0.14097029     0.016216064  
  59980000   0.04964441    -0.1810709      0             -0.14174322    -0.017755132  
  59990000   0.04811456    -0.17957046     0             -0.14145471    -0.017969006  
  60000000   0.052062557   -0.17717896     0             -0.13593566     0.0025758989 
Loop time of 4750.5 on 6 procs for 60000000 steps with 320 atoms

Performance: 5456269.961 tau/day, 12630.255 timesteps/s, 4.042 Matom-step/s
184.8% CPU use with 3 MPI tasks x 2 OpenMP threads

MPI task timing breakdown:
Section |  min time  |  avg time  |  max time  |%varavg| %total
---------------------------------------------------------------
Pair    | 365.88     | 417.36     | 468.1      | 204.3 |  8.79
Bond    | 2.4723     | 2.615      | 2.7667     |   7.4 |  0.06
Neigh   | 17.905     | 17.947     | 18.029     |   1.4 |  0.38
Comm    | 883.84     | 928.63     | 984.95     | 138.1 | 19.55
Output  | 0.94096    | 0.98668    | 1.042      |   4.2 |  0.02
Modify  | 3252.4     | 3264       | 3274.6     |  15.9 | 68.71
Other   |            | 119        |            |       |  2.50

Nlocal:        106.667 ave         177 max          30 min
Histogram: 1 0 0 0 0 1 0 0 0 1
Nghost:            480 ave         506 max         438 min
Histogram: 1 0 0 0 0 0 0 0 1 1
Neighs:              0 ave           0 max           0 min
Histogram: 3 0 0 0 0 0 0 0 0 0
FullNghs:      3164.67 ave        5730 max         328 min
Histogram: 1 0 0 0 0 1 0 0 0 1

Total # of neighbors = 9494
Ave neighs/atom = 29.66875
Ave special neighs/atom = 2.3125
Neighbor list builds = 100695
Dangerous builds = 0

#delete_atoms group Patches compress yes bond yes
#create_bonds many CL MO 1 0.0 1.56
#reset_atoms id
#resete_atoms mol all
#write_data data.test
Total wall time: 1:19:10
