LAMMPS (2 Aug 2023 - Update 3)
OMP_NUM_THREADS environment is not set. Defaulting to 1 thread. (src/comm.cpp:98)
  using 1 OpenMP thread(s) per MPI task
Loaded 1 plugins from F:\LAMMPS\LAMMPS 64-bit 2Aug2023\plugins
# Script to create a Polymer using Patchy Particles (PP)
# Types of Particles:
#   Cross linker:   PPA
#   Monomer:        PPB

# Initialization
units lj
dimension 3
boundary p p p

# Types of atoms and that stuff
atom_style full
bond_style zero nocoeff
pair_style hybrid lj/cut 2.5 cosine/squared 2.5 zero 2.5

# Get data for box and particles
read_data data.patchyP1.lmp group CL1
Reading data file ...
  orthogonal box = (-5 -5 -5) to (5 5 5)
  1 by 1 by 1 MPI processor grid
WARNING: Atom style in data file atom-ID molecule-ID atom-type q x y z differs from currently defined atom style full (src/read_data.cpp:621)
  reading atoms ...
  5 atoms
  scanning bonds ...
  4 = max bonds/atom
WARNING: Bond style ID parameters in data file differs from currently defined bond style zero (src/read_data.cpp:724)
  reading bonds ...
  4 bonds
Finding 1-2 1-3 1-4 neighbors ...
  special bond factors lj:    0        0        0       
  special bond factors coul:  0        0        0       
     4 = max # of 1-2 neighbors
     3 = max # of 1-3 neighbors
     3 = max # of 1-4 neighbors
     4 = max # of special neighbors
  special bonds CPU = 0.002 seconds
  read_data CPU = 0.008 seconds
read_data data.patchyP2.lmp add append group Mo1
Reading data file ...
  orthogonal box = (-5 -5 -5) to (5 5 5)
  1 by 1 by 1 MPI processor grid
WARNING: Atom style in data file atom-ID molecule-ID atom-type q x y z differs from currently defined atom style full (src/read_data.cpp:621)
  reading atoms ...
  3 atoms
  scanning bonds ...
  2 = max bonds/atom
WARNING: Bond style ID parameters in data file differs from currently defined bond style zero (src/read_data.cpp:724)
  reading bonds ...
  2 bonds
Finding 1-2 1-3 1-4 neighbors ...
  special bond factors lj:    0        0        0       
  special bond factors coul:  0        0        0       
     4 = max # of 1-2 neighbors
     3 = max # of 1-3 neighbors
     3 = max # of 1-4 neighbors
     4 = max # of special neighbors
  special bonds CPU = 0.000 seconds
  read_data CPU = 0.001 seconds

displace_atoms Mo1 move 0.0 0.0 3.0 units box
Displacing atoms ...

# Set the patchy particle interaction
fix CLfix CL1 rigid single
  1 rigid bodies with 5 atoms
fix Mofix Mo1 rigid single
  1 rigid bodies with 3 atoms

pair_coeff 1 1 zero 2.24
pair_coeff 2 2 zero 2.24
pair_coeff 3 3 zero 2.24
pair_coeff 1 3 zero 1.68
pair_coeff 1 4 zero 1.68
pair_coeff 2 3 zero 1.68
pair_coeff 2 4 zero 1.68
pair_coeff 1 2 lj/cut 1.0 1.0 2.24 # i-type j-type eps sigma cutoff
pair_coeff 3 4 cosine/squared 10.0 0.5 0.56 wca # i-type j-type eps sigma cutoff wca
pair_coeff 4 4 cosine/squared 10.0 0.5 0.56 wca # i-type j-type eps sigma cutoff wca

# Neighbor list
neighbor 0.3 bin # extra-distance style
#neigh_modify delay 5

minimize 1.0e-4 1.0e-6 1000 10000 # etol ftol maxiter maxeval
Generated 0 of 6 mixed pair_coeff terms from geometric mixing rule
WARNING: More than one fix rigid (src/RIGID/fix_rigid.cpp:709)
WARNING: More than one fix rigid (src/RIGID/fix_rigid.cpp:709)
Neighbor list info ...
  update: every = 1 steps, delay = 0 steps, check = yes
  max neighbors/atom: 2000, page size: 100000
  master list distance cutoff = 2.54
  ghost atom cutoff = 2.54
  binsize = 1.27, bins = 8 8 8
  5 neighbor lists, perpetual/occasional/extra = 5 0 0
  (1) pair lj/cut, perpetual, skip from (4)
      attributes: half, newton on
      pair build: skip
      stencil: none
      bin: none
  (2) pair cosine/squared, perpetual, skip from (5)
      attributes: half, newton on, cut 0.8600000000000001
      pair build: skip
      stencil: none
      bin: none
  (3) pair zero, perpetual, skip from (4)
      attributes: half, newton on
      pair build: skip
      stencil: none
      bin: none
  (4) neighbor class addition, perpetual
      attributes: half, newton on
      pair build: half/bin/newton
      stencil: half/bin/3d
      bin: standard
  (5) neighbor class addition, perpetual, trim from (4)
      attributes: half, newton on, cut 0.8600000000000001
      pair build: trim
      stencil: none
      bin: none
Per MPI rank memory allocation (min/avg/max) = 12.84 | 12.84 | 12.84 Mbytes
   Step          Temp          E_pair         E_mol          TotEng         Press     
         0   0              0              0              0              0            
         1   0              0              0              0              0            
Loop time of 0.000293 on 1 procs for 1 steps with 8 atoms

0.0% CPU use with 1 MPI tasks x 1 OpenMP threads

Minimization stats:
  Stopping criterion = search direction is not downhill
  Energy initial, next-to-last, final = 
                     0                  0                  0
  Force two-norm initial, final = 0 0
  Force max component initial, final = 0 0
  Final line search alpha, max atom move = 0 0
  Iterations, force evaluations = 1 0

MPI task timing breakdown:
Section |  min time  |  avg time  |  max time  |%varavg| %total
---------------------------------------------------------------
Pair    | 3e-06      | 3e-06      | 3e-06      |   0.0 |  1.02
Bond    | 0          | 0          | 0          |   0.0 |  0.00
Neigh   | 0          | 0          | 0          |   0.0 |  0.00
Comm    | 1e-06      | 1e-06      | 1e-06      |   0.0 |  0.34
Output  | 0          | 0          | 0          |   0.0 |  0.00
Modify  | 0          | 0          | 0          |   0.0 |  0.00
Other   |            | 0.000289   |            |       | 98.63

Nlocal:              8 ave           8 max           8 min
Histogram: 1 0 0 0 0 0 0 0 0 0
Nghost:              3 ave           3 max           3 min
Histogram: 1 0 0 0 0 0 0 0 0 0
Neighs:              0 ave           0 max           0 min
Histogram: 1 0 0 0 0 0 0 0 0 0

Total # of neighbors = 0
Ave neighs/atom = 0
Ave special neighs/atom = 3.25
Neighbor list builds = 0
Dangerous builds = 0

fix 1 all langevin 1.0 1.0 50.0 12345
fix 2 all nve

thermo 50
compute t all temp
compute ep all pe
compute ek all ke
compute tm all momentum

dump 1 all atom 50 dump.patchy_pairs1

timestep 0.005
run 100000
Generated 0 of 6 mixed pair_coeff terms from geometric mixing rule
WARNING: More than one fix rigid (src/RIGID/fix_rigid.cpp:709)
WARNING: More than one fix rigid (src/RIGID/fix_rigid.cpp:709)
WARNING: One or more atoms are time integrated more than once (src/modify.cpp:289)
Per MPI rank memory allocation (min/avg/max) = 11.72 | 11.72 | 11.72 Mbytes
   Step          Temp          E_pair         E_mol          TotEng         Press     
         1   0              0              0              0              0            
        50   0.016367871    0              0              0.0081839356  -0.0043282093 
       100   0.034742471    0              0              0.017371235   -0.017883171  
       150   0.039681266    0              0              0.019840633    0.010848053  
       200   0.055747461    0              0              0.027873731   -0.0030765775 
       250   0.09487921     0              0              0.047439605   -0.00049026168
       300   0.10920965     0              0              0.054604825   -0.0015186676 
       350   0.12845966     0              0              0.064229832   -0.018062323  
       400   0.10029849     0              0              0.050149247    0.0040569673 
       450   0.091195292    0              0              0.045597646    0.010778915  
       500   0.059685032    0              0              0.029842516   -0.002157834  
       550   0.087256276    0              0              0.043628138   -0.0026041705 
       600   0.078440276    0              0              0.039220138   -0.0098335963 
       650   0.087879927    0              0              0.043939964    0.0075753499 
       700   0.099445195    0              0              0.049722597   -0.0044608158 
       750   0.11277414     0              0              0.05638707    -0.0023688353 
       800   0.1142594      0              0              0.057129698    0.0021534564 
       850   0.1627182      0              0              0.081359102    0.0054988143 
       900   0.16000572     0              0              0.080002858    0.005622486  
       950   0.14662268     0              0              0.07331134     0.022355551  
      1000   0.1588206      0              0              0.079410299    0.0010479349 
      1050   0.19603954     0              0              0.098019768   -0.0018406536 
      1100   0.17824971     0              0              0.089124853    0.0043503468 
      1150   0.16445304     0              0              0.082226519    0.0093865851 
      1200   0.1895809      0              0              0.094790449   -0.0057945116 
      1250   0.12549323     0              0              0.062746615   -0.00174518   
      1300   0.17232414     0              0              0.086162072   -0.014751295  
      1350   0.17487529     0              0              0.087437645   -0.00098955559
      1400   0.17979029     0              0              0.089895144   -0.01496767   
      1450   0.18486319     0              0              0.092431594   -5.4763141e-05
      1500   0.22791068     0              0              0.11395534     0.009236496  
      1550   0.29380796     0              0              0.14690398     0.01020835   
      1600   0.33786121     0              0              0.16893061    -0.0090012065 
      1650   0.30927826     0              0              0.15463913    -0.0094559769 
      1700   0.41034921     0              0              0.2051746      0.0076046595 
      1750   0.46901183     0              0              0.23450591     0.013891443  
      1800   0.4942912      0              0              0.2471456     -0.00018345917
      1850   0.50640371     0              0              0.25320185     0.0086405179 
      1900   0.55901356     0              0              0.27950678     0.0087457038 
      1950   0.61836135     0              0              0.30918068     0.021755269  
      2000   0.67373019     0              0              0.33686509     0.012469077  
      2050   0.67905685     0              0              0.33952843     0.0056148215 
      2100   0.67829626     0              0              0.33914813    -0.011076634  
      2150   0.75160787     0              0              0.37580393    -0.009728399  
      2200   0.66706099     0              0              0.3335305     -0.00050263501
      2250   0.63815785     0              0              0.31907892    -0.022886497  
      2300   0.68264931     0              0              0.34132465    -0.0051611984 
      2350   0.63497705     0              0              0.31748853     0.0097705294 
      2400   0.51897532     0              0              0.25948766     0.022515651  
      2450   0.45255895     0              0              0.22627947    -0.0030826485 
      2500   0.40766146     0              0              0.20383073     0.0061966294 
      2550   0.40761616     0              0              0.20380808     0.0036952781 
      2600   0.41604122     0              0              0.20802061     0.009334177  
      2650   0.42906559     0              0              0.2145328      0.016843506  
      2700   0.48197207     0              0              0.24098604     0.0027595282 
      2750   0.38968989     0              0              0.19484494    -0.018910777  
      2800   0.3774003      0              0              0.18870015    -0.0071589079 
      2850   0.35762281     0              0              0.1788114      0.0075426624 
      2900   0.31729441     0              0              0.15864721     0.019819932  
      2950   0.36511179     0              0              0.1825559      0.013091409  
      3000   0.34673148     0              0              0.17336574    -0.030570268  
      3050   0.36615858     0              0              0.18307929     0.0026424881 
      3100   0.35671763     0              0              0.17835882    -0.02747622   
      3150   0.36506465     0              0              0.18253232     0.020207696  
      3200   0.34278836     0              0              0.17139418    -0.0066151309 
      3250   0.33118444     0              0              0.16559222    -0.0050412111 
      3300   0.36587803     0              0              0.18293902     0.0056073443 
      3350   0.31917445     0              0              0.15958722     0.022141733  
      3400   0.31471117     0              0              0.15735559     0.020850579  
      3450   0.34726322     0              0              0.17363161     0.0037075035 
      3500   0.41542116     0              0              0.20771058    -0.015034592  
      3550   0.36219032     0              0              0.18109516     0.004497633  
      3600   0.45467        0              0              0.227335       0.0074958252 
      3650   0.43735534     0              0              0.21867767    -0.0082778421 
      3700   0.50028975     0              0              0.25014488     0.0017827336 
      3750   0.44007988     0              0              0.22003994    -0.021343588  
      3800   0.48799407     0              0              0.24399704    -0.01208165   
      3850   0.50280697     0              0              0.25140349     0.012521003  
      3900   0.5588585      0              0              0.27942925    -0.01651647   
      3950   0.52565457     0              0              0.26282728    -0.0075302337 
      4000   0.47935217     0              0              0.23967608     0.0046911637 
      4050   0.49396013     0              0              0.24698006     0.020691025  
      4100   0.53304391     0              0              0.26652195     0.011815446  
      4150   0.52505095     0              0              0.26252548     0.017677173  
      4200   0.56183381     0              0              0.28091691     0.019953154  
      4250   0.54245844     0              0              0.27122922    -0.0045406934 
      4300   0.51160809     0              0              0.25580405    -0.015665266  
      4350   0.37851904     0              0              0.18925952    -0.00036295862
      4400   0.51964345     0              0              0.25982172     0.015247069  
      4450   0.55708231     0              0              0.27854116     0.0107262    
      4500   0.57183119     0              0              0.2859156      0.007206544  
      4550   0.56292218     0              0              0.28146109     0.01469243   
      4600   0.58145503     0              0              0.29072751     0.014078598  
      4650   0.64239184     0              0              0.32119592    -0.00052703637
      4700   0.69239875     0              0              0.34619938    -0.00029595169
      4750   0.56937728     0              0              0.28468864     0.016561027  
      4800   0.57477762     0              0              0.28738881    -0.00062777534
      4850   0.61067182     0              0              0.30533591     0.018515158  
      4900   0.6869462      0              0              0.3434731      0.005956475  
      4950   0.71724534     0              0              0.35862267     0.0036342892 
      5000   0.68900483     0              0              0.34450241    -0.0034994638 
      5050   0.81605795     0              0              0.40802898     0.0041445498 
      5100   0.78054268    -0.0065332304   0              0.38373811     0.0032944813 
      5150   0.79103774    -0.01319229     0              0.38232658     0.011749811  
      5200   0.75467684    -0.026943813    0              0.35039461     0.012066878  
      5250   0.63254021    -1.3064712      0             -0.99020113    -0.0078193155 
      5300   0.62555325    -1.3643908      0             -1.0516141     -0.0046700221 
      5350   0.54976784    -1.3173285      0             -1.0424446      0.0041660513 
      5400   0.64178115    -1.3734727      0             -1.0525821     -0.010301576  
      5450   0.59022326    -1.3748758      0             -1.0797642      0.002803405  
      5500   0.47331088    -1.3323125      0             -1.0956571      0.003413556  
      5550   0.57150386    -2.6058912      0             -2.3201393      0.00515128   
      5600   0.37712277    -2.5627074      0             -2.374146       0.010588316  
      5650   0.41726275    -2.5773007      0             -2.3686693     -0.010168809  
      5700   0.51458589    -2.6137128      0             -2.3564199     -0.0055689919 
      5750   0.22110636    -2.4804402      0             -2.3698871      0.00092353309
      5800   0.42008747    -2.6179837      0             -2.4079399     -0.011448897  
      5850   0.39501484    -2.5909462      0             -2.3934388      0.0053170224 
      5900   0.32834492    -2.5583545      0             -2.394182      -0.02249099   
      5950   0.49498985    -2.6141197      0             -2.3666248      0.008343185  
      6000   0.39770333    -2.5437753      0             -2.3449237      0.0019215414 
      6050   0.56957821    -2.5903542      0             -2.3055651     -0.010441365  
      6100   0.51171465    -2.5965039      0             -2.3406466     -0.012635273  
      6150   0.41788756    -2.5602473      0             -2.3513036     -0.0057778497 
      6200   0.58916257    -2.5958815      0             -2.3013002     -0.0016985079 
      6250   0.4912839     -2.5735124      0             -2.3278704     -0.0022950661 
      6300   0.51379321    -2.5796818      0             -2.3227852      0.0069545983 
      6350   0.49857286    -2.5949512      0             -2.3456647      0.0021659104 
      6400   0.59302023    -2.6087702      0             -2.3122601     -0.0083806369 
      6450   0.50186397    -2.5917614      0             -2.3408294     -0.0054511716 
      6500   0.49570397    -2.5884907      0             -2.3406387     -0.0074041952 
      6550   0.59742271    -2.5927796      0             -2.2940682      0.0066117736 
      6600   0.50371438    -2.5772631      0             -2.3254059     -0.0023592371 
      6650   0.52649175    -2.5775224      0             -2.3142765     -0.015667422  
      6700   0.56551529    -2.600561       0             -2.3178034      0.001791599  
      6750   0.47495303    -2.564059       0             -2.3265825     -0.010197249  
      6800   0.51204283    -2.5955011      0             -2.3394797     -0.011213799  
      6850   0.48720186    -2.6076157      0             -2.3640148     -0.0064066073 
      6900   0.42442759    -2.5712297      0             -2.3590159     -0.0020798781 
      6950   0.48376444    -2.601498       0             -2.3596158      0.0063995269 
      7000   0.47880771    -2.6182166      0             -2.3788128     -0.012055776  
      7050   0.48367817    -2.6015275      0             -2.3596884      0.00082274772
      7100   0.47295754    -2.5936846      0             -2.3572058      0.002220066  
      7150   0.57153281    -2.6150158      0             -2.3292494      0.0035080829 
      7200   0.63015401    -2.6120682      0             -2.2969911      0.0020175534 
      7250   0.48401349    -2.6009095      0             -2.3589027      0.014974759  
      7300   0.52383924    -2.6094399      0             -2.3475203      0.0033955024 
      7350   0.58033895    -2.6153661      0             -2.3251966      0.00053790532
      7400   0.5689558     -2.5945674      0             -2.3100895      0.00045379245
      7450   0.5456211     -2.6030227      0             -2.3302122      0.00038979757
      7500   0.54693       -2.6205987      0             -2.3471337      0.0050370324 
      7550   0.48297673    -2.6183456      0             -2.3768572      0.0052285368 
      7600   0.43689976    -2.5992435      0             -2.3807936     -0.016373967  
      7650   0.43098725    -2.612965       0             -2.3974714     -0.0043284975 
      7700   0.4279354     -2.6191009      0             -2.4051332     -0.017770407  
      7750   0.36420628    -2.6101514      0             -2.4280482      0.0043424909 
      7800   0.41905479    -2.6063048      0             -2.3967774     -0.0070566008 
      7850   0.44029077    -2.6159397      0             -2.3957943      0.0023714623 
      7900   0.46992728    -2.6194738      0             -2.3845102     -0.0024163436 
      7950   0.44621897    -2.6152881      0             -2.3921786      0.0099875553 
      8000   0.41113514    -2.6143617      0             -2.4087941     -0.010983448  
      8050   0.4513271     -2.6204796      0             -2.394816       0.0011208275 
      8100   0.46086106    -2.6234461      0             -2.3930156      0.0064830246 
      8150   0.45699939    -2.6227682      0             -2.3942685      0.014100967  
      8200   0.36924709    -2.6145003      0             -2.4298767     -0.0042915993 
      8250   0.28820687    -2.6121826      0             -2.4680792      0.001582037  
      8300   0.24733938    -2.6190506      0             -2.4953809     -0.0040163579 
      8350   0.2265796     -2.6239905      0             -2.5107007     -0.010522404  
      8400   0.19184798    -2.6222069      0             -2.5262829      0.010630552  
      8450   0.12708464    -2.6113577      0             -2.5478154      0.013114545  
      8500   0.14367232    -2.6101204      0             -2.5382843      0.0053227442 
      8550   0.10596314    -2.6209552      0             -2.5679737     -0.0095132223 
      8600   0.096797221   -2.6243372      0             -2.5759386     -0.0050176052 
      8650   0.08455291    -2.6244475      0             -2.582171      -0.016575108  
      8700   0.10250321    -2.6231888      0             -2.5719372      0.011678543  
      8750   0.099731654   -2.6190319      0             -2.5691661      0.0084196811 
      8800   0.062532063   -2.6142383      0             -2.5829722      0.0086681932 
      8850   0.088246934   -2.6178345      0             -2.5737111      0.013334067  
      8900   0.08914156    -2.6221482      0             -2.5775774     -0.0014936635 
      8950   0.09023528    -2.622078       0             -2.5769604     -0.0018255354 
      9000   0.10157141    -2.6143708      0             -2.5635851      0.012100812  
      9050   0.11394688    -2.6129215      0             -2.5559481     -0.00084895842
      9100   0.1373414     -2.6213301      0             -2.5526594      0.015131537  
      9150   0.14429938    -2.6225228      0             -2.5503731      0.0029560742 
      9200   0.1464064     -2.618885       0             -2.5456818     -0.007367053  
      9250   0.11469455    -2.5975224      0             -2.5401751     -0.022307954  
      9300   0.13554164    -2.6054776      0             -2.5377067      0.0081648706 
      9350   0.15919382    -2.622103       0             -2.5425061      0.00075382138
      9400   0.15898252    -2.621574       0             -2.5420827      0.01206854   
      9450   0.15771946    -2.6097644      0             -2.5309046     -0.001912366  
      9500   0.19198425    -2.6022367      0             -2.5062446     -0.0095952998 
      9550   0.23238835    -2.6142634      0             -2.4980692     -0.0022756285 
      9600   0.25452126    -2.6218447      0             -2.4945841      0.0044955937 
      9650   0.28164756    -2.6220348      0             -2.481211       0.017700429  
      9700   0.25530255    -2.6149941      0             -2.4873429     -0.0069233618 
      9750   0.26840017    -2.6124697      0             -2.4782696      0.024039991  
      9800   0.30424975    -2.6204206      0             -2.4682957      0.021084753  
      9850   0.31538217    -2.6238718      0             -2.4661807     -0.014032551  
      9900   0.33801416    -2.6219631      0             -2.452956      -0.01073251   
      9950   0.36184055    -2.6175657      0             -2.4366455     -0.013033155  
     10000   0.47980722    -2.613599       0             -2.3736954     -0.0047417173 
     10050   0.44097557    -2.6163493      0             -2.3958615      0.00089201755
     10100   0.45837551    -2.6221767      0             -2.3929889      0.0071343423 
     10150   0.4185675     -2.6227116      0             -2.4134278     -0.018414599  
     10200   0.43039772    -2.6217268      0             -2.406528       0.00085028212
     10250   0.46861261    -2.6204925      0             -2.3861862      0.0046261063 
     10300   0.44318687    -2.6227846      0             -2.4011911     -0.0033450466 
     10350   0.45335797    -2.6227729      0             -2.3960939      0.0035061658 
     10400   0.3647123     -2.6205912      0             -2.4382351      0.0080841429 
     10450   0.38670106    -2.6133461      0             -2.4199955     -0.0042848581 
     10500   0.37010484    -2.6101986      0             -2.4251461     -0.010694232  
     10550   0.45746979    -2.6201213      0             -2.3913864     -0.012520896  
     10600   0.46946173    -2.6243032      0             -2.3895724     -0.0091082943 
     10650   0.42678625    -2.6219425      0             -2.4085494      0.00057119689
     10700   0.40934645    -2.6075879      0             -2.4029147      0.03270249   
     10750   0.35493837    -2.6113588      0             -2.4338896      0.016250999  
     10800   0.34255511    -2.6221508      0             -2.4508733      0.0085890388 
     10850   0.39588675    -2.6233089      0             -2.4253655      0.00027888704
     10900   0.36152406    -2.6216946      0             -2.4409326      0.0030203817 
     10950   0.42451126    -2.6153073      0             -2.4030516     -0.00022600869
     11000   0.44949217    -2.6165071      0             -2.391761       0.0044081668 
     11050   0.42861672    -2.6217337      0             -2.4074254     -0.014988657  
     11100   0.44140675    -2.6241657      0             -2.4034623      0.016856878  
     11150   0.48297472    -2.6236366      0             -2.3821492     -0.016071897  
     11200   0.53767937    -2.6208521      0             -2.3520124     -0.014194111  
     11250   0.52862139    -2.6167573      0             -2.3524466     -0.019390687  
     11300   0.55859631    -2.6209757      0             -2.3416776     -0.022831591  
     11350   0.53749638    -2.6227915      0             -2.3540434     -0.013051735  
     11400   0.54533838    -2.6205995      0             -2.3479303     -0.020098287  
     11450   0.47859069    -2.6150164      0             -2.375721      -0.0020342938 
     11500   0.54341656    -2.6192765      0             -2.3475682      0.0079481717 
     11550   0.54502897    -2.6233527      0             -2.3508382      0.0016764554 
     11600   0.51586944    -2.6232488      0             -2.3653141     -0.042032079  
     11650   0.45849683    -2.6159522      0             -2.3867038     -0.007807776  
     11700   0.47712319    -2.605271       0             -2.3667094      0.0082704539 
     11750   0.58667893    -2.6155885      0             -2.3222491      0.027205273  
     11800   0.57979069    -2.6237128      0             -2.3338175      0.017853791  
     11850   0.66320018    -2.6219685      0             -2.2903684      0.016567996  
     11900   0.54874431    -2.6007021      0             -2.3263299      0.00084567986
     11950   0.5832818     -2.6125564      0             -2.3209155      0.023734727  
     12000   0.49242305    -2.6238777      0             -2.3776662     -0.006280701  
     12050   0.49514195    -2.6228802      0             -2.3753093     -0.0040092582 
     12100   0.51076561    -2.6115218      0             -2.356139       0.0044358546 
     12150   0.5240802     -2.602508       0             -2.3404679     -0.025043903  
     12200   0.60362663    -2.6211587      0             -2.3193454     -0.025458499  
     12250   0.55032291    -2.6244247      0             -2.3492633      0.018604747  
     12300   0.66768652    -2.6155669      0             -2.2817236     -0.0058304632 
     12350   0.61330679    -2.5748851      0             -2.2682317      0.0066712261 
     12400   0.6524273     -2.6165771      0             -2.2903635     -0.028847954  
     12450   0.66351578    -2.6243357      0             -2.2925778      0.0093922847 
     12500   0.58320054    -2.5943822      0             -2.3027819     -0.0013509372 
     12550   0.53313256    -2.5740867      0             -2.3075204     -0.035051734  
     12600   0.64566611    -2.623044       0             -2.3002109      0.026903045  
     12650   0.59468328    -2.622537       0             -2.3251954     -0.015286972  
     12700   0.59612048    -2.5874502      0             -2.28939       -0.010637413  
     12750   0.65926538    -2.6058748      0             -2.2762421      0.0078731338 
     12800   0.76455743    -2.6243241      0             -2.2420454     -0.013098627  
     12850   0.72486919    -2.6110512      0             -2.2486166      0.0047467498 
     12900   0.62151658    -2.5721763      0             -2.261418       0.018688835  
     12950   0.69649613    -2.6231025      0             -2.2748544      0.010257411  
     13000   0.61505693    -2.6216601      0             -2.3141316      0.0012013384 
     13050   0.42586724    -2.5757076      0             -2.3627739      0.0031677708 
     13100   0.48171999    -2.613668       0             -2.372808      -0.024933289  
     13150   0.41359376    -2.6240589      0             -2.417262      -0.032022964  
     13200   0.3878978     -2.6152274      0             -2.4212785      0.0069403139 
     13250   0.37182649    -2.5904626      0             -2.4045493      0.00012564204
     13300   0.46468501    -2.6171891      0             -2.3848466     -0.01602168   
     13350   0.47359259    -2.6242387      0             -2.3874424     -0.02080583   
     13400   0.46054298    -2.6214152      0             -2.3911437     -0.011861289  
     13450   0.43081441    -2.597984       0             -2.3825768      0.036632982  
     13500   0.37182132    -2.6109076      0             -2.4249969      0.0058751625 
     13550   0.41395722    -2.6238564      0             -2.4168778      0.0030227465 
     13600   0.3506029     -2.6225988      0             -2.4472973     -0.011110326  
     13650   0.34739373    -2.6076033      0             -2.4339065      0.0030225292 
     13700   0.33915627    -2.6023757      0             -2.4327976      0.013228108  
     13750   0.41259223    -2.6196331      0             -2.413337      -0.02883467   
     13800   0.43424597    -2.6243644      0             -2.4072415     -0.0060440399 
     13850   0.41210218    -2.6184558      0             -2.4124047      0.0050486425 
     13900   0.41507736    -2.6080825      0             -2.4005438     -0.017803685  
     13950   0.41493274    -2.6204099      0             -2.4129436     -0.022330303  
     14000   0.39386021    -2.6241372      0             -2.4272071     -0.0013452583 
     14050   0.35112888    -2.6182829      0             -2.4427184     -0.0069687593 
     14100   0.32786229    -2.5956033      0             -2.4316722      0.0085893436 
     14150   0.3495357     -2.6146792      0             -2.4399114     -0.003347232  
     14200   0.34867482    -2.6242686      0             -2.4499312     -0.017447161  
     14250   0.32546417    -2.6210508      0             -2.4583187     -0.0031179517 
     14300   0.33182623    -2.5947383      0             -2.4288252     -0.0046919395 
     14350   0.39414102    -2.6139684      0             -2.4168979     -0.012180306  
     14400   0.42152784    -2.62368        0             -2.4129161      0.012797478  
     14450   0.42855678    -2.6157702      0             -2.4014918      0.0093714997 
     14500   0.40266995    -2.5769009      0             -2.3755659     -0.0013058739 
     14550   0.53402034    -2.6153269      0             -2.3483167     -0.0167673    
     14600   0.4997461     -2.6231572      0             -2.3732842      0.0094550618 
     14650   0.40735249    -2.6076212      0             -2.4039449      0.0084141377 
     14700   0.42727235    -2.6039705      0             -2.3903344     -0.0058727664 
     14750   0.4795584     -2.621975       0             -2.3821958      0.0070579173 
     14800   0.5464692     -2.6197896      0             -2.346555       0.012462516  
     14850   0.5667203     -2.5865682      0             -2.303208       0.012183191  
     14900   0.51868517    -2.6055099      0             -2.3461673      8.3504242e-05
     14950   0.443965      -2.6210912      0             -2.3991087      0.0012108549 
     15000   0.48083739    -2.6155644      0             -2.3751457     -0.008279683  
     15050   0.45528589    -2.6065008      0             -2.3788578     -0.013254549  
     15100   0.48051034    -2.6167186      0             -2.3764635     -0.00045517826
     15150   0.49791172    -2.6217563      0             -2.3728004      0.017208547  
     15200   0.48663974    -2.6106522      0             -2.3673323      0.00751371   
     15250   0.43869567    -2.5944811      0             -2.3751332      0.012847902  
     15300   0.5166116     -2.6186531      0             -2.3603473     -0.024027081  
     15350   0.55172282    -2.6218237      0             -2.3459622      0.020870476  
     15400   0.36200899    -2.5865913      0             -2.4055868     -0.027320899  
     15450   0.43322981    -2.6107861      0             -2.3941712     -0.0081586115 
     15500   0.501676      -2.6239653      0             -2.3731273     -0.0090238186 
     15550   0.45738167    -2.6135044      0             -2.3848136      0.00341119   
     15600   0.36179979    -2.5906848      0             -2.4097849     -0.0013830047 
     15650   0.41527163    -2.6184304      0             -2.4107946     -0.0020011964 
     15700   0.47465414    -2.6242184      0             -2.3868913      0.018052642  
     15750   0.44798858    -2.6119259      0             -2.3879316      0.013684292  
     15800   0.37249399    -2.5925668      0             -2.4063198      0.0025627285 
     15850   0.41047219    -2.6200208      0             -2.4147847      0.0056095429 
     15900   0.44259532    -2.6232064      0             -2.4019087      0.012504954  
     15950   0.41537652    -2.6109362      0             -2.4032479      0.013627132  
     16000   0.40115841    -2.5941656      0             -2.3935864     -0.0061260973 
     16050   0.43954496    -2.6209494      0             -2.401177      -0.0042234976 
     16100   0.49896185    -2.6232595      0             -2.3737786     -0.0042781444 
     16150   0.37254861    -2.594413       0             -2.4081387     -0.019677757  
     16200   0.28566678    -2.6024617      0             -2.4596283     -0.012758539  
     16250   0.35342641    -2.6211991      0             -2.4444859     -0.016783915  
     16300   0.33421311    -2.6159052      0             -2.4487987      0.010003139  
     16350   0.27880851    -2.5937944      0             -2.4543901      0.0095662944 
     16400   0.34711231    -2.6120028      0             -2.4384466     -0.030225782  
     16450   0.35658804    -2.620022       0             -2.441728      -0.0098128513 
     16500   0.31432441    -2.6113158      0             -2.4541536      0.00043007473
     16550   0.24564979    -2.6035175      0             -2.4806926     -0.012000583  
     16600   0.28839802    -2.6209172      0             -2.4767182     -0.0083567294 
     16650   0.26581854    -2.6224664      0             -2.4895571     -0.0087449911 
     16700   0.26933393    -2.6159023      0             -2.4812354      0.01824966   
     16750   0.32595639    -2.6023332      0             -2.439355       0.00082326152
     16800   0.44915315    -2.6118161      0             -2.3872396     -0.025865086  
     16850   0.49150959    -2.6135654      0             -2.3678106      0.015473339  
     16900   0.43898344    -2.5985058      0             -2.3790141      0.0068928693 
     16950   0.45273057    -2.6052328      0             -2.3788675      0.016562729  
     17000   0.45793615    -2.6166297      0             -2.3876617      0.0056158058 
     17050   0.52555338    -2.612561       0             -2.3497843     -0.0014557309 
     17100   0.50433887    -2.5913997      0             -2.3392302      0.0074525239 
     17150   0.55110811    -2.6098682      0             -2.3343141      0.015887237  
     17200   0.57394145    -2.6223441      0             -2.3353734     -0.006962615  
     17250   0.57617924    -2.5904766      0             -2.302387      -0.014527055  
     17300   0.61298151    -2.587869       0             -2.2813782      0.0066304846 
     17350   0.59136098    -2.6225587      0             -2.3268782     -0.01593316   
     17400   0.56568683    -2.6166958      0             -2.3338523      0.010978752  
     17450   0.45731854    -2.5891831      0             -2.3605239     -0.0005389153 
     17500   0.54785021    -2.6086527      0             -2.3347276     -0.01616225   
     17550   0.61405227    -2.6229195      0             -2.3158933     -0.0095070911 
     17600   0.69687336    -2.6183442      0             -2.2699075      0.02574683   
     17650   0.72788918    -2.6026595      0             -2.2387149     -0.0085447612 
     17700   0.79547837    -2.6174836      0             -2.2197444      1.7001103e-05
     17750   0.8190206     -2.6239068      0             -2.2143965     -0.0018045583 
     17800   0.80894792    -2.6191729      0             -2.214699       0.0068664986 
     17850   0.83785613    -2.6071047      0             -2.1881767      0.016413158  
     17900   0.88342879    -2.6208061      0             -2.1790917      0.0023668989 
     17950   0.85589885    -2.6236811      0             -2.1957317     -0.012951121  
     18000   0.87230215    -2.6184716      0             -2.1823206     -0.0067501725 
     18050   0.74485547    -2.613608       0             -2.2411802      0.011612873  
     18100   0.70643308    -2.6220815      0             -2.2688649     -0.016361489  
     18150   0.81451025    -2.622956       0             -2.2157009     -0.0019126268 
     18200   0.90736728    -2.6154506      0             -2.1617669     -0.0056153203 
     18250   0.91130789    -2.6079177      0             -2.1522638     -0.015276905  
     18300   0.83330467    -2.6182473      0             -2.201595      -0.00094888611
     18350   0.88825009    -2.6197281      0             -2.1756031     -0.011758048  
     18400   0.79123044    -2.6012425      0             -2.2056272     -0.0092335074 
     18450   0.8318544     -2.5998044      0             -2.1838772     -0.013964714  
     18500   0.87769537    -2.6201656      0             -2.1813179      0.026305538  
     18550   0.78392233    -2.6110441      0             -2.2190829      0.0092588088 
     18600   0.75447592    -2.5861707      0             -2.2089328      0.01743499   
     18650   0.76116093    -2.6175707      0             -2.2369903      0.0049400054 
     18700   0.79434053    -2.6225064      0             -2.2253361     -0.012569535  
     18750   0.79000955    -2.6120722      0             -2.2170674      0.0057914862 
     18800   0.78275832    -2.6131809      0             -2.2218017     -0.0066672347 
     18850   0.80194438    -2.6192342      0             -2.218262       0.0016746722 
     18900   0.76622242    -2.6130166      0             -2.2299054     -0.020653311  
     18950   0.82706429    -2.6057072      0             -2.192175      -0.011569235  
     19000   0.85860446    -2.6130064      0             -2.1837041     -0.016890136  
     19050   0.85020673    -2.6174252      0             -2.1923218     -0.010809101  
     19100   0.85151545    -2.6100842      0             -2.1843265      0.017429939  
     19150   0.85569261    -2.604497       0             -2.1766507     -0.0044304126 
     19200   0.79804489    -2.6130754      0             -2.2140529      0.0094648976 
     19250   0.69168831    -2.6122481      0             -2.266404      -0.0017392235 
     19300   0.68380272    -2.5934209      0             -2.2515195     -0.0015452397 
     19350   0.91796592    -2.6157977      0             -2.1568147     -0.0026421695 
     19400   0.83763263    -2.6161818      0             -2.1973655     -0.022031736  
     19450   0.77373645    -2.5991953      0             -2.2123271      0.0039307779 
     19500   0.82234746    -2.6151325      0             -2.2039588      0.025504011  
     19550   0.92233658    -2.6195904      0             -2.1584221     -0.0015944893 
     19600   0.92482883    -2.6055186      0             -2.1431042     -0.034883955  
     19650   0.90235128    -2.6043708      0             -2.1531951     -0.04779633   
     19700   0.89772576    -2.6151737      0             -2.1663108      0.00022556529
     19750   1.0495259     -2.6171244      0             -2.0923615     -0.025828757  
     19800   1.0556014     -2.6086026      0             -2.0808019      0.011780158  
     19850   1.1135945     -2.6064435      0             -2.0496463      0.0010057223 
     19900   1.1620798     -2.6152225      0             -2.0341827      0.030376289  
     19950   1.134532      -2.6130079      0             -2.0457419      0.021553324  
     20000   1.0378902     -2.5916125      0             -2.0726674     -0.0088455253 
     20050   1.0715157     -2.6147363      0             -2.0789784      0.0097923913 
     20100   0.95877827    -2.6235549      0             -2.1441658      0.02337909   
     20150   0.85695408    -2.619231       0             -2.190754      -0.0087812218 
     20200   0.74254774    -2.6154141      0             -2.2441403      0.012794947  
     20250   0.7591147     -2.6194788      0             -2.2399214     -0.020750943  
     20300   0.78227159    -2.6221324      0             -2.2309966      0.023953033  
     20350   0.69299888    -2.6195796      0             -2.2730802      0.013735892  
     20400   0.68582658    -2.6082596      0             -2.2653463     -0.00015172002
     20450   0.77084237    -2.614156       0             -2.2287349     -0.010065939  
     20500   0.74649821    -2.6226724      0             -2.2494233     -0.0027273889 
     20550   0.70487731    -2.6207324      0             -2.2682937     -0.013893788  
     20600   0.72028704    -2.6146831      0             -2.2545395     -0.0056310441 
     20650   0.68406906    -2.6133777      0             -2.2713431     -0.010097661  
     20700   0.83267377    -2.6172075      0             -2.2008706     -0.011192139  
     20750   0.81400076    -2.6220546      0             -2.2150542      0.014222825  
     20800   0.8232095     -2.6237963      0             -2.2121915      0.0036494348 
     20850   0.84847211    -2.6226041      0             -2.198368      -0.0032143488 
     20900   0.83065845    -2.619551       0             -2.2042217     -0.0078739376 
     20950   0.82503346    -2.6222396      0             -2.2097229     -0.015491218  
     21000   0.79776034    -2.6243561      0             -2.225476      -0.0028025655 
     21050   0.74337678    -2.6239335      0             -2.2522451      0.027343504  
     21100   0.7694507     -2.6208304      0             -2.2361051      0.0080480853 
     21150   0.79387308    -2.6170654      0             -2.2201289      0.009842994  
     21200   0.75892885    -2.6205093      0             -2.2410449      0.025362971  
     21250   0.81060411    -2.6242291      0             -2.2189271      0.00039457457
     21300   0.7066662     -2.6242092      0             -2.2708761     -0.020912496  
     21350   0.7207458     -2.6164035      0             -2.2560306     -0.010935447  
     21400   0.72076672    -2.6120613      0             -2.2516779      0.025602467  
     21450   0.74179019    -2.6197139      0             -2.2488188     -0.0032721428 
     21500   0.78879767    -2.6232393      0             -2.2288404      0.035280142  
     21550   0.78746963    -2.6235499      0             -2.2298151      0.015648276  
     21600   0.79452679    -2.6230482      0             -2.2257848      0.028757772  
     21650   0.86837973    -2.6235751      0             -2.1893853     -0.0039692489 
     21700   0.77450438    -2.6242732      0             -2.237021      -0.023386125  
     21750   0.86949922    -2.6244655      0             -2.1897159     -0.0021042845 
     21800   0.77508657    -2.6240615      0             -2.2365182      0.016481782  
     21850   0.75893234    -2.6230836      0             -2.2436174     -0.01912755   
     21900   0.7497177     -2.6229569      0             -2.2480981     -0.015609351  
     21950   0.82236304    -2.6231724      0             -2.2119909      0.025299375  
     22000   0.84305003    -2.6238557      0             -2.2023306     -0.019376047  
     22050   0.84963754    -2.6230891      0             -2.1982703     -0.010483098  
     22100   0.87584373    -2.6195625      0             -2.1816406      0.052710119  
     22150   0.94975809    -2.6210548      0             -2.1461758      0.01550293   
     22200   1.1405083     -2.6235416      0             -2.0532874     -0.0059179313 
     22250   1.1638767     -2.6234248      0             -2.0414865      0.0052782354 
     22300   1.1726592     -2.6147656      0             -2.028436       0.0043292377 
     22350   1.3155934     -2.6161948      0             -1.9583981     -0.02767207   
     22400   1.2750463     -2.6237813      0             -1.9862582     -0.012281305  
     22450   1.4102453     -2.6209993      0             -1.9158767     -0.0053317496 
     22500   1.1495545     -2.5991057      0             -2.0243284     -0.00053271126
     22550   1.2076658     -2.6148431      0             -2.0110101     -0.0068768345 
     22600   1.1695803     -2.6228991      0             -2.038109      -0.012021985  
     22650   1.0918864     -2.6131062      0             -2.067163       0.01504265   
     22700   1.1514773     -2.5877757      0             -2.012037      -0.0426483    
     22750   1.1887285     -2.6143792      0             -2.020015       0.010644001  
     22800   1.0258582     -2.6213007      0             -2.1083716      0.028211505  
     22850   0.93251019    -2.6133323      0             -2.1470772      0.019062231  
     22900   0.92197269    -2.6077772      0             -2.1467909      0.00319704   
     22950   0.89700088    -2.6136489      0             -2.1651485      0.035158201  
     23000   1.0303167     -2.6147218      0             -2.0995634      0.0039715246 
     23050   1.0310319     -2.6065605      0             -2.0910446      0.0029856036 
     23100   1.0630934     -2.6130037      0             -2.081457      -0.040728128  
     23150   1.0381292     -2.6163905      0             -2.0973259      0.019782987  
     23200   1.0701023     -2.6112337      0             -2.0761825     -0.0087647512 
     23250   1.0919884     -2.6066558      0             -2.0606617      0.028842282  
     23300   1.2265542     -2.6116352      0             -1.9983581     -0.003803216  
     23350   1.2513715     -2.6171292      0             -1.9914434     -0.017976607  
     23400   1.1948746     -2.6024588      0             -2.0050215     -0.038768823  
     23450   1.1339833     -2.5934158      0             -2.0264242      0.014839503  
     23500   1.1252646     -2.6171902      0             -2.0545579      0.025826666  
     23550   1.0427393     -2.6074909      0             -2.0861213     -0.017669801  
     23600   1.0180412     -2.5860375      0             -2.0770169     -0.00011932641
     23650   1.0651148     -2.6117124      0             -2.079155      -0.0098056573 
     23700   1.0266771     -2.6125489      0             -2.0992103     -0.0043534911 
     23750   0.98765169    -2.599254       0             -2.1054282     -0.016487784  
     23800   1.0428917     -2.6051838      0             -2.083738      -0.0082122971 
     23850   1.1291177     -2.6145316      0             -2.0499727      0.016068322  
     23900   1.0974396     -2.5975008      0             -2.0487809      0.0012725571 
     23950   0.983653      -2.5986263      0             -2.1067998      0.0012484864 
     24000   1.0823829     -2.6103514      0             -2.0691599      0.00993231   
     24050   1.0161244     -2.6002867      0             -2.0922245      0.029569817  
     24100   1.0644389     -2.6036733      0             -2.0714538     -0.0038151089 
     24150   1.2468983     -2.6182646      0             -1.9948155      0.023211852  
     24200   1.2076266     -2.6139448      0             -2.0101315      0.014300542  
     24250   1.0079581     -2.5819593      0             -2.0779803     -0.018399842  
     24300   1.0274201     -2.6108549      0             -2.0971449      0.020638681  
     24350   1.1748075     -2.6217749      0             -2.0343712     -0.0016018995 
     24400   1.1921032     -2.6132188      0             -2.0171673     -0.0041337554 
     24450   1.1145545     -2.5960605      0             -2.0387832      0.0028806023 
     24500   1.2514674     -2.6147519      0             -1.9890181      0.00028543037
     24550   1.2532679     -2.6208746      0             -1.9942406      0.0073009415 
     24600   1.3368563     -2.6184554      0             -1.9500273      0.00368554   
     24650   1.4026304     -2.6101903      0             -1.908875       0.01079602   
     24700   1.3021586     -2.6112104      0             -1.9601311     -0.0057904643 
     24750   1.3615232     -2.6147306      0             -1.933969       0.020039296  
     24800   1.3931946     -2.6123653      0             -1.915768       0.010864159  
     24850   1.4173445     -2.6170669      0             -1.9083946     -0.0027356121 
     24900   1.5184689     -2.615398       0             -1.8561635     -0.010238489  
     24950   1.5732013     -2.6129221      0             -1.8263215      0.032228796  
     25000   1.6757182     -2.6157506      0             -1.7778915      0.012408739  
     25050   1.4613185     -2.6043152      0             -1.873656      -0.0043046526 
     25100   1.5464896     -2.6081223      0             -1.8348775     -0.0084611636 
     25150   1.4267719     -2.6176313      0             -1.9042454      0.0071859286 
     25200   1.3374384     -2.5838713      0             -1.9151521     -0.011913719  
     25250   1.2635556     -2.599575       0             -1.9677972      0.016371738  
     25300   1.1351036     -2.6173678      0             -2.049816      -0.0039302312 
     25350   1.2034622     -2.6120872      0             -2.0103561     -0.003523187  
     25400   1.1651651     -2.5917068      0             -2.0091243      0.0096058371 
     25450   1.1826039     -2.5955875      0             -2.0042855     -0.0033367043 
     25500   1.1257976     -2.6178426      0             -2.0549438     -0.0039804973 
     25550   1.0556808     -2.6189985      0             -2.0911581     -0.0026864422 
     25600   1.092501      -2.6054257      0             -2.0591751     -0.0073258407 
     25650   1.1198768     -2.6042353      0             -2.0442969      0.015865061  
     25700   1.0354108     -2.6162687      0             -2.0985633     -0.0041265284 
     25750   0.93382561    -2.612755       0             -2.1458422     -0.017902944  
     25800   0.83559628    -2.5858511      0             -2.1680529      0.016250767  
     25850   0.71484359    -2.6080194      0             -2.2505976      0.0060745021 
     25900   0.6404903     -2.6154648      0             -2.2952196      0.0091152637 
     25950   0.64714643    -2.60046        0             -2.2768868      0.020955016  
     26000   0.62583773    -2.603118       0             -2.2901991     -0.013920091  
     26050   0.64783441    -2.6157318      0             -2.2918146     -0.0024151273 
     26100   0.6371521     -2.6059794      0             -2.2874034      0.0054764058 
     26150   0.59475152    -2.591215       0             -2.2938393      0.0071844863 
     26200   0.66440367    -2.608788       0             -2.2765862     -0.010633754  
     26250   0.69044132    -2.611037       0             -2.2658163     -0.012081094  
     26300   0.63324006    -2.610722       0             -2.294102      -0.010109228  
     26350   0.64145081    -2.613957       0             -2.2932316     -0.0021556124 
     26400   0.63468576    -2.608713       0             -2.2913701     -0.0061733819 
     26450   0.66995404    -2.6030146      0             -2.2680376     -0.011341889  
     26500   0.72477165    -2.6080261      0             -2.2456403     -0.010903493  
     26550   0.64418881    -2.5789393      0             -2.2568449     -0.013937292  
     26600   0.75169674    -2.6053194      0             -2.229471       0.0028551185 
     26650   0.7257691     -2.6155601      0             -2.2526755      0.013085484  
     26700   0.63483014    -2.5991451      0             -2.28173        0.014598281  
     26750   0.68096509    -2.6095431      0             -2.2690605     -0.014220509  
     26800   0.70872125    -2.6195946      0             -2.2652339      0.017161415  
     26850   0.66146636    -2.5882184      0             -2.2574852     -0.022026549  
     26900   0.63138257    -2.6002281      0             -2.2845368     -0.012987979  
     26950   0.73881668    -2.6206347      0             -2.2512264     -0.0010474843 
     27000   0.51407653    -2.5771915      0             -2.3201533     -0.033518258  
     27050   0.58522357    -2.5984652      0             -2.3058534     -0.003149311  
     27100   0.47010112    -2.6205447      0             -2.3854941     -0.015652114  
     27150   0.47335076    -2.6006557      0             -2.3639803     -0.0041231834 
     27200   0.47355324    -2.5988651      0             -2.3620885      0.0064348459 
     27250   0.57146058    -2.6215486      0             -2.3358183     -0.020626832  
     27300   0.49890903    -2.61855        0             -2.3690955      0.018918404  
     27350   0.47988009    -2.5943263      0             -2.3543862      0.016170523  
     27400   0.46185319    -2.617827       0             -2.3869004     -0.00031989661
     27450   0.45713759    -2.6242292      0             -2.3956604      0.032992651  
     27500   0.46211443    -2.6073603      0             -2.3763031      0.003197794  
     27550   0.32703464    -2.5699817      0             -2.4064644     -0.014881226  
     27600   0.44544775    -2.6230748      0             -2.400351       0.016484081  
     27650   0.44038874    -2.6194826      0             -2.3992882     -0.021635343  
     27700   0.27575885    -2.5473297      0             -2.4094503     -0.0094862132 
     27750   0.39930808    -2.6188288      0             -2.4191748     -0.0037211648 
     27800   0.40772287    -2.6238595      0             -2.4199981      0.0043767596 
     27850   0.4452417     -2.60512        0             -2.3824992      0.042233846  
     27900   0.35196615    -2.5928696      0             -2.4168865     -0.0092338366 
     27950   0.36101617    -2.6219605      0             -2.4414524     -0.0037263606 
     28000   0.36689744    -2.6215958      0             -2.4381471     -0.0024064219 
     28050   0.30693841    -2.5834934      0             -2.4300242      0.042102764  
     28100   0.37198968    -2.5999089      0             -2.4139141      0.0096420743 
     28150   0.43970129    -2.623567       0             -2.4037164     -0.012451048  
     28200   0.50770971    -2.6126676      0             -2.3588128      0.0306722    
     28250   0.38752792    -2.5588088      0             -2.3650448      0.0097491162 
     28300   0.45628492    -2.6192712      0             -2.3911287     -0.027474542  
     28350   0.50352416    -2.617465       0             -2.3657029     -0.031029334  
     28400   0.37734311    -2.56321        0             -2.3745385      0.0086029386 
     28450   0.43495489    -2.6121431      0             -2.3946657      0.0096040476 
     28500   0.42606548    -2.622714       0             -2.4096812     -0.012275613  
     28550   0.41036863    -2.6005793      0             -2.3953949     -0.02735341   
     28600   0.35283293    -2.5998984      0             -2.423482       0.049303429  
     28650   0.43640078    -2.6213492      0             -2.4031488      0.011832762  
     28700   0.46696081    -2.6228646      0             -2.3893842     -0.016037927  
     28750   0.37801477    -2.6096275      0             -2.4206202      0.010957711  
     28800   0.46856463    -2.6056067      0             -2.3713244     -0.0014536219 
     28850   0.59194696    -2.6233278      0             -2.3273543     -0.003224835  
     28900   0.64779571    -2.6231502      0             -2.2992523     -0.032471594  
     28950   0.61421216    -2.5916504      0             -2.2845443      0.01319078   
     29000   0.55508       -2.5976951      0             -2.3201551     -0.0068487669 
     29050   0.52815347    -2.6234347      0             -2.3593579     -0.027794449  
     29100   0.6188387     -2.6197285      0             -2.3103092     -0.01566428   
     29150   0.58556894    -2.591251       0             -2.2984665      0.010030025  
     29200   0.78334279    -2.6160827      0             -2.2244113      0.061902944  
     29250   0.77738931    -2.6236702      0             -2.2349756     -0.024610077  
     29300   0.8347032     -2.6157018      0             -2.1983502      0.012364793  
     29350   0.75958871    -2.5892626      0             -2.2094683      0.0030174649 
     29400   0.83469078    -2.6196014      0             -2.202256       0.0056390208 
     29450   0.9058792     -2.6234583      0             -2.1705187     -0.004003616  
     29500   0.79265847    -2.6054454      0             -2.2091162      0.034330168  
     29550   0.77484135    -2.5945627      0             -2.2071421     -0.01339125   
     29600   0.88288088    -2.6208943      0             -2.1794538     -0.009018028  
     29650   0.88670441    -2.6223734      0             -2.1790212     -0.0082525851 
     29700   0.88308377    -2.5920862      0             -2.1505443     -0.012666798  
     29750   0.84705643    -2.594056       0             -2.1705277      0.015278768  
     29800   0.9608292     -2.6235322      0             -2.1431176      0.017422475  
     29850   0.94969627    -2.6217197      0             -2.1468715      0.031802137  
     29900   0.88305188    -2.5872043      0             -2.1456783     -0.023915389  
     29950   0.9667446     -2.6090988      0             -2.1257265     -0.012276359  
     30000   0.96980242    -2.6243733      0             -2.1394721     -0.0026738413 
     30050   0.97521535    -2.6187072      0             -2.1310996      0.0057308505 
     30100   0.93522167    -2.5907609      0             -2.12315       -0.0040610658 
     30150   1.0128029     -2.6110945      0             -2.104693      -0.0078606866 
     30200   1.0834167     -2.6238656      0             -2.0821573     -0.0056265581 
     30250   1.2079356     -2.6199712      0             -2.0160034      0.01353183   
     30300   1.1742632     -2.5908224      0             -2.0036908      0.0002766664 
     30350   1.2189381     -2.6112272      0             -2.0017581      0.010568278  
     30400   1.1331863     -2.6231981      0             -2.056605      -0.0089956689 
     30450   1.0167069     -2.6223795      0             -2.114026      -0.0050900101 
     30500   0.93874866    -2.6097127      0             -2.1403384     -0.0084980669 
     30550   0.9625942     -2.6087908      0             -2.1274937     -0.0059341734 
     30600   0.96913669    -2.6228686      0             -2.1383003      0.0001182776 
     30650   0.94756693    -2.6239689      0             -2.1501854     -0.0059217216 
     30700   0.87095016    -2.6187928      0             -2.1833177      0.001134507  
     30750   0.88297326    -2.6109473      0             -2.1694606      0.0029889197 
     30800   0.91245065    -2.6174251      0             -2.1611998      0.0014751385 
     30850   0.7790816     -2.6233756      0             -2.2338348     -0.003435512  
     30900   0.80271749    -2.6244304      0             -2.2230717      0.0006670386 
     30950   0.84643226    -2.6204872      0             -2.197271      -0.0081477102 
     31000   0.85365975    -2.6130261      0             -2.1861962      0.00080248661
     31050   0.84390808    -2.6194323      0             -2.1974783     -0.0044390554 
     31100   0.95675206    -2.6225874      0             -2.1442114      0.0017470311 
     31150   0.84485654    -2.6200694      0             -2.1976411      0.0034205385 
     31200   0.78205882    -2.6150495      0             -2.2240201     -0.0034804678 
     31250   0.96508334    -2.6192624      0             -2.1367207     -0.0018998587 
     31300   1.0230287     -2.6191729      0             -2.1076585     -0.0029927794 
     31350   0.98280993    -2.6054697      0             -2.1140648     -0.0019269291 
     31400   1.0022742     -2.6119501      0             -2.110813      -0.010149266  
     31450   1.0290994     -2.6215814      0             -2.1070317      0.0035658228 
     31500   1.0541637     -2.6111888      0             -2.084107      -0.0034916739 
     31550   1.0219021     -2.5896208      0             -2.0786698      0.011766845  
     31600   0.98097736    -2.6077133      0             -2.1172246      0.00037227484
     31650   0.99772617    -2.6199664      0             -2.1211033      0.014962127  
     31700   0.85508283    -2.5961973      0             -2.1686559      0.014869628  
     31750   0.81527318    -2.5956378      0             -2.1880012      0.0035479524 
     31800   0.7654518     -2.6207751      0             -2.2380492      0.0022062073 
     31850   0.86920315    -2.6212999      0             -2.1866983     -0.0046151551 
     31900   0.79463284    -2.6052416      0             -2.2079252      0.0084395918 
     31950   0.87507401    -2.6070297      0             -2.1694927      0.012215343  
     32000   0.86260723    -2.6169776      0             -2.185674       0.011177748  
     32050   0.95345397    -2.6101969      0             -2.1334699     -0.0009367348 
     32100   0.92424469    -2.5814632      0             -2.1193409     -0.0060474451 
     32150   0.90358909    -2.6057797      0             -2.1539851     -0.0030594637 
     32200   0.82287285    -2.6037132      0             -2.1922768      0.0079269168 
     32250   0.864703      -2.5804556      0             -2.1481041      0.0026681725 
     32300   0.94617725    -2.5941849      0             -2.1210963      0.00038277287
     32350   0.97358649    -2.6095608      0             -2.1227675      0.0003894971 
     32400   0.87740538    -2.5868545      0             -2.1481518      0.018594051  
     32450   0.80771952    -2.5915933      0             -2.1877336     -0.014118311  
     32500   0.74701612    -2.6136432      0             -2.2401351      0.017859825  
     32550   0.78990086    -2.5667003      0             -2.1717499      0.0093656324 
     32600   0.99939613    -2.5846096      0             -2.0849116     -0.015717044  
     32650   0.97607731    -2.5804405      0             -2.0924019     -0.019597697  
     32700   0.97190091    -2.571277       0             -2.0853266      0.0044766375 
     32750   0.79163194    -2.5846731      0             -2.1888571     -0.018667804  
     32800   0.78705977    -2.5646228      0             -2.1710929      0.040167484  
     32850   0.92801577    -2.6016977      0             -2.1376898     -0.0025941422 
     32900   0.81376739    -2.6004083      0             -2.1935246     -0.010014556  
     32950   0.89624823    -2.554416       0             -2.1062918     -0.011925146  
     33000   1.0616292     -2.603017       0             -2.0722024     -0.0049491036 
     33050   0.8689885     -2.5669577      0             -2.1324634     -0.002471284  
     33100   0.88240872    -2.5747301      0             -2.1335257      0.036031448  
     33150   0.98661565    -2.6089091      0             -2.1156013     -0.014046307  
     33200   0.79824514    -2.5495417      0             -2.1504191     -0.0078324048 
     33250   0.7711255     -2.5920859      0             -2.2065232      0.018655945  
     33300   0.71262636    -2.6119828      0             -2.2556696      0.0076301909 
     33350   0.58808183    -2.554816       0             -2.2607751      0.0080513559 
     33400   0.66583543    -2.5993973      0             -2.2664796     -0.012992919  
     33450   0.81879191    -2.6208325      0             -2.2114366      0.0097233199 
     33500   0.66455763    -2.5857237      0             -2.2534449      0.020523408  
     33550   0.67027234    -2.5869318      0             -2.2517956     -0.0082946406 
     33600   0.82909897    -2.6201771      0             -2.2056277     -0.036431554  
     33650   0.82995206    -2.6119932      0             -2.1970172      0.0052780947 
     33700   0.77176643    -2.5779802      0             -2.192097      -0.00078805507
     33750   0.82259308    -2.6082094      0             -2.1969129     -0.019665725  
     33800   0.78460606    -2.6217058      0             -2.2294028     -0.0049759133 
     33850   0.80990956    -2.6136948      0             -2.20874       -0.017255524  
     33900   0.74604109    -2.5950168      0             -2.2219963     -0.00047254426
     33950   0.79967702    -2.6124134      0             -2.2125749      0.0031870995 
     34000   0.75457076    -2.6215971      0             -2.2443117      0.0034360649 
     34050   0.74998883    -2.6077168      0             -2.2327224      0.017867368  
     34100   0.69948397    -2.5919871      0             -2.2422451      0.012802969  
     34150   0.7797603     -2.6193939      0             -2.2295138     -0.0045821409 
     34200   0.76051737    -2.6225919      0             -2.2423332     -0.011010451  
     34250   0.75194961    -2.5868575      0             -2.2108827      0.022388274  
     34300   0.70252882    -2.5959951      0             -2.2447306     -0.007175881  
     34350   0.76162034    -2.6194099      0             -2.2385997      0.0045529602 
     34400   0.64187378    -2.5993604      0             -2.2784235     -0.0067095342 
     34450   0.56157554    -2.575521       0             -2.2947333     -0.0074119864 
     34500   0.59698733    -2.6156567      0             -2.3171631     -0.012945745  
     34550   0.5697231     -2.6210015      0             -2.3361399     -0.0037124877 
     34600   0.49609256    -2.6024517      0             -2.3544054     -0.0032815302 
     34650   0.57713034    -2.5989231      0             -2.310358      -0.0048485679 
     34700   0.63375078    -2.6184778      0             -2.3016024      0.011031761  
     34750   0.6776699     -2.6213009      0             -2.2824659      0.014871086  
     34800   0.61335934    -2.6170305      0             -2.3103508     -0.0036430217 
     34850   0.61602553    -2.6095345      0             -2.3015217     -0.00735207   
     34900   0.53556167    -2.6155487      0             -2.3477679     -0.0080739856 
     34950   0.65257231    -2.6217109      0             -2.2954248     -0.012341207  
     35000   0.68520047    -2.6136467      0             -2.2710465      0.0050125392 
     35050   0.66800695    -2.584738       0             -2.2507345      0.0059227744 
     35100   0.56089496    -2.6027932      0             -2.3223457      0.02625993   
     35150   0.59351375    -2.6207199      0             -2.323963      -0.0024029474 
     35200   0.61867335    -2.6137578      0             -2.3044212      0.0016692498 
     35250   0.66279479    -2.5772096      0             -2.2458122      0.023692715  
     35300   0.78017554    -2.6084307      0             -2.218343       0.019326563  
     35350   0.83424677    -2.6178873      0             -2.2007639      0.0005983073 
     35400   0.65144989    -2.5727064      0             -2.2469815     -0.019343534  
     35450   0.83307955    -2.6001207      0             -2.1835809     -0.01369486   
     35500   0.80958751    -2.6138013      0             -2.2090076     -0.016278009  
     35550   0.82139909    -2.5967056      0             -2.186006      -0.017224836  
     35600   0.83875411    -2.6006671      0             -2.1812901     -0.019081427  
     35650   0.92270268    -2.619222       0             -2.1578706     -0.0028099149 
     35700   0.94690344    -2.6116606      0             -2.1382088      0.034173699  
     35750   0.90191532    -2.5817791      0             -2.1308214      0.0014847654 
     35800   0.95331644    -2.6123477      0             -2.1356895      0.0067554032 
     35850   1.0197461     -2.6155499      0             -2.1056769      0.014991784  
     35900   0.96016834    -2.5913504      0             -2.1112662     -0.0021744788 
     35950   1.0254333     -2.6032169      0             -2.0905003     -0.019471823  
     36000   1.0048337     -2.6188012      0             -2.1163843      0.0012140567 
     36050   1.0193543     -2.6156344      0             -2.1059573     -0.030871554  
     36100   1.0083757     -2.5997945      0             -2.0956066      0.014502865  
     36150   1.231265      -2.5807724      0             -1.9651399     -0.023587737  
     36200   1.3662308     -2.613857       0             -1.9307416     -0.0079089016 
     36250   1.2912603     -2.5996585      0             -1.9540284     -0.02020443   
     36300   1.1072531     -2.5776163      0             -2.0239897      0.012351753  
     36350   1.2567223     -2.6157675      0             -1.9874063     -0.010799592  
     36400   1.3561855     -2.5999657      0             -1.921873      -0.03073774   
     36450   1.1846921     -2.5606461      0             -1.9683001      0.014581386  
     36500   1.4430357     -2.6166914      0             -1.8951735     -0.0075718169 
     36550   1.437792      -2.6155457      0             -1.8966497      0.024206093  
     36600   1.3104541     -2.5843297      0             -1.9291026      0.024068841  
     36650   1.2595752     -2.6094832      0             -1.9796956     -0.018894861  
     36700   1.1679562     -2.6183408      0             -2.0343627     -0.022139426  
     36750   1.2170837     -2.6082019      0             -1.9996601     -0.0082229664 
     36800   1.1814345     -2.5980064      0             -2.0072891     -0.0010657631 
     36850   1.3261924     -2.6207737      0             -1.9576774      0.013696483  
     36900   1.1236162     -2.6239957      0             -2.0621875     -0.026217652  
     36950   1.0114924     -2.6112553      0             -2.1055091      0.0042552745 
     37000   0.89477141    -2.5941686      0             -2.1467829     -0.036587023  
     37050   0.98288537    -2.616328       0             -2.1248853     -0.0019544453 
     37100   1.0081454     -2.6243453      0             -2.1202726     -0.022469992  
     37150   1.0462779     -2.6218855      0             -2.0987466     -0.008523441  
     37200   1.0313118     -2.599546       0             -2.0838901      0.012399415  
     37250   1.0424874     -2.6028365      0             -2.0815928     -0.0070205956 
     37300   1.1746122     -2.6227864      0             -2.0354803      0.0079726279 
     37350   1.0977403     -2.6231912      0             -2.074321      -0.0052300976 
     37400   1.0265138     -2.6014761      0             -2.0882192      0.0079391167 
     37450   1.0184089     -2.6040524      0             -2.094848      -0.0027130943 
     37500   1.086758      -2.6237803      0             -2.0804013      0.0029013802 
     37550   0.93659362    -2.6226269      0             -2.1543301     -0.009804181  
     37600   0.86227261    -2.6041543      0             -2.173018       0.0014931742 
     37650   0.98337464    -2.6044055      0             -2.1127182      0.007606287  
     37700   0.97122497    -2.6231626      0             -2.1375501     -0.0089241759 
     37750   0.89521177    -2.6213033      0             -2.1736974     -0.0085122818 
     37800   0.7743597     -2.6005695      0             -2.2133896      0.0036217748 
     37850   0.73740245    -2.6024349      0             -2.2337337      0.013260784  
     37900   0.60660756    -2.6190128      0             -2.315709      -0.0015437104 
     37950   0.67302035    -2.6226614      0             -2.2861512      0.0020925422 
     38000   0.75832273    -2.6202081      0             -2.2410467      0.0025844362 
     38050   0.77782976    -2.6080267      0             -2.2191118     -0.002201716  
     38100   0.8034718     -2.6071231      0             -2.2053872     -0.0085777524 
     38150   0.6787375     -2.6209825      0             -2.2816137      0.01544472   
     38200   0.68931694    -2.6232718      0             -2.2786134      0.00019499757
     38250   0.7049805     -2.6130237      0             -2.2605335      0.00089325799
     38300   0.61206737    -2.6019319      0             -2.2958982      0.006185777  
     38350   0.65354364    -2.6172045      0             -2.2904326      0.021043875  
     38400   0.72460263    -2.6240439      0             -2.2617426     -0.018209255  
     38450   0.73380172    -2.6238072      0             -2.2569064      0.015561288  
     38500   0.73790563    -2.6062268      0             -2.237274       0.009892327  
     38550   0.64749979    -2.5881665      0             -2.2644166      0.019119728  
     38600   0.72939554    -2.6208082      0             -2.2561104     -0.0052991329 
     38650   0.73679041    -2.6236119      0             -2.2552167     -0.011353046  
     38700   0.66142265    -2.5982531      0             -2.2675418      0.013238355  
     38750   0.66877809    -2.5942443      0             -2.2598552      0.017644208  
     38800   0.70732629    -2.6221957      0             -2.2685325      0.010221771  
     38850   0.61696415    -2.6211803      0             -2.3126982      0.018153139  
     38900   0.54839276    -2.5905372      0             -2.3163408     -0.01924894   
     38950   0.51919551    -2.595259       0             -2.3356613      0.0033248945 
     39000   0.59079982    -2.6217526      0             -2.3263527     -0.020032486  
     39050   0.61176926    -2.6200872      0             -2.3142026      0.010570668  
     39100   0.5507901     -2.5654385      0             -2.2900435     -0.00032416023
     39150   0.57166725    -2.6099657      0             -2.3241321      0.0026662221 
     39200   0.56685892    -2.6221235      0             -2.338694       0.0065268162 
     39250   0.5218793     -2.6048575      0             -2.3439178      0.010729036  
     39300   0.47123025    -2.5889083      0             -2.3532932     -0.021185563  
     39350   0.57119063    -2.6140781      0             -2.3284827      0.012217138  
     39400   0.61308885    -2.6173372      0             -2.3107928     -0.012660799  
     39450   0.54509751    -2.5981489      0             -2.3256002     -0.0055978812 
     39500   0.55355981    -2.6022207      0             -2.3254408     -0.012874205  
     39550   0.58413923    -2.6214443      0             -2.3293747     -0.0022798258 
     39600   0.60585088    -2.6123189      0             -2.3093934      0.013469371  
     39650   0.54940517    -2.5773529      0             -2.3026503     -0.0060980217 
     39700   0.61200491    -2.6117927      0             -2.3057902      0.016604622  
     39750   0.69015558    -2.6226882      0             -2.2776104      0.01239371   
     39800   0.62515034    -2.5972846      0             -2.2847094     -0.017447617  
     39850   0.55581611    -2.5606275      0             -2.2827195      0.019681514  
     39900   0.7121892     -2.619031       0             -2.2629364      0.018643826  
     39950   0.72148869    -2.6203579      0             -2.2596136     -0.020760419  
     40000   0.62391514    -2.5637272      0             -2.2517696     -0.027970406  
     40050   0.74123084    -2.5957317      0             -2.2251163     -0.0087014296 
     40100   0.64080593    -2.6188332      0             -2.2984302      0.011869708  
     40150   0.74498097    -2.6111934      0             -2.2387029      0.006551294  
     40200   0.64108481    -2.5872036      0             -2.2666612     -0.008137162  
     40250   0.70076749    -2.6104579      0             -2.2600742      0.0032094047 
     40300   0.79787301    -2.6178193      0             -2.2188828      0.013104758  
     40350   0.81243327    -2.603361       0             -2.1971444     -0.0042519242 
     40400   0.80108317    -2.6028097      0             -2.2022681      0.017144307  
     40450   0.8417325     -2.6177342      0             -2.196868      -0.0077372989 
     40500   0.67510967    -2.6194476      0             -2.2818928     -0.026362663  
     40550   0.64501981    -2.6172162      0             -2.2947063      0.030506833  
     40600   0.68842287    -2.6157021      0             -2.2714906     -0.028556967  
     40650   0.85510812    -2.6168437      0             -2.1892897      0.0057978068 
     40700   0.76126607    -2.6054709      0             -2.2248378     -0.01959323   
     40750   0.65326446    -2.6019776      0             -2.2753453     -0.0056419491 
     40800   0.66203898    -2.6154557      0             -2.2844362     -0.022878849  
     40850   0.67288795    -2.6119419      0             -2.2754979     -0.028759735  
     40900   0.66715233    -2.5928762      0             -2.2593         0.022555094  
     40950   0.70502057    -2.6048004      0             -2.2522902     -0.0075356915 
     41000   0.77524506    -2.6127885      0             -2.225166       0.021291156  
     41050   0.71498124    -2.5893494      0             -2.2318588      0.022261552  
     41100   0.69907298    -2.5968473      0             -2.2473108     -0.0034071258 
     41150   0.80515413    -2.6160515      0             -2.2134745     -0.011394661  
     41200   0.75057787    -2.6045167      0             -2.2292278      0.015109548  
     41250   0.67783738    -2.5997525      0             -2.2608338     -0.011676169  
     41300   0.74222916    -2.6170432      0             -2.2459286     -0.020741856  
     41350   0.68231438    -2.6044678      0             -2.2633106      0.014066529  
     41400   0.60505769    -2.5866727      0             -2.2841439     -0.0087835149 
     41450   0.62552597    -2.6108556      0             -2.2980926      0.024439609  
     41500   0.59906155    -2.6039607      0             -2.3044299      0.0073530158 
     41550   0.56848025    -2.5967995      0             -2.3125593     -0.014043612  
     41600   0.57009298    -2.6149572      0             -2.3299107      0.011635361  
     41650   0.68482475    -2.6177329      0             -2.2753205     -0.015362748  
     41700   0.80726753    -2.5878197      0             -2.1841859     -0.0098050916 
     41750   0.70927719    -2.5748714      0             -2.2202328     -0.011895696  
     41800   0.80112675    -2.6186717      0             -2.2181083     -0.014910064  
     41850   0.67119392    -2.6071109      0             -2.2715139     -0.004805202  
     41900   0.60933712    -2.5848591      0             -2.2801905     -0.010715326  
     41950   0.61261361    -2.6069524      0             -2.3006456      0.0063774543 
     42000   0.64875637    -2.619734       0             -2.2953558     -0.019252344  
     42050   0.69104406    -2.6102365      0             -2.2647145      0.0027019819 
     42100   0.63190389    -2.5974116      0             -2.2814596     -0.0016049327 
     42150   0.72407964    -2.6162401      0             -2.2542002      0.0012362245 
     42200   0.77540885    -2.6152355      0             -2.2275311      0.014815184  
     42250   0.76398066    -2.5763485      0             -2.1943581     -0.0030460195 
     42300   0.84690865    -2.6043018      0             -2.1808474     -0.013070928  
     42350   0.86460708    -2.619916       0             -2.1876124     -0.0089609025 
     42400   0.76628012    -2.5978016      0             -2.2146615     -0.0073935157 
     42450   0.82195092    -2.5882212      0             -2.1772458     -0.0044763572 
     42500   0.79969971    -2.6157515      0             -2.2159017     -0.010006082  
     42550   0.82451136    -2.6103675      0             -2.1981118     -0.0032886641 
     42600   0.72336774    -2.5915968      0             -2.2299129     -0.011082515  
     42650   0.7122866     -2.6063628      0             -2.2502195      0.010362533  
     42700   0.68904814    -2.6110371      0             -2.266513      -0.0043270012 
     42750   0.68120973    -2.5875635      0             -2.2469586     -0.019461514  
     42800   0.88985812    -2.5969993      0             -2.1520703     -0.028682055  
     42850   0.79831476    -2.6071664      0             -2.2080091     -0.011352114  
     42900   0.77730851    -2.5685437      0             -2.1798894      0.031919455  
     42950   0.98520865    -2.5950302      0             -2.1024259     -0.0082676761 
     43000   0.98382164    -2.6223963      0             -2.1304855      0.0088905376 
     43050   1.014132      -2.5781207      0             -2.0710547      0.022963314  
     43100   0.93335818    -2.5810689      0             -2.1143898     -0.0070939844 
     43150   0.93455903    -2.6206839      0             -2.1534044     -0.0041939868 
     43200   0.93108998    -2.5906201      0             -2.1250751     -0.0059389986 
     43250   0.87061936    -2.5712366      0             -2.1359269      0.0063491436 
     43300   0.98397257    -2.6174832      0             -2.1254969     -0.0025183344 
     43350   0.97239772    -2.6027397      0             -2.1165409     -0.013084726  
     43400   0.96121157    -2.5749923      0             -2.0943865      0.020783989  
     43450   1.0269888     -2.6207205      0             -2.1072261     -0.021398573  
     43500   1.1207932     -2.6215696      0             -2.061173      -0.039313304  
     43550   1.0191149     -2.5908651      0             -2.0813076     -0.021238639  
     43600   1.075007      -2.6053513      0             -2.0678478      0.036302359  
     43650   1.1922975     -2.623005       0             -2.0268562     -0.0077397376 
     43700   1.1289113     -2.617972       0             -2.0535163     -0.016579269  
     43750   0.96644303    -2.5905103      0             -2.1072888     -0.024297544  
     43800   0.99508457    -2.6159961      0             -2.1184538     -0.028681612  
     43850   1.0179499     -2.6237082      0             -2.1147332      0.024637278  
     43900   0.97929783    -2.6135105      0             -2.1238616     -0.027844194  
     43950   0.98616077    -2.5969201      0             -2.1038397      0.029324593  
     44000   0.9581688     -2.6174189      0             -2.1383345      0.0064809847 
     44050   0.87543327    -2.6236244      0             -2.1859077     -0.0075893331 
     44100   0.84614326    -2.6226588      0             -2.1995872      0.0032888201 
     44150   0.85259554    -2.6134326      0             -2.1871349      0.023392871  
     44200   0.78033806    -2.6081026      0             -2.2179335     -0.0050448738 
     44250   0.85601026    -2.619474       0             -2.1914689      0.0084263009 
     44300   0.88354278    -2.6234659      0             -2.1816946     -0.011676052  
     44350   0.91476731    -2.6161141      0             -2.1587305      0.0018884355 
     44400   0.87200919    -2.5924841      0             -2.1564795     -0.010327808  
     44450   0.88940451    -2.6184063      0             -2.173704       0.043170234  
     44500   0.8256592     -2.6242467      0             -2.2114171     -0.033573327  
     44550   0.69132649    -2.6143606      0             -2.2686973      0.016665643  
     44600   0.65916973    -2.5777373      0             -2.2481524      0.054236279  
     44650   0.72249984    -2.6171989      0             -2.2559489      0.028679542  
     44700   0.74890761    -2.6225471      0             -2.2480933     -0.024825475  
     44750   0.59740134    -2.5939183      0             -2.2952176     -0.042304739  
     44800   0.55801409    -2.6012146      0             -2.3222075      0.035502271  
     44850   0.64372147    -2.6230257      0             -2.301165      -0.0099231804 
     44900   0.62877539    -2.61981        0             -2.3054223     -0.010761443  
     44950   0.63231283    -2.5987406      0             -2.2825842     -0.0054106876 
     45000   0.67376144    -2.6151511      0             -2.2782704      0.024683846  
     45050   0.68166159    -2.6230742      0             -2.2822434     -0.0050225701 
     45100   0.67082718    -2.6094706      0             -2.274057       0.015714345  
     45150   0.64768624    -2.5906947      0             -2.2668516     -0.019302759  
     45200   0.75959831    -2.6199836      0             -2.2401844     -0.017394734  
     45250   0.78885137    -2.6177708      0             -2.2233451      0.012020664  
     45300   0.58420812    -2.5966845      0             -2.3045804      0.010138614  
     45350   0.54532281    -2.6133577      0             -2.3406963      0.0026109532 
     45400   0.61114986    -2.6241466      0             -2.3185717      0.0054367453 
     45450   0.62412865    -2.6020609      0             -2.2899966     -0.016394982  
     45500   0.54270419    -2.5683436      0             -2.2969915      0.053180904  
     45550   0.64116641    -2.6212805      0             -2.3006973     -0.0067889076 
     45600   0.67832924    -2.6226032      0             -2.2834386     -0.027495144  
     45650   0.54822882    -2.5894784      0             -2.315364       0.04162886   
     45700   0.64155976    -2.6067383      0             -2.2859584     -0.038803328  
     45750   0.74274778    -2.6232357      0             -2.2518619     -0.0037979513 
     45800   0.76584212    -2.6057104      0             -2.2227893      0.0045304871 
     45850   0.69184587    -2.5746844      0             -2.2287615      0.029215834  
     45900   0.75066592    -2.6233916      0             -2.2480586     -0.00016840246
     45950   0.75738596    -2.6194087      0             -2.2407158     -0.0069299716 
     46000   0.53854003    -2.5600387      0             -2.2907687      0.07473991   
     46050   0.61467232    -2.617459       0             -2.3101229      0.042104764  
     46100   0.64525233    -2.6237803      0             -2.3011542     -0.013978881  
     46150   0.52007046    -2.5828826      0             -2.3228474      0.031183032  
     46200   0.50331981    -2.5941311      0             -2.3424712      0.02303537   
     46250   0.5695046     -2.6235375      0             -2.3387852     -0.017531952  
     46300   0.60325791    -2.6182253      0             -2.3165964      0.034324691  
     46350   0.49495329    -2.5737265      0             -2.3262498      0.042908873  
     46400   0.61400989    -2.6149043      0             -2.3078994      0.0303761    
     46450   0.5691089     -2.624161       0             -2.3396066      0.0040132115 
     46500   0.67168242    -2.6130441      0             -2.2772029      0.030143557  
     46550   0.53974632    -2.6010483      0             -2.3311751      0.016510893  
     46600   0.70205736    -2.6220364      0             -2.2710078      0.014154724  
     46650   0.61713394    -2.6243517      0             -2.3157847     -0.011213285  
     46700   0.57544672    -2.6153405      0             -2.3276171      0.0090840239 
     46750   0.53598643    -2.6040072      0             -2.336014      -0.0019095658 
     46800   0.64678259    -2.6195342      0             -2.2961429      0.026998716  
     46850   0.68643763    -2.6231109      0             -2.279892       0.015716057  
     46900   0.73522464    -2.6090023      0             -2.24139        0.019778667  
     46950   0.77513147    -2.5863898      0             -2.198824       0.0064659951 
     47000   0.87631781    -2.6164283      0             -2.1782694     -0.010355249  
     47050   0.85830891    -2.621287       0             -2.1921326     -0.0009304066 
     47100   0.79844799    -2.6102524      0             -2.2110284      0.0027880326 
     47150   0.78490259    -2.6107163      0             -2.218265       0.022405537  
     47200   0.72151269    -2.621123       0             -2.2603667      0.0024384291 
     47250   0.75885535    -2.6171759      0             -2.2377482     -0.011073136  
     47300   0.66666871    -2.5961705      0             -2.2628362     -0.014911358  
     47350   0.70976705    -2.6149583      0             -2.2600747      0.027054684  
     47400   0.75373189    -2.6201199      0             -2.2432539      0.0030072939 
     47450   0.67552152    -2.601802       0             -2.2640412     -0.010543015  
     47500   0.70901645    -2.6067401      0             -2.2522319      0.016953076  
     47550   0.69557687    -2.621899       0             -2.2741105     -0.026730592  
     47600   0.68147124    -2.6211195      0             -2.2803839     -0.0045290786 
     47650   0.71620933    -2.6051141      0             -2.2470094      0.010606414  
     47700   0.7371355     -2.6117153      0             -2.2431475     -0.001180006  
     47750   0.82747631    -2.620913       0             -2.2071748      0.00063613377
     47800   0.76795233    -2.6175286      0             -2.2335524      0.018696707  
     47850   0.71815967    -2.6128393      0             -2.2537594      0.018224377  
     47900   0.73944578    -2.6116463      0             -2.2419234      0.0081409902 
     47950   0.78011022    -2.619346       0             -2.2292909      0.0023706104 
     48000   0.93401202    -2.622437       0             -2.155431       0.0034006612 
     48050   0.92349905    -2.6121795      0             -2.15043       -0.02020861   
     48100   0.92681586    -2.5959148      0             -2.1325069      0.011317996  
     48150   1.0243877     -2.6142859      0             -2.1020921     -0.038483367  
     48200   1.0437473     -2.6231237      0             -2.10125        0.020012753  
     48250   1.051539      -2.6198754      0             -2.0941059     -0.010148044  
     48300   1.1975571     -2.5977739      0             -1.9989953     -0.022820197  
     48350   1.2301988     -2.6109538      0             -1.9958544     -0.019960459  
     48400   1.3382476     -2.6240569      0             -1.9549331      0.031158074  
     48450   1.3487526     -2.6156686      0             -1.9412923      0.016957467  
     48500   1.2423339     -2.5844588      0             -1.9632918     -0.0047128322 
     48550   1.34901       -2.6204604      0             -1.9459554      0.01232926   
     48600   1.2575236     -2.6240983      0             -1.9953365      0.0019855523 
     48650   1.2063367     -2.6038023      0             -2.000634      -0.011107635  
     48700   1.1740228     -2.5940803      0             -2.0070689      0.010784346  
     48750   1.3348213     -2.6234194      0             -1.9560087      0.0058118451 
     48800   1.2606627     -2.6231828      0             -1.9928514     -0.047289095  
     48850   1.2613134     -2.6031372      0             -1.9724804      0.011105982  
     48900   1.1180498     -2.6042126      0             -2.0451877     -0.018065543  
     48950   1.0920711     -2.6222876      0             -2.0762521     -0.0083000787 
     49000   1.1262395     -2.6239686      0             -2.0608488     -0.0029211858 
     49050   1.1852732     -2.6047181      0             -2.0120815      0.010870103  
     49100   1.0971006     -2.6032653      0             -2.054715      -0.012508719  
     49150   1.2024499     -2.622577       0             -2.021352      -0.00064380269
     49200   1.2094024     -2.621932       0             -2.0172308      0.0047927853 
     49250   1.2216765     -2.5981442      0             -1.9873059      0.00214535   
     49300   1.2407586     -2.601323       0             -1.9809437      0.0050409236 
     49350   1.3861842     -2.6232086      0             -1.9301165      0.0047640016 
     49400   1.4678153     -2.6045695      0             -1.8706618     -0.0024887396 
     49450   1.3049621     -2.5807743      0             -1.9282932     -0.010450561  
     49500   1.5459234     -2.6218944      0             -1.8489327      0.00049726649
     49550   1.6225957     -2.5981571      0             -1.7868593      0.01147945   
     49600   1.6116147     -2.5678451      0             -1.7620378      0.0038847652 
     49650   1.713389      -2.6224085      0             -1.765714       0.011153667  
     49700   1.5532734     -2.6051504      0             -1.8285137      0.0021253076 
     49750   1.5376219     -2.5867211      0             -1.8179102     -0.00024791745
     49800   1.452557      -2.6207363      0             -1.8944578     -0.00019253763
     49850   1.292784      -2.6222629      0             -1.9758709      0.0039274114 
     49900   1.1956632     -2.6006075      0             -2.002776      -0.0038698672 
     49950   1.2231985     -2.5966443      0             -1.9850451     -0.0023373845 
     50000   1.2431876     -2.6219316      0             -2.0003378      0.005825853  
     50050   1.2549123     -2.6218519      0             -1.9943958      0.0055710104 
     50100   1.2704835     -2.6073417      0             -1.9721         0.0049478232 
     50150   1.3248173     -2.6072192      0             -1.9448106     -0.00010104127
     50200   1.2502378     -2.6177274      0             -1.9926085     -0.0025509488 
     50250   1.1363177     -2.5992905      0             -2.0311317      0.0010321871 
     50300   1.1209784     -2.6095695      0             -2.0490803     -0.01000656   
     50350   1.1810842     -2.6234388      0             -2.0328967      0.0048522831 
     50400   1.1184587     -2.6106214      0             -2.051392      -0.0058011016 
     50450   0.95499       -2.6009886      0             -2.1234936     -0.0056629298 
     50500   1.0435557     -2.6225776      0             -2.1007998      0.0056660161 
     50550   1.1186151     -2.6211035      0             -2.0617959      0.0097834509 
     50600   1.0597524     -2.5746106      0             -2.0447344      0.01229441   
     50650   1.2477986     -2.6155404      0             -1.9916411      0.0014576197 
     50700   1.284366      -2.6221699      0             -1.9799869      0.0068840949 
     50750   1.1429346     -2.5827305      0             -2.0112632      0.016749258  
     50800   1.2349768     -2.6112722      0             -1.9937838      0.0030766717 
     50850   1.2690209     -2.6232367      0             -1.9887262     -0.00052391797
     50900   1.2576489     -2.5924787      0             -1.9636542     -0.0029679226 
     50950   1.2978124     -2.6054058      0             -1.9564997     -0.011259634  
     51000   1.280318      -2.6223565      0             -1.9821975     -0.014666745  
     51050   1.1917221     -2.6126638      0             -2.0168028      0.00066728241
     51100   1.229889      -2.5890343      0             -1.9740898     -0.007885721  
     51150   1.1462312     -2.6180907      0             -2.0449751      0.012773242  
     51200   1.1024154     -2.621416       0             -2.0702083      0.0057724664 
     51250   1.1007932     -2.6071743      0             -2.0567777      0.016560401  
     51300   1.0678512     -2.5944782      0             -2.0605526      0.0097837508 
     51350   1.1840994     -2.6177954      0             -2.0257457     -0.0089772764 
     51400   1.2835345     -2.6211614      0             -1.9793942      0.0074628949 
     51450   1.3357625     -2.616278       0             -1.9483967     -0.011002819  
     51500   1.3992645     -2.6129979      0             -1.9133657      0.0044549194 
     51550   1.4037662     -2.6179566      0             -1.9160735     -0.0085705624 
     51600   1.447255      -2.6222752      0             -1.8986477      0.023719807  
     51650   1.5766699     -2.6234485      0             -1.8351136      0.0017238437 
     51700   1.6753856     -2.6227477      0             -1.7850549      0.0011896949 
     51750   1.5746182     -2.6196585      0             -1.8323494      0.0014866737 
     51800   1.6856475     -2.6136293      0             -1.7708056     -0.014138332  
     51850   1.6780929     -2.6195198      0             -1.7804733      0.0094584962 
     51900   1.7433203     -2.6242994      0             -1.7526392      0.028029768  
     51950   1.6539899     -2.6233014      0             -1.7963064      0.020791511  
     52000   1.5315402     -2.6196846      0             -1.8539145      0.011492677  
     52050   1.4189954     -2.6172155      0             -1.9077178     -0.038147068  
     52100   1.3925361     -2.6204695      0             -1.9242014     -0.011809353  
     52150   1.4547134     -2.623187       0             -1.8958303      0.017905479  
     52200   1.4829024     -2.6190506      0             -1.8775994      0.017041903  
     52250   1.5339991     -2.6122467      0             -1.8452472      0.055719111  
     52300   1.6732674     -2.6164756      0             -1.7798419      0.0017656237 
     52350   1.7608453     -2.6195625      0             -1.7391399      0.034015169  
     52400   1.5860601     -2.6214487      0             -1.8284187     -0.024107584  
     52450   1.6321266     -2.6205758      0             -1.8045125      0.012851102  
     52500   1.5637791     -2.6174925      0             -1.835603       0.03572305   
     52550   1.5374305     -2.6143963      0             -1.8456811     -0.021430025  
     52600   1.5798272     -2.6173931      0             -1.8274795      0.024020412  
     52650   1.6109164     -2.6212233      0             -1.8157651      0.027897259  
     52700   1.5111341     -2.617033       0             -1.8614659     -0.021623626  
     52750   1.4070128     -2.6047583      0             -1.9012519      0.017634453  
     52800   1.4913124     -2.6145984      0             -1.8689422      0.012218346  
     52850   1.5407102     -2.622215       0             -1.8518599     -0.0070962257 
     52900   1.5338602     -2.6198323      0             -1.8529021     -5.5149421e-05
     52950   1.373621      -2.5881346      0             -1.9013241     -0.0020729146 
     53000   1.4042915     -2.6056184      0             -1.9034727     -0.012558245  
     53050   1.3207064     -2.6226655      0             -1.9623123      0.0031396314 
     53100   1.4300938     -2.6220597      0             -1.9070128      0.0056386939 
     53150   1.2619365     -2.6034124      0             -1.9724442     -0.00078179413
     53200   1.0971349     -2.5954683      0             -2.0469008      0.0022779135 
     53250   1.124599      -2.6184115      0             -2.056112       0.0035953864 
     53300   1.0720531     -2.6174187      0             -2.0813922     -0.0073453333 
     53350   0.96568264    -2.6003638      0             -2.1175225      0.0028491612 
     53400   0.98197187    -2.6079715      0             -2.1169855     -0.013793832  
     53450   0.8510939     -2.6223243      0             -2.1967774     -0.012105689  
     53500   0.79212581    -2.6194348      0             -2.2233719     -0.0058845114 
     53550   0.73961998    -2.5742894      0             -2.2044794      0.0078992247 
     53600   0.77047045    -2.6072881      0             -2.2220529     -0.0058902624 
     53650   0.89513558    -2.6234431      0             -2.1758753      0.02342869   
     53700   0.91298429    -2.6199974      0             -2.1635053     -0.0042388381 
     53750   0.77447429    -2.5954537      0             -2.2082166     -0.0068488691 
     53800   0.84102496    -2.6081861      0             -2.1876736      0.012335374  
     53850   0.73456836    -2.6211128      0             -2.2538286      0.015930158  
     53900   0.77233642    -2.5992416      0             -2.2130734      0.009122333  
     53950   0.76640565    -2.591175       0             -2.2079721      0.0030885768 
     54000   0.88364056    -2.6192881      0             -2.1774679      0.0026354255 
     54050   0.88217452    -2.6074458      0             -2.1663585      0.0065179696 
     54100   0.75282199    -2.5840749      0             -2.2076639      0.015031066  
     54150   0.86392409    -2.6108952      0             -2.1789332      0.033959648  
     54200   0.92828397    -2.6184522      0             -2.1543102     -0.00176658   
     54250   0.936559      -2.6041392      0             -2.1358597     -0.0026161257 
     54300   0.85789211    -2.5996698      0             -2.1707238     -0.0010502837 
     54350   0.87463135    -2.6108925      0             -2.1735769     -0.033763271  
     54400   0.92488502    -2.6087199      0             -2.1462774     -0.045588957  
     54450   0.95109031    -2.6113631      0             -2.1358179     -0.02247022   
     54500   0.90028219    -2.6079559      0             -2.1578148      9.447083e-05 
     54550   1.0574263     -2.6037841      0             -2.0750709      0.0045081759 
     54600   0.90929678    -2.6115194      0             -2.156871       0.021870456  
     54650   1.0449512     -2.6172678      0             -2.0947922     -0.013473188  
     54700   1.0169128     -2.6159984      0             -2.107542       0.031450249  
     54750   1.0139573     -2.6102771      0             -2.1032985     -0.0068578099 
     54800   1.0355203     -2.6130767      0             -2.0953166     -0.016122055  
     54850   1.0987756     -2.6135564      0             -2.0641686     -0.031501504  
     54900   1.0107968     -2.5929508      0             -2.0875524      0.022708575  
     54950   0.97327694    -2.6115439      0             -2.1249055     -0.0055349056 
     55000   0.97441622    -2.6223679      0             -2.1351598     -0.016123841  
     55050   0.97246026    -2.6148312      0             -2.1286011     -0.021431459  
     55100   0.90830486    -2.5843594      0             -2.130207       0.010003311  
     55150   0.99150307    -2.6128703      0             -2.1171188      8.2843075e-05
     55200   0.9948934     -2.6226312      0             -2.1251845      0.019419865  
     55250   0.91512001    -2.5860405      0             -2.1284804     -0.0032556723 
     55300   1.0554414     -2.5941035      0             -2.0663828     -0.0053972675 
     55350   1.1196839     -2.6180869      0             -2.0582449     -0.014041069  
     55400   1.0275032     -2.5855271      0             -2.0717754     -0.027619454  
     55450   1.0569303     -2.5894661      0             -2.0610009      0.0096898112 
     55500   1.1850099     -2.609111       0             -2.016606      -0.0033053301 
     55550   1.1421185     -2.5716494      0             -2.0005901     -0.004290357  
     55600   1.1800284     -2.5931972      0             -2.003183       0.026921011  
     55650   1.1720951     -2.6045159      0             -2.0184683     -0.00061977824
     55700   1.2496843     -2.5917142      0             -1.966872       0.00072107763
     55750   1.2145556     -2.5914358      0             -1.984158      -0.0043181655 
     55800   1.0908051     -2.599575       0             -2.0541724     -0.0060994838 
     55850   1.0354415     -2.5975291      0             -2.0798083     -0.0051512794 
     55900   0.97962946    -2.5923098      0             -2.102495      -0.0028218044 
     55950   1.0064021     -2.6008631      0             -2.097662      -0.001191513  
     56000   1.0401109     -2.6094931      0             -2.0894376     -0.013625973  
     56050   0.93391318    -2.6091574      0             -2.1422008     -0.0048878456 
     56100   0.89603537    -2.6106147      0             -2.162597      -0.0018511491 
     56150   0.89593405    -2.5985809      0             -2.1506139      0.0037725162 
     56200   1.0008514     -2.6102982      0             -2.1098725     -0.001149948  
     56250   0.96381089    -2.6119488      0             -2.1300433     -0.0020529014 
     56300   1.0040309     -2.6070628      0             -2.1050474      0.024558596  
     56350   1.0243485     -2.6114758      0             -2.0993016      0.012994412  
     56400   0.97453296    -2.6162301      0             -2.1289637      0.0025775109 
     56450   0.95242424    -2.6151897      0             -2.1389775      0.025516837  
     56500   0.93799554    -2.6207055      0             -2.1517077     -0.03146185   
     56550   0.86259676    -2.622731       0             -2.1914326     -0.022312286  
     56600   0.86028001    -2.6158724      0             -2.1857324     -0.015528299  
     56650   0.81075286    -2.5801705      0             -2.174794       0.0072068707 
     56700   0.9122948     -2.61134        0             -2.1551926      0.02588892   
     56750   0.95089714    -2.6200844      0             -2.1446358     -0.01901504   
     56800   0.77653592    -2.5813613      0             -2.1930934     -0.010232056  
     56850   0.82052895    -2.5946345      0             -2.18437       -0.0057247898 
     56900   0.85436447    -2.6152718      0             -2.1880896      0.0022069167 
     56950   0.84534996    -2.5832603      0             -2.1605853      0.021520155  
     57000   0.73334508    -2.5846132      0             -2.2179407     -0.024151602  
     57050   0.77736593    -2.6187439      0             -2.2300609      0.0062877126 
     57100   0.76139635    -2.607159       0             -2.2264608      0.0094629123 
     57150   0.70820579    -2.5934435      0             -2.2393406     -0.011625086  
     57200   0.78423733    -2.6152669      0             -2.2231482      0.012015178  
     57250   0.71286234    -2.6186251      0             -2.262194      -0.0046241845 
     57300   0.60663111    -2.600065       0             -2.2967494      0.0040241757 
     57350   0.62600024    -2.6059358      0             -2.2929357     -0.0060168502 
     57400   0.65419197    -2.6191009      0             -2.2920049      0.0025409418 
     57450   0.75833607    -2.6149227      0             -2.2357546     -0.017688653  
     57500   0.67615177    -2.5920864      0             -2.2540105      0.0041828174 
     57550   0.71319783    -2.6118748      0             -2.2552759     -0.0075232237 
     57600   0.7730791     -2.6210453      0             -2.2345058      0.0054991303 
     57650   0.81501099    -2.602636       0             -2.1951305     -0.016313142  
     57700   0.71598598    -2.5918513      0             -2.2338583     -1.578067e-07 
     57750   0.78100387    -2.6195717      0             -2.2290698     -0.017636846  
     57800   0.74013972    -2.6221072      0             -2.2520373      0.0066238596 
     57850   0.71857857    -2.590725       0             -2.2314357     -0.016493049  
     57900   0.79083472    -2.5999327      0             -2.2045154      0.0059534181 
     57950   0.8081649     -2.6229913      0             -2.2189088     -0.0057557891 
     58000   0.78123545    -2.6019862      0             -2.2113685      0.010529506  
     58050   0.85806403    -2.5769054      0             -2.1478734      0.021654901  
     58100   0.94553918    -2.619827       0             -2.1470574      0.0096004763 
     58150   0.92403496    -2.6169543      0             -2.1549368      0.0021283919 
     58200   0.77702851    -2.5676574      0             -2.1791431      0.012526048  
     58250   0.78600786    -2.6117349      0             -2.218731       0.0018530594 
     58300   0.8628642     -2.6229877      0             -2.1915556      0.0049042685 
     58350   0.79425966    -2.5931941      0             -2.1960642      0.012289206  
     58400   0.71136406    -2.5799681      0             -2.2242861     -0.0011931646 
     58450   0.73060355    -2.6212628      0             -2.255961       0.0045640326 
     58500   0.70387467    -2.6218398      0             -2.2699025     -0.0050107579 
     58550   0.58008223    -2.5959857      0             -2.3059446      0.0095639238 
     58600   0.55595404    -2.5951709      0             -2.3171939      0.001163206  
     58650   0.71795655    -2.6209142      0             -2.2619359      0.0089081705 
     58700   0.6690934     -2.6197621      0             -2.2852154      0.0040815244 
     58750   0.6357581     -2.5984928      0             -2.2806137     -0.0055962688 
     58800   0.66905097    -2.6103758      0             -2.2758503     -0.013360337  
     58850   0.64939777    -2.622035       0             -2.2973361     -0.010027194  
     58900   0.64635734    -2.6130676      0             -2.2898889     -0.020389974  
     58950   0.68692638    -2.5902273      0             -2.2467641      0.011128327  
     59000   0.68365471    -2.6171452      0             -2.2753178     -0.0049501578 
     59050   0.69608377    -2.6231935      0             -2.2751517     -0.0063191766 
     59100   0.6253209     -2.6169361      0             -2.3042756      0.0050547683 
     59150   0.55282767    -2.6042352      0             -2.3278214     -0.0011217113 
     59200   0.63292348    -2.6153473      0             -2.2988856     -0.0072015769 
     59250   0.6938026     -2.6168281      0             -2.2699268      0.0085819701 
     59300   0.67634455    -2.5990943      0             -2.260922       0.016364422  
     59350   0.71170468    -2.6046127      0             -2.2487604      0.0028095265 
     59400   0.80063081    -2.6226048      0             -2.2222894      0.0077751872 
     59450   0.74650677    -2.6068093      0             -2.2335559      0.007459352  
     59500   0.6653527     -2.572221       0             -2.2395447     -0.0041241941 
     59550   0.70770184    -2.6173892      0             -2.2635382      0.032757697  
     59600   0.64712388    -2.6182949      0             -2.2947329     -0.0046967083 
     59650   0.49268848    -2.57333        0             -2.3269858      0.013756924  
     59700   0.56897465    -2.6132894      0             -2.328802       0.00010924808
     59750   0.62229357    -2.6191628      0             -2.308016       0.02048399   
     59800   0.51784938    -2.5683515      0             -2.3094268      0.0055750126 
     59850   0.54156177    -2.5957796      0             -2.3249987      0.036565059  
     59900   0.6114302     -2.6220794      0             -2.3163643     -0.00038303659
     59950   0.63572875    -2.5928075      0             -2.2749431     -0.0047147438 
     60000   0.55350742    -2.5600549      0             -2.2833012     -0.01648083   
     60050   0.70757038    -2.6218701      0             -2.268085       0.0085637336 
     60100   0.77241151    -2.6199221      0             -2.2337163     -0.019267892  
     60150   0.78650639    -2.5744148      0             -2.1811616      0.0076981163 
     60200   0.98823196    -2.6033525      0             -2.1092365     -0.0089852677 
     60250   1.1214146     -2.6189431      0             -2.0582358     -0.00048148342
     60300   1.1107045     -2.5956012      0             -2.040249       0.01520609   
     60350   1.0854206     -2.5988581      0             -2.0561478     -0.0081001382 
     60400   1.150982      -2.608869       0             -2.033378       0.014473384  
     60450   1.1997611     -2.6052888      0             -2.0054082     -0.010639481  
     60500   1.0887755     -2.6094468      0             -2.065059      -0.010321957  
     60550   1.1640403     -2.6175365      0             -2.0355164      0.0025104211 
     60600   1.2554678     -2.6071132      0             -1.9793793      0.022186541  
     60650   1.1425071     -2.5866847      0             -2.0154312     -0.0054174188 
     60700   1.2726622     -2.6135856      0             -1.9772545      0.022947539  
     60750   1.3287859     -2.6181338      0             -1.9537408     -0.016756134  
     60800   1.2616817     -2.5930188      0             -1.9621779     -0.032831562  
     60850   1.2413942     -2.5963607      0             -1.9756636      0.021278787  
     60900   1.1632        -2.6111562      0             -2.0295562     -0.025870309  
     60950   1.0925575     -2.6076323      0             -2.0613535      0.0072599422 
     61000   1.1101879     -2.6091719      0             -2.054078      -0.0028034358 
     61050   1.0836221     -2.6118441      0             -2.070033      -0.028698641  
     61100   1.1074311     -2.6042378      0             -2.0505223     -0.017121717  
     61150   1.0415843     -2.5970203      0             -2.0762282     -0.0039333458 
     61200   1.1156949     -2.6043175      0             -2.04647        0.02103932   
     61250   1.0425765     -2.5936355      0             -2.0723473      0.0019452338 
     61300   0.99407012    -2.6016514      0             -2.1046164      0.024182728  
     61350   1.0604104     -2.5959203      0             -2.0657151     -0.010476593  
     61400   1.0786278     -2.5821861      0             -2.0428722     -0.022361345  
     61450   1.0237592     -2.6073913      0             -2.0955117     -0.026889645  
     61500   1.0419004     -2.6092964      0             -2.0883463      0.044246998  
     61550   1.0082497     -2.5652544      0             -2.0611295      0.013081078  
     61600   0.9747722     -2.6051472      0             -2.1177611     -0.016860301  
     61650   0.88137785    -2.6194227      0             -2.1787338     -0.01692037   
     61700   0.91740586    -2.576267       0             -2.1175641      0.015973188  
     61750   0.8898741     -2.5846277      0             -2.1396907     -0.029751698  
     61800   0.98551939    -2.617211       0             -2.1244513      0.00074796863
     61850   0.96031653    -2.6086978      0             -2.1285396     -0.0053335107 
     61900   0.86118905    -2.5729928      0             -2.1423983     -0.026059632  
     61950   0.93214172    -2.61547        0             -2.1493991      0.0043694707 
     62000   0.84656255    -2.6077959      0             -2.1845146     -0.01265647   
     62050   0.69641418    -2.5697044      0             -2.2214973      0.00078321689
     62100   0.83323045    -2.6115178      0             -2.1949026     -0.010348079  
     62150   0.83049098    -2.6117987      0             -2.1965532      0.031270475  
     62200   0.7663059     -2.5863307      0             -2.2031777      0.01500126   
     62250   0.8164439     -2.6031617      0             -2.1949398      0.0086758379 
     62300   0.85082454    -2.6071987      0             -2.1817864     -0.011302844  
     62350   0.79316935    -2.5958004      0             -2.1992158      0.030502383  
     62400   0.75472609    -2.6039175      0             -2.2265544     -0.033140258  
     62450   0.73783335    -2.6145895      0             -2.2456729      0.023234773  
     62500   0.61653057    -2.5969968      0             -2.2887316      0.037265892  
     62550   0.56429208    -2.6065387      0             -2.3243927     -0.0021733633 
     62600   0.54567348    -2.6143084      0             -2.3414716      0.0470429    
     62650   0.63088929    -2.6071545      0             -2.2917099     -0.0059151284 
     62700   0.56735309    -2.589459       0             -2.3057825      0.020531321  
     62750   0.80392182    -2.6123086      0             -2.2103477      0.014489528  
     62800   0.83968763    -2.6169875      0             -2.1971437     -0.019603553  
     62850   0.67707839    -2.5904607      0             -2.2519215      0.026793457  
     62900   0.60945357    -2.6011247      0             -2.2963979     -0.0053138337 
     62950   0.57771355    -2.6191893      0             -2.3303325      0.01236636   
     63000   0.57022516    -2.609479       0             -2.3243664      0.0028001342 
     63050   0.59275285    -2.5940349      0             -2.2976585      0.0034786194 
     63100   0.60834925    -2.6163251      0             -2.3121505      0.0055435905 
     63150   0.6943827     -2.621923       0             -2.2747316     -0.00089275683
     63200   0.62428262    -2.6105707      0             -2.2984293      0.0054781228 
     63250   0.60672137    -2.5977353      0             -2.2943746     -0.0059492515 
     63300   0.70755779    -2.6183486      0             -2.2645697      0.0057027484 
     63350   0.66985029    -2.6200877      0             -2.2851625      0.012953994  
     63400   0.69325555    -2.6066266      0             -2.2599989      0.0043603198 
     63450   0.78259417    -2.5993335      0             -2.2080364      0.033446782  
     63500   0.83105652    -2.6186868      0             -2.2031585      0.015313716  
     63550   0.90064691    -2.6209923      0             -2.1706689      0.0030679744 
     63600   0.75735891    -2.6128852      0             -2.2342057     -0.002432307  
     63650   0.78520352    -2.6101512      0             -2.2175495     -0.00082395594
     63700   0.91549083    -2.6163907      0             -2.1586452      0.0052557613 
     63750   0.85405478    -2.6197317      0             -2.1927043      0.0055226389 
     63800   0.93674142    -2.6168125      0             -2.1484418     -0.006692538  
     63850   0.99010187    -2.6054786      0             -2.1104276     -0.015059438  
     63900   0.97074753    -2.6005943      0             -2.1152205      0.0034820012 
     63950   1.0665277     -2.61887        0             -2.0856061     -0.0035382435 
     64000   1.0018436     -2.6226785      0             -2.1217567     -0.014229287  
     64050   1.0796992     -2.6093636      0             -2.0695141      0.0037616728 
     64100   1.0602416     -2.5955779      0             -2.0654571      0.0023148244 
     64150   1.0837372     -2.6190196      0             -2.0771511     -0.0085849943 
     64200   1.1908405     -2.6229843      0             -2.0275641      0.0060459279 
     64250   1.2571733     -2.6206799      0             -1.9920932     -0.0070195299 
     64300   1.2860936     -2.6190078      0             -1.975961      -0.018233947  
     64350   1.1312019     -2.6180258      0             -2.0524249      0.016696763  
     64400   1.3659078     -2.6171424      0             -1.9341885      0.012622896  
     64450   1.5120236     -2.618258       0             -1.8622462     -0.010122885  
     64500   1.5326589     -2.6189981      0             -1.8526687      0.00028969517
     64550   1.4935545     -2.6156847      0             -1.8689075      0.0014372631 
     64600   1.4440679     -2.6041575      0             -1.8821236      0.012375411  
     64650   1.5469202     -2.6139309      0             -1.8404708      0.0087934862 
     64700   1.493378      -2.6224915      0             -1.8758025     -0.014412597  
     64750   1.480451      -2.622268       0             -1.8820425     -0.0028563801 
     64800   1.3747381     -2.6175115      0             -1.9301425      0.013632489  
     64850   1.4791433     -2.6159829      0             -1.8764113      0.015126593  
     64900   1.5632822     -2.6180677      0             -1.8364266      0.01751256   
     64950   1.642766      -2.6227471      0             -1.8013641      0.010559762  
     65000   1.6749198     -2.6232043      0             -1.7857444      0.019578059  
     65050   1.7777395     -2.6186469      0             -1.7297772      0.016961736  
     65100   1.7777181     -2.6129528      0             -1.7240937      0.032909538  
     65150   1.745345      -2.6201695      0             -1.747497      -0.021187268  
     65200   1.6781134     -2.6231953      0             -1.7841386      0.0089127565 
     65250   1.6187536     -2.6185812      0             -1.8092044      0.0059869321 
     65300   1.4936443     -2.6080281      0             -1.8612059      0.026730612  
     65350   1.4739707     -2.6190412      0             -1.8820559      0.044261899  
     65400   1.5545196     -2.6240725      0             -1.8468127      0.0057080312 
     65450   1.6461689     -2.6225746      0             -1.7994901     -0.0032014433 
     65500   1.5603676     -2.6060077      0             -1.8258239      0.027079093  
     65550   1.4668211     -2.59988        0             -1.8664695      0.0073469301 
     65600   1.4211624     -2.6206904      0             -1.9101092     -0.0085694944 
     65650   1.271103      -2.6243917      0             -1.9888402      0.0099343321 
     65700   1.3144394     -2.6214301      0             -1.9642104      0.019631901  
     65750   1.2697901     -2.6069998      0             -1.9721048      0.0030072405 
     65800   1.1786496     -2.6086802      0             -2.0193554      0.020686995  
     65850   1.1414324     -2.622472       0             -2.0517558      0.019478315  
     65900   1.0841654     -2.6242145      0             -2.0821318      0.0067477423 
     65950   0.9988048     -2.6168471      0             -2.1174447      0.016811262  
     66000   1.0465764     -2.5946058      0             -2.0713177      0.020638181  
     66050   1.0696472     -2.6151794      0             -2.0803558      0.020887368  
     66100   1.0580756     -2.6233445      0             -2.0943067      0.019750818  
     66150   0.98273835    -2.62101        0             -2.1296408     -0.0051683377 
     66200   1.0792157     -2.6107855      0             -2.0711777      0.032114728  
     66250   1.0275886     -2.6150583      0             -2.1012641     -0.023650643  
     66300   0.96023208    -2.6212814      0             -2.1411654      0.024001848  
     66350   0.89862603    -2.6219986      0             -2.1726856      0.027352381  
     66400   0.84076434    -2.6143997      0             -2.1940175     -0.0076328408 
     66450   0.85052742    -2.6049694      0             -2.1797057      0.011865092  
     66500   0.80695883    -2.6110097      0             -2.2075303     -0.020740696  
     66550   0.80921156    -2.6193152      0             -2.2147095     -0.0014366425 
     66600   0.74542756    -2.612081       0             -2.2393672      0.0048382198 
     66650   0.64817218    -2.5892712      0             -2.2651852     -0.0016392403 
     66700   0.71816934    -2.6191063      0             -2.2600217     -0.029277486  
     66750   0.76868435    -2.6215269      0             -2.2371847      0.017298585  
     66800   0.72007979    -2.6047318      0             -2.2446919      0.023392892  
     66850   0.74807986    -2.6068014      0             -2.2327615      0.032523206  
     66900   0.73395047    -2.6202283      0             -2.253253       0.0036512903 
     66950   0.64615711    -2.6238674      0             -2.3007888     -0.011815001  
     67000   0.59837153    -2.622096       0             -2.3229102     -0.0019979929 
     67050   0.61157564    -2.6084677      0             -2.3026799     -0.027706344  
     67100   0.59348436    -2.5980554      0             -2.3013133      0.014133296  
     67150   0.6121822     -2.6220591      0             -2.315968      -0.0010632045 
     67200   0.6931388     -2.6228361      0             -2.2762667      0.016070575  
     67250   0.60556695    -2.6041003      0             -2.3013168      0.023391658  
     67300   0.54660753    -2.5890081      0             -2.3157043     -0.01870869   
     67350   0.61157137    -2.6150567      0             -2.309271       0.0053078964 
     67400   0.65953678    -2.6176951      0             -2.2879267     -0.0033629019 
     67450   0.64609912    -2.5924159      0             -2.2693663      0.011882437  
     67500   0.79946394    -2.6033562      0             -2.2036243      4.7110102e-05
     67550   0.79714068    -2.6151167      0             -2.2165463      0.0090080684 
     67600   0.81908926    -2.5994732      0             -2.1899285      0.017173846  
     67650   0.85276725    -2.5991571      0             -2.1727734      0.020745167  
     67700   0.9004167     -2.6112594      0             -2.161051      -0.0061217646 
     67750   0.87247021    -2.6052914      0             -2.1690563      0.002887329  
     67800   0.83191485    -2.6047602      0             -2.1888028      0.0081761673 
     67850   0.82754873    -2.6035038      0             -2.1897295     -0.011799013  
     67900   0.88455775    -2.6058528      0             -2.163574      -0.0092779705 
     67950   0.85429879    -2.6046032      0             -2.1774538     -0.000956102  
     68000   0.90573923    -2.5914151      0             -2.1385455      0.0071824483 
     68050   0.91773434    -2.6006332      0             -2.1417661     -0.011392993  
     68100   0.87978516    -2.5966945      0             -2.1568019      0.0097324215 
     68150   0.80752442    -2.5920778      0             -2.1883156      0.0043551092 
     68200   0.8201967     -2.6049141      0             -2.1948158     -0.0014017697 
     68250   0.84700666    -2.6050926      0             -2.1815893      0.012797577  
     68300   0.88742833    -2.58457        0             -2.1408558      0.010773595  
     68350   0.93937714    -2.6098783      0             -2.1401898     -0.030511333  
     68400   1.0140046     -2.5945899      0             -2.0875876     -0.010069821  
     68450   1.0621672     -2.5764763      0             -2.0453927      0.0036766703 
     68500   1.2373337     -2.6130004      0             -1.9943335      0.0064642326 
     68550   1.118069      -2.6037027      0             -2.0446682     -0.0033435286 
     68600   1.0537414     -2.5427335      0             -2.0158628      0.00012311307
     68650   1.2189027     -2.6093984      0             -1.999947       0.001447302  
     68700   1.1482375     -2.6140714      0             -2.0399527     -0.0039380494 
     68750   0.97990087    -2.5524167      0             -2.0624663      0.0082590223 
     68800   1.056261      -2.6074425      0             -2.079312       0.011526128  
     68850   0.99856589    -2.6128972      0             -2.1136143     -0.0028147046 
     68900   0.75531243    -2.5575842      0             -2.179928      -0.0076444649 
     68950   0.85186532    -2.605228       0             -2.1792953      0.006345773  
     69000   0.90052457    -2.6004459      0             -2.1501836     -0.010558114  
     69050   0.86273687    -2.577673       0             -2.1463046     -0.0021900535 
     69100   0.89705632    -2.6040969      0             -2.1555687      0.0088433693 
     69150   0.85570687    -2.6114294      0             -2.183576       0.0094189442 
     69200   0.82966623    -2.5929919      0             -2.1781588      0.0029198098 
     69250   0.76908983    -2.5953769      0             -2.210832      -0.00026503369
     69300   0.81722903    -2.6182374      0             -2.2096228     -0.0081625184 
     69350   0.84593553    -2.608349       0             -2.1853812      0.0055880935 
     69400   0.92689028    -2.5921357      0             -2.1286906      0.00021061785
     69450   1.0539904     -2.6090092      0             -2.082014       0.012931734  
     69500   1.091396      -2.6144184      0             -2.0687204      0.0077347769 
     69550   0.9029812     -2.5940368      0             -2.1425462     -0.017891213  
     69600   0.91665348    -2.5949184      0             -2.1365917      0.015481116  
     69650   0.97263825    -2.6120327      0             -2.1257136      0.023536785  
     69700   0.91056756    -2.5804526      0             -2.1251689      0.00384661   
     69750   0.95960971    -2.5902284      0             -2.1104236      0.022915631  
     69800   0.98686004    -2.6142751      0             -2.1208451     -0.022949914  
     69850   0.99424442    -2.577104       0             -2.0799818      0.0087678195 
     69900   1.0663753     -2.593811       0             -2.0606233      0.017331753  
     69950   1.0606606     -2.6055382      0             -2.0752079      0.017907494  
     70000   0.91082631    -2.5512639      0             -2.0958508     -0.00070133413
     70050   0.90197015    -2.6113135      0             -2.1603284     -0.045857408  
     70100   0.97184571    -2.610358       0             -2.1244352     -0.020513413  
     70150   0.91340239    -2.5727106      0             -2.1160094      0.0066635373 
     70200   0.92133402    -2.6092369      0             -2.1485699      0.0024119872 
     70250   0.94138113    -2.6160331      0             -2.1453425      0.012457826  
     70300   0.82516082    -2.5919894      0             -2.1794089     -0.0015273186 
     70350   0.87328474    -2.5971621      0             -2.1605197     -0.03687542   
     70400   0.88713663    -2.6150713      0             -2.1715029     -0.013698152  
     70450   1.0889412     -2.6064894      0             -2.0620188      0.006908098  
     70500   1.0781108     -2.5836526      0             -2.0445973     -0.0069299315 
     70550   1.1513468     -2.6009074      0             -2.025234       0.020989313  
     70600   1.2333984     -2.6067785      0             -1.9900794      0.00026124297
     70650   1.2630622     -2.6006233      0             -1.9690923     -0.017169725  
     70700   1.1461909     -2.5947378      0             -2.0216424      0.011274558  
     70750   1.1592175     -2.6027455      0             -2.0231367      0.0036751778 
     70800   1.2001713     -2.6106501      0             -2.0105645     -0.0038610683 
     70850   1.2039936     -2.6069633      0             -2.0049665     -0.0031121387 
     70900   1.3740647     -2.6094091      0             -1.9223767     -0.022733527  
     70950   1.3211905     -2.6078733      0             -1.9472781     -0.016106087  
     71000   1.2931863     -2.6063869      0             -1.9597938     -0.0032778395 
     71050   1.3234796     -2.6084877      0             -1.9467479      0.010632364  
     71100   1.2170807     -2.6076164      0             -1.9990761      0.017905758  
     71150   1.2753045     -2.6006317      0             -1.9629795     -0.0035793807 
     71200   1.2213611     -2.5991566      0             -1.9884761      0.012470747  
     71250   1.2009544     -2.6058855      0             -2.0054083     -0.010178367  
     71300   1.2417122     -2.6074767      0             -1.9866206      0.027551719  
     71350   1.2373157     -2.6063555      0             -1.9876976      0.030752531  
     71400   1.0929062     -2.596366       0             -2.0499129      0.013179448  
     71450   1.0056856     -2.5881962      0             -2.0853533      0.031691815  
     71500   1.1024231     -2.6113537      0             -2.0601421      0.014981326  
     71550   1.1139252     -2.6199823      0             -2.0630197      0.0035411516 
     71600   1.2168923     -2.5887813      0             -1.9803352      0.014321829  
     71650   1.238512      -2.5867416      0             -1.9674856      0.0076064249 
     71700   1.2285416     -2.6191085      0             -2.0048377      0.030173506  
     71750   1.1831083     -2.6155198      0             -2.0239656     -0.02819927   
     71800   1.0567146     -2.5905151      0             -2.0621578      0.0024194323 
     71850   1.0560709     -2.6079225      0             -2.0798871      0.021693656  
     71900   1.0216479     -2.6187688      0             -2.1079448     -0.023949076  
     71950   1.0083776     -2.6156575      0             -2.1114688      0.0088423405 
     72000   1.1196244     -2.5926709      0             -2.0328587     -0.0092892249 
     72050   1.1840426     -2.6045139      0             -2.0124926     -0.002601686  
     72100   1.3364628     -2.6177853      0             -1.9495539      0.0021496852 
     72150   1.1194071     -2.6159031      0             -2.0561995      0.019222851  
     72200   1.2617646     -2.6137717      0             -1.9828894     -0.00050084762
     72250   1.2965349     -2.6192695      0             -1.971002       0.005028383  
     72300   1.3467121     -2.6184395      0             -1.9450835      0.0096119307 
     72350   1.2257473     -2.6107007      0             -1.9978271     -0.011156321  
     72400   1.3132068     -2.6066009      0             -1.9499975     -0.0075418961 
     72450   1.1849583     -2.6174753      0             -2.0249961     -0.0031351229 
     72500   1.3234203     -2.6234422      0             -1.961732       0.019213303  
     72550   1.3269044     -2.6235947      0             -1.9601425      0.034480135  
     72600   1.3005641     -2.6204707      0             -1.9701887      0.026456255  
     72650   1.332754      -2.6177724      0             -1.9513954     -0.010280288  
     72700   1.4496147     -2.6189446      0             -1.8941372      0.027281353  
     72750   1.4619971     -2.6215628      0             -1.8905642     -0.013846826  
     72800   1.3592876     -2.623374       0             -1.9437302      0.0022083338 
     72850   1.4150349     -2.6230916      0             -1.9155742      0.0010622104 
     72900   1.4384126     -2.6221924      0             -1.9029861     -0.0058752666 
     72950   1.4376202     -2.621781       0             -1.9029708      0.014606954  
     73000   1.30124       -2.6224833      0             -1.9718633      0.028091112  
     73050   1.3833432     -2.6232332      0             -1.9315616      0.036932052  
     73100   1.3405792     -2.6226463      0             -1.9523567     -0.02555779   
     73150   1.3812247     -2.6235262      0             -1.9329138      0.0015760442 
     73200   1.3399221     -2.6237054      0             -1.9537444      0.017479797  
     73250   1.3120583     -2.6221747      0             -1.9661456      0.017425338  
     73300   1.2979763     -2.6168812      0             -1.967893       0.019994934  
     73350   1.204091      -2.6121284      0             -2.010083       0.025221023  
     73400   1.3255549     -2.6162703      0             -1.9534928     -0.016210328  
     73450   1.3056817     -2.622966       0             -1.9701251     -0.008700377  
     73500   1.3448239     -2.6219814      0             -1.9495694      0.007172416  
     73550   1.3041179     -2.6105492      0             -1.9584903     -0.010469192  
     73600   1.2554386     -2.5970729      0             -1.9693536      0.013620045  
     73650   1.3483264     -2.6200631      0             -1.9458999      0.009139027  
     73700   1.3078634     -2.6231328      0             -1.969201      -0.0018267285 
     73750   1.367426      -2.6079627      0             -1.9242497      0.042143873  
     73800   1.4155901     -2.5959493      0             -1.8881542      0.012387738  
     73850   1.5169504     -2.6191268      0             -1.8606516      0.004209963  
     73900   1.4419189     -2.6170071      0             -1.8960476      0.027863138  
     73950   1.4248977     -2.6019443      0             -1.8894954     -0.010419225  
     74000   1.3096657     -2.608118       0             -1.9532851     -0.0017353308 
     74050   1.3265383     -2.6208909      0             -1.9576218     -0.0060384834 
     74100   1.3975573     -2.6178455      0             -1.9190668     -0.0098510536 
     74150   1.4412618     -2.600485       0             -1.8798541      0.015282562  
     74200   1.4707314     -2.6109378      0             -1.875572       0.0106905    
     74250   1.5132351     -2.6231149      0             -1.8664973     -0.0033026328 
     74300   1.5974164     -2.6211945      0             -1.8224863     -0.005465762  
     74350   1.4611414     -2.6056972      0             -1.8751265     -0.003089991  
     74400   1.4648332     -2.6020217      0             -1.8696051      0.010078202  
     74450   1.497552      -2.6206911      0             -1.8719151      0.015110436  
     74500   1.4791677     -2.6221834      0             -1.8825996      0.010309441  
     74550   1.4525768     -2.6136859      0             -1.8873975      0.017915587  
     74600   1.4061535     -2.6122087      0             -1.909132      -0.037959634  
     74650   1.4727101     -2.6219826      0             -1.8856276     -0.0031572293 
     74700   1.4639528     -2.6244753      0             -1.8924989      0.010854842  
     74750   1.3178289     -2.6238975      0             -1.9649831     -0.0046327115 
     74800   1.4686261     -2.6214412      0             -1.8871281     -0.013813647  
     74850   1.599836      -2.6173019      0             -1.8173838     -0.014950069  
     74900   1.559249      -2.6196152      0             -1.8399907      0.0056873911 
     74950   1.5566183     -2.6229302      0             -1.844621       0.012590001  
     75000   1.4735729     -2.6209618      0             -1.8841754      0.011444546  
     75050   1.5151868     -2.6104941      0             -1.8529007     -0.02704371   
     75100   1.6268545     -2.6146338      0             -1.8012065     -0.0016815268 
     75150   1.5057522     -2.623367       0             -1.8704908     -0.020583472  
     75200   1.5457522     -2.6241172      0             -1.8512411      0.0071529576 
     75250   1.4843672     -2.6158887      0             -1.8737051     -0.0098577935 
     75300   1.4459242     -2.5908247      0             -1.8678626     -0.044430209  
     75350   1.3038607     -2.6171593      0             -1.9652289     -0.0077392464 
     75400   1.2944888     -2.6243508      0             -1.9771064     -0.017206765  
     75450   1.2896089     -2.6190773      0             -1.9742728     -0.00030857465
     75500   1.053079      -2.5959663      0             -2.0694268      0.010640084  
     75550   1.0748778     -2.6157849      0             -2.078346      -0.0014006622 
     75600   1.1941176     -2.6236291      0             -2.0265703      0.016772519  
     75650   1.3280771     -2.6222922      0             -1.9582536      0.0017408566 
     75700   1.1047811     -2.6098674      0             -2.0574768     -0.0070685518 
     75750   1.0924944     -2.6131005      0             -2.0668533      0.0091405737 
     75800   1.2165318     -2.6233971      0             -2.0151312     -0.006935814  
     75850   1.2344065     -2.6242472      0             -2.0070439      0.0022878201 
     75900   1.1797778     -2.6150448      0             -2.0251559      0.017987626  
     75950   1.1779215     -2.5918328      0             -2.0028721     -0.01539021   
     76000   1.1982147     -2.6137842      0             -2.0146768     -0.030972886  
     76050   1.1953141     -2.6231661      0             -2.0255091     -0.01925479   
     76100   1.0717778     -2.6220186      0             -2.0861297      0.0092359735 
     76150   1.0722254     -2.6198482      0             -2.0837356      0.017038602  
     76200   1.0502226     -2.6168913      0             -2.09178       -0.018346071  
     76250   1.0714288     -2.6167672      0             -2.0810529      0.015269608  
     76300   1.1431664     -2.6210752      0             -2.049492       0.030126081  
     76350   1.1023097     -2.6240853      0             -2.0729305     -0.0037262091 
     76400   1.0457614     -2.6209042      0             -2.0980235     -0.01980281   
     76450   0.9505027     -2.6060108      0             -2.1307594      0.025721793  
     76500   0.91349451    -2.6054182      0             -2.148671       0.0050571158 
     76550   0.93659384    -2.6221094      0             -2.1538125     -0.0013814219 
     76600   0.99279413    -2.6243168      0             -2.1279198      0.020945627  
     76650   0.8473608     -2.6135892      0             -2.1899088     -0.00017842442
     76700   0.84089584    -2.5990494      0             -2.1786015     -0.029124102  
     76750   1.0275679     -2.6211161      0             -2.1073321      0.012080769  
     76800   1.0565216     -2.6241773      0             -2.0959165      0.0082417873 
     76850   1.0889589     -2.6227293      0             -2.0782498      0.001962321  
     76900   1.0972888     -2.6062713      0             -2.0576269     -0.010211252  
     76950   1.0132384     -2.6004235      0             -2.0938043     -0.0074812396 
     77000   1.1452222     -2.6215657      0             -2.0489546     -0.0071171631 
     77050   1.1208119     -2.6229981      0             -2.0625922      0.0099578443 
     77100   1.0296456     -2.6120506      0             -2.0972278     -0.0042441094 
     77150   1.0232589     -2.6050773      0             -2.0934479      0.0048636609 
     77200   1.0006021     -2.6230912      0             -2.1227902      0.01925243   
     77250   0.99322044    -2.6238515      0             -2.1272413      0.0087326769 
     77300   0.87109429    -2.61205        0             -2.1765029      0.00039938804
     77350   0.78210919    -2.5928871      0             -2.2018325      0.011528243  
     77400   0.89583636    -2.6142781      0             -2.1663599     -0.0088843506 
     77450   0.8713108     -2.6237798      0             -2.1881244      0.010742353  
     77500   0.85874932    -2.6230215      0             -2.1936468     -0.018042832  
     77550   0.9274453     -2.6013742      0             -2.1376515      0.013960632  
     77600   1.0013619     -2.6058334      0             -2.1051524     -0.0053007536 
     77650   0.98018591    -2.6213807      0             -2.1312878      0.0081300528 
     77700   0.96282518    -2.6136315      0             -2.1322189      0.0056575401 
     77750   0.87915404    -2.6017696      0             -2.1621926      0.015110715  
     77800   0.86048136    -2.6196857      0             -2.189445       0.0019996556 
     77850   0.83581028    -2.6237653      0             -2.2058602      0.018146546  
     77900   0.91532771    -2.6119787      0             -2.1543149     -0.016970611  
     77950   0.85972389    -2.5985612      0             -2.1686993      0.0072370933 
     78000   0.73347004    -2.6212412      0             -2.2545061      0.012998512  
     78050   0.7264174     -2.6244466      0             -2.2612379     -0.0006942321 
     78100   0.66834292    -2.6098436      0             -2.2756722      0.0022998328 
     78150   0.65833603    -2.5875648      0             -2.2583968     -0.01261225   
     78200   0.73959435    -2.6208212      0             -2.2510241     -0.0004302631 
     78250   0.74974538    -2.6235862      0             -2.2487135      0.01026159   
     78300   0.61966178    -2.5928333      0             -2.2830024     -0.011141574  
     78350   0.63884817    -2.592138       0             -2.272714      -0.009262289  
     78400   0.67604341    -2.6211344      0             -2.2831127      0.0013539933 
     78450   0.58554207    -2.6212025      0             -2.3284314      0.0021359399 
     78500   0.49301606    -2.6032717      0             -2.3567637      0.0015724864 
     78550   0.51713896    -2.6078801      0             -2.3493106      0.01588963   
     78600   0.61067627    -2.6237956      0             -2.3184575     -0.022394387  
     78650   0.66524979    -2.6179935      0             -2.2853687     -0.0024965851 
     78700   0.62365678    -2.5858464      0             -2.2740181      0.020809896  
     78750   0.54959859    -2.6091437      0             -2.3343444      0.020456251  
     78800   0.72717163    -2.624389       0             -2.2608031     -0.01284088   
     78850   0.67981159    -2.616493       0             -2.2765872      0.028166959  
     78900   0.67900072    -2.5838703      0             -2.2443699     -0.0025829833 
     78950   0.68787997    -2.6174723      0             -2.2735323      0.0092626536 
     79000   0.61390158    -2.6238506      0             -2.3168998     -0.0015849964 
     79050   0.54080868    -2.619439       0             -2.3490346     -0.010146006  
     79100   0.56825969    -2.6113881      0             -2.3272582     -0.0093553481 
     79150   0.58653194    -2.6140568      0             -2.3207909     -0.016766554  
     79200   0.58461161    -2.6220827      0             -2.3297769      0.016349389  
     79250   0.63186226    -2.6224138      0             -2.3064827     -0.017911711  
     79300   0.62841312    -2.6099466      0             -2.29574       -0.01877212   
     79350   0.55158707    -2.6084532      0             -2.3326597      0.0098934384 
     79400   0.5516009     -2.6223913      0             -2.3465909      0.008808129  
     79450   0.5529711     -2.6229523      0             -2.3464667      0.011164678  
     79500   0.45311926    -2.6067585      0             -2.3801989      0.017076612  
     79550   0.37667853    -2.5895943      0             -2.401255       0.012798524  
     79600   0.44271864    -2.6203479      0             -2.3989886     -0.014253881  
     79650   0.43652987    -2.6197532      0             -2.4014883      0.0099293886 
     79700   0.36999378    -2.5781443      0             -2.3931475     -0.010454676  
     79750   0.39756426    -2.6016078      0             -2.4028257     -0.0048307341 
     79800   0.43670899    -2.6216649      0             -2.4033104      0.021760262  
     79850   0.46570409    -2.602942       0             -2.37009        0.015648025  
     79900   0.53410893    -2.5812202      0             -2.3141657      0.005245976  
     79950   0.51646325    -2.6209982      0             -2.3627665     -0.011468299  
     80000   0.48839519    -2.617164       0             -2.3729664     -0.0054886772 
     80050   0.38145029    -2.572655       0             -2.3819299      0.005139     
     80100   0.47110346    -2.6015838      0             -2.3660321     -0.0073948646 
     80150   0.53149387    -2.623443       0             -2.3576961     -0.038883242  
     80200   0.45083579    -2.6074383      0             -2.3820204     -0.027446729  
     80250   0.26157485    -2.5702065      0             -2.4394191     -0.0044294214 
     80300   0.35475441    -2.6150681      0             -2.4376909     -0.0097454568 
     80350   0.33946096    -2.6149117      0             -2.4451812      0.057564638  
     80400   0.23733265    -2.5674068      0             -2.4487405      0.010306181  
     80450   0.33736444    -2.6039794      0             -2.4352972     -0.00044196268
     80500   0.41331246    -2.612468       0             -2.4058117      0.023257391  
     80550   0.37299356    -2.5768305      0             -2.3903337      0.015870988  
     80600   0.39746819    -2.607962       0             -2.409228      -0.0020535845 
     80650   0.44001348    -2.6161883      0             -2.3961816      0.022006027  
     80700   0.2651527     -2.5759064      0             -2.4433301      1.3799718e-05
     80750   0.3182134     -2.5983552      0             -2.4392485     -0.011892298  
     80800   0.41070744    -2.6229133      0             -2.4175596     -0.025278674  
     80850   0.3783663     -2.6042148      0             -2.4150316     -0.0049691965 
     80900   0.36373837    -2.5712464      0             -2.3893772     -0.013894961  
     80950   0.56632787    -2.6129472      0             -2.3297832      0.0049832188 
     81000   0.67406179    -2.6137735      0             -2.2767426      0.042261436  
     81050   0.60301562    -2.5372715      0             -2.2357637      0.004060928  
     81100   0.6441216     -2.6075394      0             -2.2854786      0.001627123  
     81150   0.67567618    -2.6185828      0             -2.2807447      0.0007172322 
     81200   0.55106727    -2.5536338      0             -2.2781002     -0.0078874635 
     81250   0.60606937    -2.6052231      0             -2.3021884      0.017158791  
     81300   0.65539509    -2.6214983      0             -2.2938008     -0.0043781192 
     81350   0.52341925    -2.5515598      0             -2.2898502      0.020359799  
     81400   0.61722203    -2.6056803      0             -2.2970692      0.019750095  
     81450   0.66178442    -2.6211096      0             -2.2902174      0.0097132172 
     81500   0.5664847     -2.5756442      0             -2.2924019     -0.01715626   
     81550   0.61954851    -2.5994325      0             -2.2896583     -0.020938974  
     81600   0.70777418    -2.6203432      0             -2.2664561     -0.0082811326 
     81650   0.7580842     -2.5912755      0             -2.2122334     -0.0074349429 
     81700   0.72859176    -2.5920098      0             -2.2277139     -0.023717062  
     81750   0.71070671    -2.614011       0             -2.2586577     -0.011037768  
     81800   0.67843579    -2.5827936      0             -2.2435757     -0.013288018  
     81850   0.56799045    -2.5785377      0             -2.2945425      0.023613137  
     81900   0.65770461    -2.5978357      0             -2.2689834      0.013021662  
     81950   0.70082022    -2.5830004      0             -2.2325903      0.027678013  
     82000   0.63798728    -2.5856772      0             -2.2666835      0.0026992189 
     82050   0.600033      -2.6036321      0             -2.3036156     -0.0030539984 
     82100   0.55838193    -2.5963512      0             -2.3171603     -0.023238707  
     82150   0.62208843    -2.5989609      0             -2.2879167     -0.0024088557 
     82200   0.56652904    -2.5981901      0             -2.3149256      0.0046600638 
     82250   0.57583637    -2.602671       0             -2.3147529     -0.0046452164 
     82300   0.56189939    -2.6006391      0             -2.3196894     -0.02025533   
     82350   0.68455697    -2.6048131      0             -2.2625346     -0.0023981932 
     82400   0.63756792    -2.5949154      0             -2.2761314     -0.034647632  
     82450   0.60824152    -2.5827446      0             -2.2786238      0.029488506  
     82500   0.50113524    -2.5880565      0             -2.3374889     -0.020628139  
     82550   0.50207108    -2.6033687      0             -2.3523332     -0.0080497826 
     82600   0.48169223    -2.5718653      0             -2.3310192     -0.012310853  
     82650   0.50862082    -2.6060851      0             -2.3517747      0.0092930337 
     82700   0.54611749    -2.6137127      0             -2.3406539     -0.029045316  
     82750   0.46741087    -2.569878       0             -2.3361725     -0.0041148583 
     82800   0.54491598    -2.5920592      0             -2.3196012      0.0088747744 
     82850   0.63244709    -2.6151246      0             -2.298901      -0.018180859  
     82900   0.5510208     -2.5884061      0             -2.3128957      0.012176721  
     82950   0.56082771    -2.5857041      0             -2.3052902     -0.028969455  
     83000   0.66462245    -2.6113746      0             -2.2790633      0.028135184  
     83050   0.66661812    -2.6047044      0             -2.2713953     -0.00012170421
     83100   0.73463101    -2.5881998      0             -2.2208843     -0.0075134579 
     83150   0.82372296    -2.602618       0             -2.1907565     -0.0015983538 
     83200   0.76657818    -2.6171846      0             -2.2338955      0.0096965742 
     83250   0.66960531    -2.593317       0             -2.2585144     -0.0066915102 
     83300   0.63320288    -2.5967165      0             -2.2801151     -0.001742523  
     83350   0.69827084    -2.6137228      0             -2.2645874      0.01452111   
     83400   0.63076119    -2.5905721      0             -2.2751915      0.0066820829 
     83450   0.65678961    -2.6075033      0             -2.2791085      0.02032252   
     83500   0.56623446    -2.6116096      0             -2.3284924      0.01686976   
     83550   0.58046921    -2.5823504      0             -2.2921158     -0.0034004183 
     83600   0.57662362    -2.6006888      0             -2.3123769      0.0073052701 
     83650   0.61001942    -2.6094205      0             -2.3044108     -5.5691228e-05
     83700   0.53866302    -2.5674192      0             -2.2980877     -0.0077892087 
     83750   0.53089177    -2.5954173      0             -2.3299714      0.010645357  
     83800   0.58873115    -2.6194742      0             -2.3251087      0.012774743  
     83850   0.60463991    -2.5869216      0             -2.2846016     -0.00056930593
     83900   0.62156731    -2.5769258      0             -2.2661422     -0.0023673205 
     83950   0.67502772    -2.6220835      0             -2.2845696     -0.022627834  
     84000   0.64254609    -2.6120099      0             -2.2907368     -0.0027657331 
     84050   0.49002011    -2.5366506      0             -2.2916405      0.005535919  
     84100   0.66101429    -2.618886       0             -2.2883789      0.0047309098 
     84150   0.62011773    -2.6135331      0             -2.3034742      0.0013455982 
     84200   0.46129424    -2.535281       0             -2.3046339     -0.01334462   
     84250   0.67038207    -2.6189561      0             -2.2837651      0.00054726719
     84300   0.63306545    -2.6159131      0             -2.2993803     -0.00027936262
     84350   0.55246237    -2.5424243      0             -2.2661932     -0.010402877  
     84400   0.69500868    -2.6162994      0             -2.2687951     -0.0015853723 
     84450   0.67072544    -2.6165458      0             -2.2811831      0.00036083759
     84500   0.5505861     -2.5537427      0             -2.2784497     -0.0064389962 
     84550   0.68071089    -2.614737       0             -2.2743816      0.0043364992 
     84600   0.81899825    -2.6206887      0             -2.2111895      0.013155933  
     84650   0.65784535    -2.565798       0             -2.2368753      0.010169901  
     84700   0.61361756    -2.5990499      0             -2.2922411      0.0091634207 
     84750   0.61448136    -2.6181846      0             -2.3109439      0.0013145245 
     84800   0.46770687    -2.6053533      0             -2.3714999      0.0062207092 
     84850   0.5013311     -2.5989809      0             -2.3483153     -0.0034901886 
     84900   0.45362445    -2.6102851      0             -2.3834729      0.010274333  
     84950   0.38618495    -2.6087999      0             -2.4157075     -0.010342662  
     85000   0.42100094    -2.6118082      0             -2.4013078      0.010562594  
     85050   0.47040196    -2.6046736      0             -2.3694726     -0.0033169546 
     85100   0.50267044    -2.6010065      0             -2.3496713      0.0017303909 
     85150   0.60651689    -2.6124372      0             -2.3091788      0.010803564  
     85200   0.69343308    -2.6146432      0             -2.2679267     -0.0051347958 
     85250   0.63572877    -2.6091931      0             -2.2913288     -0.0034602983 
     85300   0.66204091    -2.6066025      0             -2.2755821     -0.01127956   
     85350   0.60588483    -2.6059587      0             -2.3030163     -0.007038668  
     85400   0.51872957    -2.6160512      0             -2.3566864     -0.00027697973
     85450   0.52419318    -2.6168146      0             -2.3547181     -0.01503423   
     85500   0.55957689    -2.6160555      0             -2.3362671     -0.014899576  
     85550   0.55811392    -2.607342       0             -2.3282851     -0.014521124  
     85600   0.59956693    -2.6138983      0             -2.3141149      0.006503683  
     85650   0.64057916    -2.6190696      0             -2.29878        0.010341726  
     85700   0.70242536    -2.6117858      0             -2.2605731     -0.0049004587 
     85750   0.73970407    -2.6084021      0             -2.2385501      0.017074631  
     85800   0.73322853    -2.6188881      0             -2.2522738      0.009023177  
     85850   0.72019416    -2.6151623      0             -2.2550652      0.0090817498 
     85900   0.77593525    -2.6061303      0             -2.2181627     -0.01027086   
     85950   0.85631093    -2.6133949      0             -2.1852394      0.013874306  
     86000   0.99195592    -2.6173784      0             -2.1214004     -0.008555704  
     86050   0.89198991    -2.6082196      0             -2.1622246     -0.018207624  
     86100   0.80098552    -2.6022772      0             -2.2017845      0.029255536  
     86150   0.84507877    -2.6175184      0             -2.194979       0.0037483921 
     86200   0.98909683    -2.6166375      0             -2.1220891     -0.005484994  
     86250   1.0729675     -2.6105599      0             -2.0740762     -0.0022611933 
     86300   1.0885775     -2.6135307      0             -2.0692419     -0.011801226  
     86350   1.0813617     -2.6190656      0             -2.0783847     -0.0046003767 
     86400   1.0814239     -2.6028642      0             -2.0621522      0.0036597308 
     86450   1.0753336     -2.6004142      0             -2.0627474     -0.029625989  
     86500   1.1473761     -2.6022081      0             -2.0285201      0.030398909  
     86550   1.1248888     -2.6064546      0             -2.0440102     -0.0034936326 
     86600   1.154828      -2.600235       0             -2.022821       0.0080650854 
     86650   0.99391894    -2.6024946      0             -2.1055352     -0.0045431781 
     86700   1.1030974     -2.6206041      0             -2.0690554      0.023217844  
     86750   1.0645243     -2.6076608      0             -2.0753986     -0.016408665  
     86800   1.0539372     -2.5893417      0             -2.0623731     -0.015615456  
     86850   1.1136198     -2.6122196      0             -2.0554097     -0.014305312  
     86900   1.1306227     -2.6090629      0             -2.0437516     -0.034323487  
     86950   0.99423987    -2.5667215      0             -2.0696016      0.02627772   
     87000   0.97140427    -2.6113213      0             -2.1256192     -0.021162739  
     87050   0.94015089    -2.6062922      0             -2.1362167     -0.037055527  
     87100   0.94330798    -2.5774957      0             -2.1058417      0.016849622  
     87150   1.1298744     -2.6084036      0             -2.0434664      0.0012862147 
     87200   0.97625226    -2.5792926      0             -2.0911664      0.0042982253 
     87250   1.0135345     -2.6006508      0             -2.0938835     -0.025396248  
     87300   0.92561764    -2.6046813      0             -2.1418725     -0.058985563  
     87350   0.95472952    -2.5922602      0             -2.1148954      0.011227812  
     87400   0.95122866    -2.5998248      0             -2.1242104      0.0095501271 
     87450   0.94768254    -2.6042723      0             -2.1304311     -0.04456166   
     87500   0.92489724    -2.5940013      0             -2.1315527     -0.01641432   
     87550   0.77337989    -2.6081468      0             -2.2214568     -0.012249987  
     87600   0.75727813    -2.6058749      0             -2.2272358      0.043966312  
     87650   0.79015019    -2.6008052      0             -2.2057301      0.030191578  
     87700   0.81061866    -2.6064326      0             -2.2011232      0.045068738  
     87750   0.81176809    -2.6023385      0             -2.1964545     -0.007263287  
     87800   0.69486176    -2.600987       0             -2.2535561      0.033795148  
     87850   0.72041315    -2.6025989      0             -2.2423923     -0.0057749448 
     87900   0.72480358    -2.6045334      0             -2.2421317      0.0049389611 
     87950   0.79679305    -2.6105411      0             -2.2121446     -0.0088495799 
     88000   0.82950274    -2.5898666      0             -2.1751152     -0.0019452372 
     88050   0.75335327    -2.6015188      0             -2.2248421      0.00083589824
     88100   0.79844705    -2.6188363      0             -2.2196128     -0.025950802  
     88150   0.78560911    -2.6155168      0             -2.2227122     -0.012217432  
     88200   0.75435844    -2.6059681      0             -2.2287889     -0.016932982  
     88250   0.80311899    -2.6129482      0             -2.2113887     -0.016652122  
     88300   0.83920183    -2.6201126      0             -2.2005117      0.0074302464 
     88350   0.84493533    -2.6093362      0             -2.1868685     -0.028165714  
     88400   0.73369056    -2.5903229      0             -2.2234777     -0.0087009516 
     88450   0.78132153    -2.6143379      0             -2.2236771     -0.0066874413 
     88500   0.85165647    -2.6173921      0             -2.1915638     -0.018012235  
     88550   0.8233599     -2.611599       0             -2.199919      -0.015674794  
     88600   0.72593513    -2.6125417      0             -2.2495741      0.0083448922 
     88650   0.69480827    -2.6176543      0             -2.2702501     -0.00047505173
     88700   0.70120028    -2.6144815      0             -2.2638814      0.0025228338 
     88750   0.68717898    -2.6010661      0             -2.2574766      0.041402053  
     88800   0.62708809    -2.611765       0             -2.298221      -0.0049118374 
     88850   0.65340686    -2.6179874      0             -2.2912839      0.0025425335 
     88900   0.66690357    -2.6125623      0             -2.2791106     -0.001804358  
     88950   0.62076474    -2.6143681      0             -2.3039858      0.0063120989 
     89000   0.6003991     -2.620574       0             -2.3203744      0.0077507686 
     89050   0.58150088    -2.6186841      0             -2.3279337      0.018724286  
     89100   0.55839272    -2.6136344      0             -2.334438      -0.0030763016 
     89150   0.45736263    -2.6183262      0             -2.3896449     -0.028183749  
     89200   0.49573025    -2.6217785      0             -2.3739134     -0.00057647113
     89250   0.57939119    -2.6180303      0             -2.3283347     -0.025019638  
     89300   0.59415545    -2.6079866      0             -2.3109088     -0.017082117  
     89350   0.60437267    -2.6052947      0             -2.3031084      0.0054128114 
     89400   0.66897616    -2.6175246      0             -2.2830365      0.006277513  
     89450   0.6750574     -2.6227595      0             -2.2852308      0.023405609  
     89500   0.59064259    -2.6217878      0             -2.3264665      0.011170219  
     89550   0.56678796    -2.6172194      0             -2.3338254     -0.002884587  
     89600   0.64005909    -2.6153232      0             -2.2952937     -0.0071858238 
     89650   0.66315337    -2.6184163      0             -2.2868396     -0.0018732899 
     89700   0.72546994    -2.6215777      0             -2.2588427      0.011956279  
     89750   0.78918284    -2.6225873      0             -2.2279959      0.014956143  
     89800   0.90682206    -2.621343       0             -2.167932       0.0066984615 
     89850   0.88213591    -2.6175405      0             -2.1764725     -0.0026749351 
     89900   0.84663268    -2.6156728      0             -2.1923565     -0.023747569  
     89950   0.90857351    -2.6099516      0             -2.1556648      0.0033063996 
     90000   0.85018755    -2.6012757      0             -2.176182      -0.0072551993 
     90050   0.86371652    -2.608368       0             -2.1765097     -0.01210063   
     90100   0.83408989    -2.6136836      0             -2.1966387     -0.010273243  
     90150   0.93792886    -2.6122134      0             -2.143249      -0.026274321  
     90200   0.95228676    -2.6049403      0             -2.1287969      0.010501551  
     90250   0.90335347    -2.611115       0             -2.1594382     -0.012037249  
     90300   1.0564341     -2.6148383      0             -2.0866212      0.01264653   
     90350   1.0525491     -2.6128404      0             -2.0865659      0.0011715491 
     90400   1.0145316     -2.6039881      0             -2.0967224      0.012383725  
     90450   1.0322606     -2.6080099      0             -2.0918796      0.0057080716 
     90500   0.97526506    -2.6140181      0             -2.1263856      0.015512571  
     90550   0.93039333    -2.6060203      0             -2.1408236     -0.0023224264 
     90600   0.93953381    -2.6033206      0             -2.1335537      0.011885693  
     90650   0.89626722    -2.6176414      0             -2.1695078      0.025828576  
     90700   0.87174321    -2.6174045      0             -2.1815329      0.014127004  
     90750   0.88784815    -2.6121869      0             -2.1682628      0.0039327467 
     90800   0.8133727     -2.6168261      0             -2.2101397      0.018331897  
     90850   0.85439979    -2.6191311      0             -2.1919312     -0.0047793661 
     90900   0.76593927    -2.6098458      0             -2.2268761      0.0031021524 
     90950   0.79615752    -2.5972154      0             -2.1991367     -0.0045446718 
     91000   0.82970069    -2.618546       0             -2.2036956     -0.0014022693 
     91050   0.89662728    -2.6173138      0             -2.1690001      0.0037073618 
     91100   0.79425793    -2.6013268      0             -2.2041978      0.0050717263 
     91150   0.79655599    -2.6119441      0             -2.2136662     -0.027685765  
     91200   0.78453654    -2.6235585      0             -2.2312902      0.017200626  
     91250   0.79274383    -2.6142391      0             -2.2178672      0.035112766  
     91300   0.78622669    -2.5889002      0             -2.1957868     -0.04888356   
     91350   0.87292339    -2.6138485      0             -2.1773868     -0.01649184   
     91400   0.93957436    -2.6219661      0             -2.1521789     -0.013385338  
     91450   0.88728742    -2.6008936      0             -2.1572499     -0.0019955723 
     91500   0.91424321    -2.6033987      0             -2.1462771      0.014438465  
     91550   0.89118618    -2.6211909      0             -2.1755978     -0.017959623  
     91600   0.72902391    -2.6019623      0             -2.2374504      0.021453663  
     91650   0.82942647    -2.5971146      0             -2.1824014     -0.014955125  
     91700   0.98648989    -2.6167959      0             -2.123551      -0.048813657  
     91750   0.92381995    -2.5959776      0             -2.1340676     -0.011896731  
     91800   0.87972118    -2.5878451      0             -2.1479845      0.028396335  
     91850   0.95454474    -2.6145216      0             -2.1372492      0.0049317754 
     91900   0.90457036    -2.6012349      0             -2.1489497      0.010134678  
     91950   0.84845578    -2.6086608      0             -2.1844329     -0.037433289  
     92000   0.94617922    -2.6204368      0             -2.1473472     -0.033563441  
     92050   0.99900841    -2.6143223      0             -2.1148181     -0.011003444  
     92100   0.90510775    -2.6025433      0             -2.1499895      0.015061237  
     92150   0.87609123    -2.6153681      0             -2.1773225     -0.006649276  
     92200   0.80130037    -2.6228275      0             -2.2221773      0.025407927  
     92250   0.82340667    -2.61846        0             -2.2067567     -0.014150972  
     92300   0.80054856    -2.6001821      0             -2.1999078      0.00046457299
     92350   0.82446818    -2.6170275      0             -2.2047934     -0.0068516436 
     92400   0.90586129    -2.6243422      0             -2.1714115     -0.01878066   
     92450   0.98463593    -2.618093       0             -2.125775       0.053023457  
     92500   0.86669325    -2.5542131      0             -2.1208665     -0.031541225  
     92550   0.93587093    -2.6130437      0             -2.1451082     -0.0023622473 
     92600   0.87915174    -2.6243689      0             -2.184793       0.021986529  
     92650   0.82680826    -2.5998277      0             -2.1864235      0.026557181  
     92700   0.81015324    -2.5507341      0             -2.1456574      0.0045063999 
     92750   1.0259616     -2.6214533      0             -2.1084725      0.028114312  
     92800   0.9451251     -2.6198824      0             -2.1473199      0.0047712405 
     92850   0.83359678    -2.5246862      0             -2.1078878      0.0039547871 
     92900   0.86656687    -2.6006746      0             -2.1673912     -5.9528804e-06
     92950   0.974488      -2.6233714      0             -2.1361274      3.2718621e-05
     93000   0.88326517    -2.5790991      0             -2.1374665     -0.0096699096 
     93050   0.86033449    -2.5716728      0             -2.1415055      0.0024940139 
     93100   0.99827618    -2.6221252      0             -2.1229871      0.016292946  
     93150   0.85718581    -2.6157047      0             -2.1871118     -0.020187686  
     93200   0.700973      -2.5678638      0             -2.2173773     -0.0096117407 
     93250   0.89484836    -2.6091487      0             -2.1617245     -0.010481741  
     93300   0.86986202    -2.6163541      0             -2.181423       0.035585423  
     93350   0.78058432    -2.5975319      0             -2.2072397     -0.0044991023 
     93400   0.81446375    -2.609126       0             -2.2018941     -0.016498506  
     93450   0.87142512    -2.6198784      0             -2.1841659      0.011429674  
     93500   0.80861796    -2.6128338      0             -2.2085248     -0.0027970276 
     93550   0.73197771    -2.5917379      0             -2.225749       0.032471551  
     93600   0.81456699    -2.6167277      0             -2.2094442      0.012508298  
     93650   0.7810733     -2.6154381      0             -2.2249014      0.012975783  
     93700   0.78095046    -2.594685       0             -2.2042097      0.012576572  
     93750   0.91108114    -2.6055787      0             -2.1500382      0.010244225  
     93800   0.86734581    -2.6191423      0             -2.1854694      0.0026721291 
     93850   0.91041444    -2.6110763      0             -2.1558691     -0.019695157  
     93900   0.83726358    -2.5948071      0             -2.1761753     -0.065189535  
     93950   0.80526208    -2.6167615      0             -2.2141304      0.0037910462 
     94000   0.71967981    -2.622056       0             -2.2622161      0.0093010723 
     94050   0.69592464    -2.6042651      0             -2.2563028      0.00036997236
     94100   0.66661072    -2.5932565      0             -2.2599512      0.0052290302 
     94150   0.70798197    -2.6216919      0             -2.2677009     -0.0047022289 
     94200   0.66370844    -2.6233875      0             -2.2915333     -0.0068457831 
     94250   0.57761705    -2.6046283      0             -2.3158197     -0.010850081  
     94300   0.54378721    -2.5955451      0             -2.3236515     -0.01224881   
     94350   0.60784019    -2.621084       0             -2.3171639     -0.00020022356
     94400   0.64362951    -2.6181462      0             -2.2963315     -0.017027252  
     94450   0.63520669    -2.5882674      0             -2.2706641     -0.0016137072 
     94500   0.71968635    -2.6145735      0             -2.2547303      0.0074331073 
     94550   0.73879157    -2.6219339      0             -2.2525381      0.034898944  
     94600   0.72901373    -2.5805316      0             -2.2160247     -0.0050559692 
     94650   0.7691632     -2.5956089      0             -2.2110273     -0.0012740565 
     94700   0.83197846    -2.6215309      0             -2.2055417      0.028401618  
     94750   0.80175212    -2.604098       0             -2.2032219     -0.022575169  
     94800   0.80039765    -2.5880314      0             -2.1878325     -0.014302227  
     94850   0.89695421    -2.6192671      0             -2.1707899      0.043002405  
     94900   0.85130335    -2.6036819      0             -2.1780302      0.019804076  
     94950   0.7918178     -2.5815345      0             -2.1856256      0.010719434  
     95000   0.84858539    -2.6184446      0             -2.194152      -0.013927809  
     95050   0.88320985    -2.6166745      0             -2.1750695     -0.0039534377 
     95100   0.94530009    -2.5742269      0             -2.1015769      0.038422902  
     95150   1.0414632     -2.6103908      0             -2.0896591     -0.0022067255 
     95200   1.0877689     -2.6223367      0             -2.0784522     -0.0034091535 
     95250   0.93815829    -2.5875432      0             -2.1184641      0.020018642  
     95300   1.0265988     -2.5928228      0             -2.0795234     -8.5024553e-05
     95350   1.0899364     -2.6219902      0             -2.077022       0.0041128422 
     95400   1.1068875     -2.6026252      0             -2.0491815      0.046927681  
     95450   1.1245022     -2.5719182      0             -2.0096671      0.016594313  
     95500   1.2394345     -2.6207593      0             -2.001042      -0.013154423  
     95550   1.2374711     -2.6207165      0             -2.0019809      0.035312984  
     95600   1.1683001     -2.5854901      0             -2.0013401     -0.0082035802 
     95650   1.251439      -2.5987442      0             -1.9730247      0.0014455141 
     95700   1.3546328     -2.6220269      0             -1.9447105     -0.0086774657 
     95750   1.3420014     -2.5950179      0             -1.9240172      0.0045690069 
     95800   1.4189943     -2.5707347      0             -1.8612376     -0.0021992687 
     95850   1.470215      -2.6185708      0             -1.8834633      0.010612884  
     95900   1.4271308     -2.6199462      0             -1.9063808      0.0021688861 
     95950   1.2376285     -2.5942209      0             -1.9754067      0.00027684455
     96000   1.2867394     -2.607383       0             -1.9640133      0.0086208145 
     96050   1.3665608     -2.6200976      0             -1.9368172     -0.0025755398 
     96100   1.3159502     -2.6094863      0             -1.9515111      0.0051393302 
     96150   1.2838691     -2.5677299      0             -1.9257953     -0.0059873876 
     96200   1.3993623     -2.6134071      0             -1.913726       0.0087503236 
     96250   1.3064823     -2.6225615      0             -1.9693204     -0.0052566382 
     96300   1.1713741     -2.5971266      0             -2.0114396     -0.0015984436 
     96350   1.1126202     -2.5889423      0             -2.0326322      0.011602303  
     96400   1.288333      -2.6220263      0             -1.9778598     -0.0034380912 
     96450   1.2433578     -2.591837       0             -1.9701581     -0.0099059623 
     96500   1.2397409     -2.5932006      0             -1.9733302      0.0042322821 
     96550   1.3113769     -2.6213831      0             -1.9656947      0.0071501767 
     96600   1.3461707     -2.6166         0             -1.9435147     -0.002818174  
     96650   1.4358978     -2.606894       0             -1.8889451     -0.003235591  
     96700   1.4265477     -2.6055421      0             -1.8922683     -0.0053269153 
     96750   1.2798863     -2.6073516      0             -1.9674085     -0.0016329931 
     96800   1.2380971     -2.6094927      0             -1.9904442     -0.0031396369 
     96850   1.1590582     -2.5907612      0             -2.0112321      0.0138203    
     96900   1.1550234     -2.6003202      0             -2.0228085     -0.0091102766 
     96950   1.2546237     -2.6204058      0             -1.9930939     -0.00034532198
     97000   1.1806874     -2.6099156      0             -2.0195719      0.0014793031 
     97050   1.2143157     -2.5875936      0             -1.9804358      0.014386912  
     97100   1.1820563     -2.6101198      0             -2.0190916      0.0063148899 
     97150   1.2315704     -2.6184658      0             -2.0026806     -0.0024889681 
     97200   1.2707522     -2.6040619      0             -1.9686858      0.0082904519 
     97250   1.2430749     -2.601794       0             -1.9802565     -0.00028435955
     97300   1.2636154     -2.6183961      0             -1.9865883      0.011233604  
     97350   1.4061729     -2.619843       0             -1.9167566      0.0073990705 
     97400   1.301165      -2.5999687      0             -1.9493862      0.013571602  
     97450   1.4000889     -2.6097264      0             -1.9096819      0.0021061378 
     97500   1.4416468     -2.6217037      0             -1.9008803      0.019785829  
     97550   1.3674195     -2.6225027      0             -1.9387929     -0.019801678  
     97600   1.3105174     -2.6197511      0             -1.9644924     -0.014037759  
     97650   1.372248      -2.6169266      0             -1.9308026      0.0024102312 
     97700   1.4345589     -2.6189173      0             -1.9016379      0.010369383  
     97750   1.4093506     -2.6211287      0             -1.9164534     -0.0046460033 
     97800   1.4980855     -2.6223116      0             -1.8732688      0.0069851504 
     97850   1.3470454     -2.6148534      0             -1.9413307     -0.0081297935 
     97900   1.3059346     -2.6089184      0             -1.9559512     -0.0077873763 
     97950   1.2827001     -2.6176166      0             -1.9762666     -0.012838952  
     98000   1.4045644     -2.6205381      0             -1.9182559      0.028418346  
     98050   1.4960611     -2.6148611      0             -1.8668305      0.00034108968
     98100   1.5110602     -2.6095544      0             -1.8540243     -0.010284243  
     98150   1.5127665     -2.6167817      0             -1.8603984      0.0047851904 
     98200   1.4775424     -2.6160845      0             -1.8773133     -0.0069149074 
     98250   1.4753017     -2.6086024      0             -1.8709516     -0.008160111  
     98300   1.5405111     -2.6117331      0             -1.8414775      0.014996632  
     98350   1.6356813     -2.6154455      0             -1.7976048      0.0080989681 
     98400   1.5737182     -2.6184456      0             -1.8315865     -0.0065667859 
     98450   1.7046702     -2.6162523      0             -1.7639172      0.029740441  
     98500   1.7165666     -2.608652       0             -1.7503687     -0.015585233  
     98550   1.7027615     -2.605979       0             -1.7545983     -0.0024282688 
     98600   1.7357565     -2.6183946      0             -1.7505164      0.019104322  
     98650   1.6915826     -2.6234127      0             -1.7776214      0.0019974284 
     98700   1.6584012     -2.6224725      0             -1.7932719      0.01819003   
     98750   1.7525912     -2.6166561      0             -1.7403605     -0.0081068634 
     98800   1.5772123     -2.6190967      0             -1.8304905      0.0069059271 
     98850   1.6649164     -2.6236937      0             -1.7912355     -0.0058780645 
     98900   1.7611683     -2.623821       0             -1.7432368      0.0012797556 
     98950   1.5347456     -2.6166506      0             -1.8492778      0.01263757   
     99000   1.5939361     -2.610738       0             -1.8137699      0.007144437  
     99050   1.6876898     -2.6178632      0             -1.7740183     -0.0013426359 
     99100   1.5948232     -2.6201432      0             -1.8227316      0.023544039  
     99150   1.4435072     -2.6193073      0             -1.8975537     -0.0059390709 
     99200   1.3804965     -2.619512       0             -1.9292638      0.037587141  
     99250   1.3432741     -2.6198519      0             -1.9482148      0.0018241399 
     99300   1.2009858     -2.6182731      0             -2.0177802     -0.024751758  
     99350   1.3438157     -2.6183806      0             -1.9464728     -0.013308488  
     99400   1.3072329     -2.6205722      0             -1.9669557     -0.0035300749 
     99450   1.1349253     -2.6170586      0             -2.049596       0.0049827761 
     99500   1.1322827     -2.6172107      0             -2.0510693      0.0097874299 
     99550   1.0820037     -2.6161746      0             -2.0751727      0.033765488  
     99600   1.1119728     -2.6108194      0             -2.054833      -0.015547371  
     99650   1.1317608     -2.6138271      0             -2.0479467     -0.0095313928 
     99700   1.1478374     -2.6223992      0             -2.0484805     -0.015899678  
     99750   1.128741      -2.6225659      0             -2.0581954     -0.0085065142 
     99800   1.0750337     -2.6147758      0             -2.077259       0.01553743   
     99850   1.0433557     -2.6126257      0             -2.0909479      0.042111079  
     99900   1.0278502     -2.620459       0             -2.1065339     -0.0017529723 
     99950   1.0343552     -2.6208838      0             -2.1037063     -0.011844028  
    100000   0.97114786    -2.6052043      0             -2.1196304      0.010608585  
    100001   0.97106708    -2.6049653      0             -2.1194317     -0.020116932  
Loop time of 0.480696 on 1 procs for 100000 steps with 8 atoms

Performance: 89869688.951 tau/day, 208031.687 timesteps/s, 1.664 Matom-step/s
58.5% CPU use with 1 MPI tasks x 1 OpenMP threads

MPI task timing breakdown:
Section |  min time  |  avg time  |  max time  |%varavg| %total
---------------------------------------------------------------
Pair    | 0.037203   | 0.037203   | 0.037203   |   0.0 |  7.74
Bond    | 0.006349   | 0.006349   | 0.006349   |   0.0 |  1.32
Neigh   | 0.012386   | 0.012386   | 0.012386   |   0.0 |  2.58
Comm    | 0.020381   | 0.020381   | 0.020381   |   0.0 |  4.24
Output  | 0.24567    | 0.24567    | 0.24567    |   0.0 | 51.11
Modify  | 0.11163    | 0.11163    | 0.11163    |   0.0 | 23.22
Other   |            | 0.04708    |            |       |  9.79

Nlocal:              8 ave           8 max           8 min
Histogram: 1 0 0 0 0 0 0 0 0 0
Nghost:             24 ave          24 max          24 min
Histogram: 1 0 0 0 0 0 0 0 0 0
Neighs:              0 ave           0 max           0 min
Histogram: 1 0 0 0 0 0 0 0 0 0

Total # of neighbors = 0
Ave neighs/atom = 0
Ave special neighs/atom = 3.25
Neighbor list builds = 4019
Dangerous builds = 0
Total wall time: 0:00:00
