LAMMPS (2 Aug 2023 - Update 3)
OMP_NUM_THREADS environment is not set. Defaulting to 1 thread. (src/comm.cpp:98)
  using 1 OpenMP thread(s) per MPI task
Loaded 1 plugins from F:\LAMMPS\LAMMPS 64-bit 2Aug2023\plugins
# Script to create a Polymer using Patchy Particles (PP)
# Types of Particles:
#   Cross linker:   PPA
#   Monomer:        PPB

# Initialization
units lj
dimension 3
boundary p p p

# Types of atoms and that stuff
atom_style bond
bond_style zero nocoeff
pair_style hybrid/overlay lj/cut 2.5 sw threebody off
newton on

# Get data for box and particles
read_data data.patchyP1.lmp group CL1
Reading data file ...
  orthogonal box = (-5 -5 -5) to (5 5 5)
  1 by 1 by 1 MPI processor grid
  reading atoms ...
  5 atoms
  scanning bonds ...
  4 = max bonds/atom
  reading bonds ...
  4 bonds
Finding 1-2 1-3 1-4 neighbors ...
  special bond factors lj:    0        0        0       
  special bond factors coul:  0        0        0       
     4 = max # of 1-2 neighbors
     3 = max # of 1-3 neighbors
     3 = max # of 1-4 neighbors
     4 = max # of special neighbors
  special bonds CPU = 0.002 seconds
  read_data CPU = 0.008 seconds
read_data data.patchyP2.lmp add append group Mo1
Reading data file ...
  orthogonal box = (-5 -5 -5) to (5 5 5)
  1 by 1 by 1 MPI processor grid
  reading atoms ...
  3 atoms
  scanning bonds ...
  2 = max bonds/atom
  reading bonds ...
  2 bonds
Finding 1-2 1-3 1-4 neighbors ...
  special bond factors lj:    0        0        0       
  special bond factors coul:  0        0        0       
     4 = max # of 1-2 neighbors
     3 = max # of 1-3 neighbors
     3 = max # of 1-4 neighbors
     4 = max # of special neighbors
  special bonds CPU = 0.002 seconds
  read_data CPU = 0.006 seconds

displace_atoms Mo1 move 0.0 0.0 3.0 units box
Displacing atoms ...

# Set the patchy particle interaction
fix CLfix CL1 rigid single
  1 rigid bodies with 5 atoms
fix Mofix Mo1 rigid single
  1 rigid bodies with 3 atoms

#pair_coeff * * sw Patchy.ws CL MO PA PB # i-type j-type pair-style
pair_coeff 1 1 lj/cut 1.0 1.0 1.12 # i-type j-type pair-style eps sigma cutoff
pair_coeff 2 2 lj/cut 1.0 1.0 1.12 # i-type j-type pair-style eps sigma cutoff
pair_coeff 1 2 lj/cut 1.0 1.0 1.12 # i-type j-type pair-style eps sigma cutoff
pair_coeff 3 3 none
pair_coeff 1 3 none
pair_coeff 1 4 none
pair_coeff 2 3 none
pair_coeff 2 4 none
pair_coeff 3 4 sw Patchy.ws NULL NULL PA PB # i-type j-type pair-style
  disabling sw potential three-body terms
pair_coeff 4 4 sw Patchy.ws NULL NULL NULL PB # i-type j-type eps sigma cutoff wca
pair_modify shift yes

# Neighbor list
neighbor 0.3 bin # extra-distance style
#neigh_modify delay 5

minimize 1.0e-4 1.0e-6 1000 10000 # etol ftol maxiter maxeval
WARNING: Using a manybody potential with bonds/angles/dihedrals and special_bond exclusions (src/pair.cpp:242)
WARNING: More than one fix rigid (src/RIGID/fix_rigid.cpp:709)
WARNING: More than one fix rigid (src/RIGID/fix_rigid.cpp:709)
Neighbor list info ...
  update: every = 1 steps, delay = 0 steps, check = yes
  max neighbors/atom: 2000, page size: 100000
  master list distance cutoff = 1.42
  ghost atom cutoff = 1.42
  binsize = 0.71, bins = 15 15 15
  3 neighbor lists, perpetual/occasional/extra = 3 0 0
  (1) pair lj/cut, perpetual, skip from (3)
      attributes: half, newton on
      pair build: skip
      stencil: none
      bin: none
  (2) pair sw, perpetual, skip from (3)
      attributes: half, newton on
      pair build: skip
      stencil: none
      bin: none
  (3) neighbor class addition, perpetual
      attributes: half, newton on
      pair build: half/bin/newton
      stencil: half/bin/3d
      bin: standard
Per MPI rank memory allocation (min/avg/max) = 9.541 | 9.541 | 9.541 Mbytes
   Step          Temp          E_pair         E_mol          TotEng         Press     
         0   0              0              0              0              0.0016666667 
         1   0              0              0              0              0.0016666667 
Loop time of 0.000156 on 1 procs for 1 steps with 8 atoms

0.0% CPU use with 1 MPI tasks x 1 OpenMP threads

Minimization stats:
  Stopping criterion = search direction is not downhill
  Energy initial, next-to-last, final = 
                     0                  0                  0
  Force two-norm initial, final = 0 0
  Force max component initial, final = 0 0
  Final line search alpha, max atom move = 0 0
  Iterations, force evaluations = 1 0

MPI task timing breakdown:
Section |  min time  |  avg time  |  max time  |%varavg| %total
---------------------------------------------------------------
Pair    | 3e-06      | 3e-06      | 3e-06      |   0.0 |  1.92
Bond    | 0          | 0          | 0          |   0.0 |  0.00
Neigh   | 0          | 0          | 0          |   0.0 |  0.00
Comm    | 1e-06      | 1e-06      | 1e-06      |   0.0 |  0.64
Output  | 0          | 0          | 0          |   0.0 |  0.00
Modify  | 0          | 0          | 0          |   0.0 |  0.00
Other   |            | 0.000152   |            |       | 97.44

Nlocal:              8 ave           8 max           8 min
Histogram: 1 0 0 0 0 0 0 0 0 0
Nghost:              0 ave           0 max           0 min
Histogram: 1 0 0 0 0 0 0 0 0 0
Neighs:              0 ave           0 max           0 min
Histogram: 1 0 0 0 0 0 0 0 0 0

Total # of neighbors = 0
Ave neighs/atom = 0
Ave special neighs/atom = 3.25
Neighbor list builds = 0
Dangerous builds = 0

fix 1 all langevin 1.0 1.0 50.0 12345
fix 2 all nve

thermo 50
compute t all temp
compute ep all pe
compute ek all ke
compute tm all momentum

dump 1 all atom 50 dump.patchy_pairs1_ng_proofs

timestep 0.005
run 100000
WARNING: Using a manybody potential with bonds/angles/dihedrals and special_bond exclusions (src/pair.cpp:242)
WARNING: More than one fix rigid (src/RIGID/fix_rigid.cpp:709)
WARNING: More than one fix rigid (src/RIGID/fix_rigid.cpp:709)
WARNING: One or more atoms are time integrated more than once (src/modify.cpp:289)
Per MPI rank memory allocation (min/avg/max) = 8.416 | 8.416 | 8.416 Mbytes
   Step          Temp          E_pair         E_mol          TotEng         Press     
         1   0              0              0              0              0            
        50   0.013965072    0              0              0.006982536    0.00035102054
       100   0.032232979    0              0              0.01611649    -0.013897484  
       150   0.045246173    0              0              0.022623087    0.01196909   
       200   0.045130839    0              0              0.022565419   -0.0023983544 
       250   0.075483221    0              0              0.037741611   -0.00013185037
       300   0.080889413    0              0              0.040444707   -0.0036137298 
       350   0.088340262    0              0              0.044170131   -0.0203071    
       400   0.070381173    0              0              0.035190586   -0.0045513078 
       450   0.081487744    0              0              0.040743872    0.0075198958 
       500   0.070849119    0              0              0.035424559   -0.004052376  
       550   0.070002125    0              0              0.035001062   -0.0027758752 
       600   0.07037931     0              0              0.035189655   -0.0047480531 
       650   0.093042209    0              0              0.046521105    0.006447284  
       700   0.1025858      0              0              0.051292898   -0.00069329157
       750   0.11543214     0              0              0.057716068   -0.0024430606 
       800   0.10757105     0              0              0.053785524    0.001339036  
       850   0.13646833     0              0              0.068234165    0.0071131423 
       900   0.13156647     0              0              0.065783237    0.0040194771 
       950   0.15692314     0              0              0.07846157     0.019642565  
      1000   0.14163837     0              0              0.070819185    0.0072123942 
      1050   0.16949273     0              0              0.084746367   -0.001648043  
      1100   0.1474823      0              0              0.073741148    0.0058174678 
      1150   0.14498543     0              0              0.072492713    0.0022318216 
      1200   0.16915617     0              0              0.084578083   -0.00389583   
      1250   0.13308459     0              0              0.066542297   -0.0071989607 
      1300   0.17675625     0              0              0.088378124   -0.0031054797 
      1350   0.1712953      0              0              0.085647648   -0.0012120829 
      1400   0.1896382      0              0              0.094819098   -0.0090721919 
      1450   0.17718712     0              0              0.088593558    0.0086264836 
      1500   0.21706297     0              0              0.10853149     0.010543861  
      1550   0.27155684     0              0              0.13577842     0.0051868719 
      1600   0.29955301     0              0              0.1497765     -0.0063902149 
      1650   0.30777609     0              0              0.15388805    -0.0050572725 
      1700   0.39091149     0              0              0.19545574     0.0085543248 
      1750   0.40465773     0              0              0.20232886     0.010296311  
      1800   0.41809374     0              0              0.20904687     0.0076317367 
      1850   0.42358091     0              0              0.21179045    -0.0018390581 
      1900   0.43944582     0              0              0.21972291     0.0095930483 
      1950   0.47182166     0              0              0.23591083     0.020436705  
      2000   0.48070218     0              0              0.24035109     0.015085874  
      2050   0.39078269     0              0              0.19539134     0.00087020619
      2100   0.42322682     0              0              0.21161341    -0.007075402  
      2150   0.49162058     0              0              0.24581029    -0.013291048  
      2200   0.46495225     0              0              0.23247613    -0.0055008646 
      2250   0.47724817     0              0              0.23862408    -0.018093134  
      2300   0.50366447     0              0              0.25183223    -0.013139877  
      2350   0.49242004     0              0              0.24621002     0.010897294  
      2400   0.41094124     0              0              0.20547062     0.020676026  
      2450   0.35504636     0              0              0.17752318    -0.0024086389 
      2500   0.25992298     0              0              0.12996149     0.0017088376 
      2550   0.2769368      0              0              0.1384684     -0.0029451577 
      2600   0.25658237     0              0              0.12829118     0.008327607  
      2650   0.27767711     0              0              0.13883856     0.0063449012 
      2700   0.33065685     0              0              0.16532843     0.012681388  
      2750   0.24664315     0              0              0.12332157    -0.0031736862 
      2800   0.22793709     0              0              0.11396855    -0.012505176  
      2850   0.23455322     0              0              0.11727661     0.0094596348 
      2900   0.22229517     0              0              0.11114758     0.017549267  
      2950   0.29084834     0              0              0.14542417     0.015233365  
      3000   0.27633694     0              0              0.13816847    -0.025521712  
      3050   0.32101939     0              0              0.16050969     0.012797719  
      3100   0.28143692     0              0              0.14071846    -0.0071580545 
      3150   0.26406915     0              0              0.13203457     0.02537927   
      3200   0.25328098     0              0              0.12664049     9.6682227e-05
      3250   0.26783648     0              0              0.13391824    -0.026302296  
      3300   0.30784229     0              0              0.15392114     0.005802413  
      3350   0.27353969     0              0              0.13676985     0.018349896  
      3400   0.26532423     0              0              0.13266212     0.028030606  
      3450   0.30900576     0              0              0.15450288     0.00048864551
      3500   0.37074711     0              0              0.18537356    -0.01534476   
      3550   0.31333952     0              0              0.15666976     0.0059101058 
      3600   0.41654793     0              0              0.20827397     0.0075431316 
      3650   0.40875241     0              0              0.20437621    -0.0075134089 
      3700   0.46366812     0              0              0.23183406     0.0035409084 
      3750   0.47619523     0              0              0.23809762    -0.015731891  
      3800   0.50997325     0              0              0.25498663    -0.017179117  
      3850   0.5337176      0              0              0.2668588      0.014404938  
      3900   0.59579952     0              0              0.29789976    -0.020243267  
      3950   0.58449552     0              0              0.29224776    -0.0072791523 
      4000   0.49430323     0              0              0.24715162     0.016972295  
      4050   0.50743896     0              0              0.25371948     0.02033718   
      4100   0.5424712      0              0              0.2712356      0.0090988739 
      4150   0.53444705     0              0              0.26722353     0.012441811  
      4200   0.53097129     0              0              0.26548565     0.012265701  
      4250   0.4626195      0              0              0.23130975    -0.0041239497 
      4300   0.41278804     0              0              0.20639402     0.0084130968 
      4350   0.31083496     0              0              0.15541748    -0.013801314  
      4400   0.36161433     0              0              0.18080717     0.0041093623 
      4450   0.4520847      0              0              0.22604235     0.0076375944 
      4500   0.39203276     0              0              0.19601638    -0.0028005324 
      4550   0.42682968     0              0              0.21341484     0.013805422  
      4600   0.45905063     0              0              0.22952531     0.0092119445 
      4650   0.44852612     0              0              0.22426306    -0.0074198635 
      4700   0.45642134     0              0              0.22821067    -0.0043631004 
      4750   0.35168397     0              0              0.17584199     0.014963449  
      4800   0.33871587     0              0              0.16935793     2.3066748e-05
      4850   0.3463085      0              0              0.17315425     0.010022245  
      4900   0.32921529     0              0              0.16460765     0.0057952079 
      4950   0.42971229     0              0              0.21485614     0.00014380372
      5000   0.39765765     0              0              0.19882882     0.0069182615 
      5050   0.39879196     0              0              0.19939598    -0.0068992653 
      5100   0.40302702     0              0              0.20151351     0.013087692  
      5150   0.4250336      0              0              0.2125168      0.001414843  
      5200   0.40518125     0              0              0.20259063     0.00094243666
      5250   0.38150565     0              0              0.19075282    -0.0055449282 
      5300   0.37879228     0              0              0.18939614     0.00397024   
      5350   0.45237316     0              0              0.22618658     0.0043049347 
      5400   0.45335299     0              0              0.22667649    -0.0010942533 
      5450   0.45621774     0              0              0.22810887     0.0037079119 
      5500   0.44858618     0              0              0.22429309    -0.0028658485 
      5550   0.580845       0              0              0.2904225     -0.0044662005 
      5600   0.56597586     0              0              0.28298793     0.0020855376 
      5650   0.51928166     0              0              0.25964083    -0.012510571  
      5700   0.53389163     0              0              0.26694582    -0.0059221193 
      5750   0.51344575     0              0              0.25672287    -0.0063367381 
      5800   0.39999043     0              0              0.19999521    -0.013969817  
      5850   0.37997465     0              0              0.18998733    -0.0050763003 
      5900   0.34239315     0              0              0.17119658    -0.026052557  
      5950   0.38638877     0              0              0.19319438     0.0045588822 
      6000   0.39658192     0              0              0.19829096     0.0072273838 
      6050   0.42266234     0              0              0.21133117    -0.00050565295
      6100   0.37364684     0              0              0.18682342    -0.0076825313 
      6150   0.39074218     0              0              0.19537109     0.00018724346
      6200   0.33324135     0              0              0.16662067    -0.0047192963 
      6250   0.37161043     0              0              0.18580521     0.0025007022 
      6300   0.33732306     0              0              0.16866153     0.0094653295 
      6350   0.35097542     0              0              0.17548771     0.0086040005 
      6400   0.24375149     0              0              0.12187575    -0.0059643641 
      6450   0.28801399     0              0              0.144007      -0.0018053082 
      6500   0.34444874     0              0              0.17222437    -0.0052024017 
      6550   0.31590746     0              0              0.15795373     0.0024994283 
      6600   0.34905228     0              0              0.17452614     0.0013457643 
      6650   0.36916093     0              0              0.18458046    -0.016505232  
      6700   0.39619838     0              0              0.19809919    -0.025205547  
      6750   0.35433455     0              0              0.17716727     0.0017977158 
      6800   0.42325103     0              0              0.21162552    -0.019163708  
      6850   0.49397447     0              0              0.24698723    -0.00080995653
      6900   0.59366386     0              0              0.29683193    -0.0064400833 
      6950   0.64773196     0              0              0.32386598    -0.020251015  
      7000   0.54378945     0              0              0.27189473    -0.0206924    
      7050   0.48434691     0              0              0.24217345    -0.0064981214 
      7100   0.53909064     0              0              0.26954532     0.014552201  
      7150   0.52855843     0              0              0.26427922     0.0088757164 
      7200   0.49699324     0              0              0.24849662     0.0011307646 
      7250   0.66124183     0              0              0.33062091    -0.00053178155
      7300   0.62490973     0              0              0.31245486     0.0019250148 
      7350   0.673105       0              0              0.3365525      0.0028280702 
      7400   0.64740697     0              0              0.32370349     0.012429859  
      7450   0.7351226      0              0              0.3675613      0.00068983015
      7500   0.67269724     0              0              0.33634862     0.0067696128 
      7550   0.75147412     0              0              0.37573706    -0.0011079799 
      7600   0.7317617      0              0              0.36588085     0.013018546  
      7650   0.70919463     0              0              0.35459732    -0.030173624  
      7700   0.70694724     0              0              0.35347362    -0.0085230607 
      7750   0.70839339     0              0              0.3541967      0.0019579105 
      7800   0.76695131     0              0              0.38347565    -0.013544357  
      7850   0.75361572     0              0              0.37680786     0.0063528501 
      7900   0.71373547     0              0              0.35686773     0.0031877237 
      7950   0.69673518     0              0              0.34836759     0.021309033  
      8000   0.5996757      0              0              0.29983785     0.010752763  
      8050   0.58308633     0              0              0.29154317     0.0066761543 
      8100   0.65486789     0              0              0.32743394     0.0097735508 
      8150   0.8121164      0              0              0.4060582     -0.0046224337 
      8200   0.91658805     0              0              0.45829402    -0.029402041  
      8250   0.88731758     0              0              0.44365879     0.010734341  
      8300   0.85666326     0              0              0.42833163     0.0022579482 
      8350   0.84553003     0              0              0.42276501    -0.027621858  
      8400   0.80593659     0              0              0.4029683      0.025451191  
      8450   0.76535651     0              0              0.38267825     0.02012049   
      8500   0.86855171     0              0              0.43427585     0.021711449  
      8550   0.69933986     0              0              0.34966993    -0.0065180218 
      8600   0.76203074     0              0              0.38101537    -0.010837114  
      8650   0.66731629     0              0              0.33365814    -0.017940188  
      8700   0.69117322     0              0              0.34558661     0.0066789924 
      8750   0.73212949     0              0              0.36606475    -0.0073334932 
      8800   0.70542915     0              0              0.35271457     0.0011827377 
      8850   0.73671257     0              0              0.36835629     0.033224353  
      8900   0.75024528     0              0              0.37512264    -0.049849893  
      8950   0.81324315     0              0              0.40662157     0.010294155  
      9000   0.8581781      0              0              0.42908905    -0.018329125  
      9050   0.92405706     0              0              0.46202853     0.016216604  
      9100   0.96295193     0              0              0.48147596    -0.011142727  
      9150   0.99813663     0              0              0.49906831    -0.015343332  
      9200   0.99759896     0              0              0.49879948    -0.0031151286 
      9250   0.92939155     0              0              0.46469577     0.0017906672 
      9300   0.78106617     0              0              0.39053308    -0.011067657  
      9350   0.86191344     0              0              0.43095672    -0.014056109  
      9400   0.93055336     0              0              0.46527668     0.026748975  
      9450   0.83799133     0              0              0.41899567     0.020997105  
      9500   0.90188266     0              0              0.45094133     0.017022802  
      9550   0.93572109     0              0              0.46786055    -0.01360026   
      9600   0.86676028     0              0              0.43338014     0.0014223611 
      9650   0.91309313     0              0              0.45654657    -0.016512793  
      9700   0.98385661     0              0              0.4919283      0.015132799  
      9750   0.94982605     0              0              0.47491302    -0.02099437   
      9800   0.98484543     0              0              0.49242272    -0.014662056  
      9850   1.0199074      0              0              0.5099537      0.016047041  
      9900   1.0440767      0              0              0.52203834     0.013487291  
      9950   1.0553362      0              0              0.52766811    -0.0019461668 
     10000   1.179427       0              0              0.58971351     0.015257598  
     10050   1.2594813      0              0              0.62974063    -0.022467505  
     10100   1.3281377      0              0              0.66406887    -0.0086919789 
     10150   1.3351449      0              0              0.66757246     0.019801481  
     10200   1.4445699      0              0              0.72228495     0.0056639026 
     10250   1.4095998      0              0              0.70479992     0.022678306  
     10300   1.3023113      0              0              0.65115566    -0.0032010666 
     10350   1.2909252      0              0              0.6454626      0.0032042028 
     10400   1.3579796      0              0              0.67898981     0.0068955948 
     10450   1.4115074      0              0              0.70575369    -0.01661988   
     10500   1.4944421      0              0              0.74722107    -0.022976328  
     10550   1.426998       0              0              0.71349899    -0.018210429  
     10600   1.3260009      0              0              0.66300047     0.0024670857 
     10650   1.3444599      0              0              0.67222995     0.012141999  
     10700   1.4581934      0              0              0.72909668    -0.003739898  
     10750   1.4091744      0              0              0.70458719     0.0011230063 
     10800   1.3969878      0              0              0.69849392     0.00083238202
     10850   1.488875       0              0              0.7444375     -0.0064174225 
     10900   1.3993387      0              0              0.69966933     0.0019211205 
     10950   1.363771       0              0              0.68188549    -0.0059528773 
     11000   1.348171       0              0              0.67408548     0.027881103  
     11050   1.4436384      0              0              0.72181919     0.0027046565 
     11100   1.4661621      0              0              0.73308105    -0.0057149742 
     11150   1.3597005      0              0              0.67985024     0.00020340798
     11200   1.3910222      0              0              0.69551112     0.017336901  
     11250   1.2365302      0              0              0.6182651      0.014860767  
     11300   1.1704251      0              0              0.58521256     0.025749456  
     11350   1.2164254      0              0              0.60821272     0.015837703  
     11400   1.3152372      0              0              0.65761859     0.0074550963 
     11450   1.4121594      0              0              0.7060797     -0.0049514282 
     11500   1.3240849      0              0              0.66204246     0.0096267241 
     11550   1.3254304      0              0              0.66271519     0.020889446  
     11600   1.2755369      0              0              0.63776845     0.028003056  
     11650   1.1534988      0              0              0.5767494      0.0011920745 
     11700   1.247975       0              0              0.6239875      0.017746787  
     11750   1.1973369      0              0              0.59866846    -0.000924679  
     11800   1.1187861      0              0              0.55939307    -0.012249127  
     11850   1.2160887      0              0              0.60804434     0.0012003127 
     11900   1.0927215      0              0              0.54636077    -0.0079343382 
     11950   1.0780623      0              0              0.53903116    -0.015990033  
     12000   1.1188534      0              0              0.5594267      0.0091683128 
     12050   1.1567973      0              0              0.57839864    -0.0078836234 
     12100   1.1791586      0              0              0.58957928     0.0028632909 
     12150   1.2639983      0              0              0.63199914     0.0029867833 
     12200   1.2825376      0              0              0.6412688      0.013715159  
     12250   1.3088009      0              0              0.65440047    -0.0091256211 
     12300   1.3560743      0              0              0.67803713     0.02866013   
     12350   1.2209237      0              0              0.61046184     0.017559465  
     12400   1.246995       0              0              0.62349748     0.010990833  
     12450   1.1407171      0              0              0.57035853    -0.02035315   
     12500   1.0586807      0              0              0.52934037     0.039426706  
     12550   1.0909989      0              0              0.54549944    -0.031224456  
     12600   1.1012718      0              0              0.55063591     0.0049217979 
     12650   1.0970646      0              0              0.54853229     0.0010391099 
     12700   1.1299067      0              0              0.56495335     0.00055170162
     12750   1.2665706      0              0              0.63328531     0.018607189  
     12800   1.3269618      0              0              0.66348091    -0.0076591843 
     12850   1.313078       0              0              0.65653902     0.024929241  
     12900   1.3868374      0              0              0.69341872     0.017462264  
     12950   1.5560998      0              0              0.77804992     0.019951195  
     13000   1.4197326      0              0              0.70986629    -0.015942238  
     13050   1.3663385      0              0              0.68316927    -0.026423642  
     13100   1.2393711      0              0              0.61968557    -0.0092499027 
     13150   1.1075233      0              0              0.55376167    -0.0033732009 
     13200   0.97972182     0              0              0.48986091     0.012953062  
     13250   0.82737458     0              0              0.41368729    -0.01662814   
     13300   0.78415698     0              0              0.39207849    -0.0066307651 
     13350   0.7471556      0              0              0.3735778     -0.023394344  
     13400   0.77016534     0              0              0.38508267     0.010740001  
     13450   0.771351       0              0              0.3856755     -0.0056054212 
     13500   0.66085252     0              0              0.33042626    -0.0073041759 
     13550   0.69368211     0              0              0.34684106     0.032761411  
     13600   0.73721116     0              0              0.36860558     0.02908749   
     13650   0.69670098     0              0              0.34835049     0.02262589   
     13700   0.5611609      0              0              0.28058045     0.0049012158 
     13750   0.66214399     0              0              0.331072      -0.022004189  
     13800   0.60434461     0              0              0.30217231    -0.02043111   
     13850   0.63042347     0              0              0.31521173    -0.011482681  
     13900   0.70407856     0              0              0.35203928    -4.3750813e-05
     13950   0.84532937     0              0              0.42266468    -0.0087787766 
     14000   0.90172754     0              0              0.45086377     0.0032282586 
     14050   0.86215012     0              0              0.43107506     0.011622117  
     14100   0.87536458     0              0              0.43768229     0.0030223188 
     14150   0.75252541     0              0              0.3762627      0.017027636  
     14200   0.67571671     0              0              0.33785835    -0.037383161  
     14250   0.71778755     0              0              0.35889378    -0.032981187  
     14300   0.77060673     0              0              0.38530336     0.0070654596 
     14350   0.75969436     0              0              0.37984718     0.022830441  
     14400   0.66062036     0              0              0.33031018     0.019813542  
     14450   0.66438877     0              0              0.33219438    -0.020362381  
     14500   0.62737736     0              0              0.31368868    -0.010627233  
     14550   0.52245159     0              0              0.2612258     -0.018374162  
     14600   0.48862749     0              0              0.24431374    -0.012172106  
     14650   0.52378039     0              0              0.26189019    -0.023209964  
     14700   0.458437       0              0              0.2292185     -0.012705601  
     14750   0.48279333     0              0              0.24139667     0.021625482  
     14800   0.52863004     0              0              0.26431502    -0.029618913  
     14850   0.56826884     0              0              0.28413442     0.0011640081 
     14900   0.51086284     0              0              0.25543142    -0.019386528  
     14950   0.51867551     0              0              0.25933775    -0.0037577074 
     15000   0.5491466      0              0              0.2745733      6.838774e-05 
     15050   0.48987446     0              0              0.24493723    -0.010639583  
     15100   0.43544855     0              0              0.21772427     0.0036800947 
     15150   0.41450623     0              0              0.20725311    -0.0027636034 
     15200   0.46205461     0              0              0.23102731    -0.0047812971 
     15250   0.45574073     0              0              0.22787037     0.0031060007 
     15300   0.45010509     0              0              0.22505254    -0.0032342371 
     15350   0.49020114     0              0              0.24510057     0.011822886  
     15400   0.43951009     0              0              0.21975504     0.01127866   
     15450   0.47206657     0              0              0.23603328     0.0065693761 
     15500   0.48018747     0              0              0.24009374    -0.00034515183
     15550   0.44179753     0              0              0.22089877     0.0044771431 
     15600   0.40611279     0              0              0.2030564      0.0065419471 
     15650   0.40322052     0              0              0.20161026    -0.0076760829 
     15700   0.39473947     0              0              0.19736974    -0.0012559191 
     15750   0.3664834      0              0              0.1832417      0.002459488  
     15800   0.36285743     0              0              0.18142872     0.0016129942 
     15850   0.35920398     0              0              0.17960199     0.0059750707 
     15900   0.28560476     0              0              0.14280238    -0.016313392  
     15950   0.29764323     0              0              0.14882161    -0.017665139  
     16000   0.33307251     0              0              0.16653626     0.0096641195 
     16050   0.36014593     0              0              0.18007297    -0.0068323282 
     16100   0.3506789      0              0              0.17533945    -0.0041506953 
     16150   0.32553516     0              0              0.16276758    -0.0047277567 
     16200   0.36760336     0              0              0.18380168    -0.0029995562 
     16250   0.3176843      0              0              0.15884215     0.012795429  
     16300   0.33262344     0              0              0.16631172    -0.010236683  
     16350   0.25986836     0              0              0.12993418     0.0049667212 
     16400   0.34421132     0              0              0.17210566     0.0036148635 
     16450   0.36950656     0              0              0.18475328     0.012079195  
     16500   0.44260237     0              0              0.22130119    -0.0079548256 
     16550   0.42524322     0              0              0.21262161     0.0075305178 
     16600   0.41448994     0              0              0.20724497    -0.0017580258 
     16650   0.40233692     0              0              0.20116846    -0.00052449419
     16700   0.44240345     0              0              0.22120173    -0.0094438984 
     16750   0.449694       0              0              0.224847      -0.0046937126 
     16800   0.54030199     0              0              0.270151       0.0020447963 
     16850   0.54884067     0              0              0.27442034    -0.0098079783 
     16900   0.51121875     0              0              0.25560938     0.001526089  
     16950   0.45721543     0              0              0.22860772    -0.0038852146 
     17000   0.47766662     0              0              0.23883331    -0.0047688705 
     17050   0.4449241      0              0              0.22246205     0.00067923902
     17100   0.44195957     0              0              0.22097979     0.0080389794 
     17150   0.4665032      0              0              0.2332516     -0.0062446107 
     17200   0.51739096     0              0              0.25869548     0.010323775  
     17250   0.58943726     0              0              0.29471863     0.01177658   
     17300   0.53093673     0              0              0.26546837     0.0028596967 
     17350   0.42395444     0              0              0.21197722    -0.0020225847 
     17400   0.40539112     0              0              0.20269556    -0.0023874432 
     17450   0.4178817      0              0              0.20894085    -0.0054404806 
     17500   0.45230293     0              0              0.22615147    -0.0063400369 
     17550   0.51087442     0              0              0.25543721    -0.010950417  
     17600   0.53056364     0              0              0.26528182     0.020973215  
     17650   0.50017459     0              0              0.2500873     -0.0094342236 
     17700   0.56513348     0              0              0.28256674    -0.012768024  
     17750   0.57146364     0              0              0.28573182    -0.0028224008 
     17800   0.5922029      0              0              0.29610145     0.006187497  
     17850   0.61701437     0              0              0.30850719     0.0019425186 
     17900   0.58656311     0              0              0.29328156    -0.0027259138 
     17950   0.61401879     0              0              0.3070094     -0.01823601   
     18000   0.64913218     0              0              0.32456609     0.0074694974 
     18050   0.7091511      0              0              0.35457555     0.016255782  
     18100   0.71195143     0              0              0.35597571    -0.012723567  
     18150   0.73833425     0              0              0.36916712     0.0082875771 
     18200   0.66002426     0              0              0.33001213     0.0081829767 
     18250   0.62833393     0              0              0.31416697     0.023986159  
     18300   0.68914002     0              0              0.34457001     0.0104485    
     18350   0.73164921     0              0              0.3658246     -0.0070801434 
     18400   0.68399995     0              0              0.34199997     0.0091527701 
     18450   0.75395968     0              0              0.37697984    -0.015009042  
     18500   0.70313948     0              0              0.35156974    -0.0044350013 
     18550   0.62540667     0              0              0.31270334    -0.013089489  
     18600   0.63036199     0              0              0.31518099     0.006061059  
     18650   0.61562812     0              0              0.30781406    -0.0038289398 
     18700   0.60216431     0              0              0.30108216    -0.014569295  
     18750   0.59979338     0              0              0.29989669    -0.011873711  
     18800   0.61125544     0              0              0.30562772     0.0093041749 
     18850   0.66305637     0              0              0.33152818     0.017374918  
     18900   0.70417674     0              0              0.35208837    -0.016981019  
     18950   0.69975213     0              0              0.34987607     0.0050501083 
     19000   0.66160519     0              0              0.3308026      0.017485671  
     19050   0.72560398     0              0              0.36280199     0.016654123  
     19100   0.68719547     0              0              0.34359774    -0.0046720205 
     19150   0.68324299     0              0              0.3416215     -0.0089829222 
     19200   0.73022727     0              0              0.36511364     0.0028957742 
     19250   0.65712097     0              0              0.32856048    -0.0061931956 
     19300   0.66906616     0              0              0.33453308    -0.012161945  
     19350   0.78606628     0              0              0.39303314    -0.02325794   
     19400   0.79373939     0              0              0.39686969    -0.019343507  
     19450   0.84432225     0              0              0.42216112    -0.0065489331 
     19500   0.83315271     0              0              0.41657635     0.030492065  
     19550   0.90612736     0              0              0.45306368     0.062667444  
     19600   0.92961254     0              0              0.46480627     0.043365261  
     19650   0.8849378      0              0              0.4424689     -0.003245612  
     19700   0.86038744     0              0              0.43019372     0.0083092175 
     19750   0.7832795      0              0              0.39163975     0.006620265  
     19800   0.74744368     0              0              0.37372184     0.024984844  
     19850   0.80275987     0              0              0.40137993     0.011868094  
     19900   0.80749912     0              0              0.40374956     0.028852247  
     19950   0.74661145     0              0              0.37330572     0.017807875  
     20000   0.80951126     0              0              0.40475563     2.8880381e-05
     20050   0.7861149      0              0              0.39305745     0.014106124  
     20100   0.81227221     0              0              0.4061361      0.019296344  
     20150   0.71836918     0              0              0.35918459    -0.0021474179 
     20200   0.67361927     0              0              0.33680964    -0.0011038694 
     20250   0.63356777     0              0              0.31678388    -0.021971599  
     20300   0.73462306     0              0              0.36731153     0.034963493  
     20350   0.77229247     0              0              0.38614624     0.0040490736 
     20400   0.87641373     0              0              0.43820686     0.0046986315 
     20450   0.95604095     0              0              0.47802047    -0.011897329  
     20500   0.93265469     0              0              0.46632735     0.0096737982 
     20550   0.89727598     0              0              0.44863799    -0.009297005  
     20600   0.87160165     0              0              0.43580083    -0.00036732697
     20650   0.86737794     0              0              0.43368897    -0.011588449  
     20700   0.98140012     0              0              0.49070006    -0.011231287  
     20750   1.0449815      0              0              0.52249073    -0.0059443479 
     20800   1.045505       0              0              0.52275252     0.018432407  
     20850   0.83645632     0              0              0.41822816    -0.020300308  
     20900   0.8236227      0              0              0.41181135     0.0088210616 
     20950   0.71146344     0              0              0.35573172    -0.018676049  
     21000   0.8123881      0              0              0.40619405     0.0088553485 
     21050   0.75211514     0              0              0.37605757     0.024548941  
     21100   0.68119928     0              0              0.34059964     0.039211333  
     21150   0.72076624     0              0              0.36038312     0.018193245  
     21200   0.73969907     0              0              0.36984953     0.010199459  
     21250   0.69158833     0              0              0.34579417     0.0083401001 
     21300   0.66583039     0              0              0.33291519    -0.015461182  
     21350   0.64860881     0              0              0.32430441    -0.022293068  
     21400   0.63200931     0              0              0.31600465     0.014754453  
     21450   0.64574068     0              0              0.32287034     0.0037380146 
     21500   0.67070522     0              0              0.33535261    -0.0003196999 
     21550   0.6940507      0              0              0.34702535     0.0003920568 
     21600   0.71952575     0              0              0.35976287     0.0037071832 
     21650   0.71215376     0              0              0.35607688     0.010170307  
     21700   0.7002474      0              0              0.3501237      0.017731855  
     21750   0.67974723     0              0              0.33987362     0.013599646  
     21800   0.61657655     0              0              0.30828828    -0.012205162  
     21850   0.62125393     0              0              0.31062696    -0.018212684  
     21900   0.56065068     0              0              0.28032534    -0.0067790193 
     21950   0.65131604     0              0              0.32565802    -0.01200597   
     22000   0.7207108      0              0              0.3603554     -0.022456125  
     22050   0.77478923     0              0              0.38739461     0.023693444  
     22100   0.71837186     0              0              0.35918593     0.006092929  
     22150   0.69631779     0              0              0.3481589      0.0070354682 
     22200   0.76242284     0              0              0.38121142     0.034680635  
     22250   0.85205995     0              0              0.42602997     0.035535462  
     22300   0.87720522     0              0              0.43860261     0.027279205  
     22350   0.98698844     0              0              0.49349422     0.017371381  
     22400   0.92312359     0              0              0.46156179    -0.0053159931 
     22450   0.9592765      0              0              0.47963825     0.0002756326 
     22500   0.9009121      0              0              0.45045605    -0.0042769057 
     22550   0.85820385     0              0              0.42910193     0.031969215  
     22600   0.75619831     0              0              0.37809916    -0.020489065  
     22650   0.75507817     0              0              0.37753909    -0.0071377456 
     22700   0.828827       0              0              0.4144135      0.012947585  
     22750   0.79917486     0              0              0.39958743     0.0060154095 
     22800   0.76948036     0              0              0.38474018     0.0038140528 
     22850   0.80617257     0              0              0.40308629     0.0042024235 
     22900   0.75286488     0              0              0.37643244    -0.012468894  
     22950   0.78933181     0              0              0.3946659     -0.004334116  
     23000   0.78347633     0              0              0.39173817    -0.0036000677 
     23050   0.78691387     0              0              0.39345693    -0.0029070492 
     23100   0.847318       0              0              0.423659       0.0065782155 
     23150   0.85459792     0              0              0.42729896    -0.015142058  
     23200   0.89908536     0              0              0.44954268    -0.0031648523 
     23250   0.91387937     0              0              0.45693969     0.010489809  
     23300   1.0109798      0              0              0.50548992    -0.011977085  
     23350   1.1186883      0              0              0.55934413    -0.018821913  
     23400   1.1969012      0              0              0.5984506     -0.024311064  
     23450   1.0907152      0              0              0.54535759    -0.022321542  
     23500   1.0845593      0              0              0.54227966    -0.027342282  
     23550   1.0945711      0              0              0.54728556    -0.01028901   
     23600   1.1463155      0              0              0.57315773    -0.0062970416 
     23650   1.1256257      0              0              0.56281283     0.0021936162 
     23700   1.2054845      0              0              0.60274227     0.0075213794 
     23750   1.180686       0              0              0.59034298    -0.0011183067 
     23800   1.1681741      0              0              0.58408703     0.010026806  
     23850   1.2084059      0              0              0.60420295    -0.0020327256 
     23900   1.2411341      0              0              0.62056707    -0.007505987  
     23950   1.1817191      0              0              0.59085955    -0.0022285954 
     24000   1.2277199      0              0              0.61385994    -0.006145442  
     24050   1.2959651      0              0              0.64798253    -0.021844853  
     24100   1.2303266      0              0              0.61516329    -0.014228169  
     24150   1.1070441      0              0              0.55352207     0.016501634  
     24200   1.1030757      0              0              0.55153783     0.0030638409 
     24250   1.1621808      0              0              0.58109038     0.0063468739 
     24300   1.1396914      0              0              0.56984571    -0.0121135    
     24350   1.1972366      0              0              0.59861832     0.0053109537 
     24400   1.1140225      0              0              0.55701125    -0.0007808544 
     24450   1.0521289      0              0              0.52606444    -0.0022993447 
     24500   1.0783174      0              0              0.5391587      0.009896697  
     24550   1.1415448      0              0              0.57077241    -0.005559807  
     24600   1.2235111      0              0              0.61175557    -0.015838537  
     24650   1.2727211      0              0              0.63636056    -0.028350262  
     24700   1.2213669      0              0              0.61068345    -0.014933857  
     24750   1.1093133      0              0              0.55465665     0.0050787111 
     24800   1.0847225      0              0              0.54236125     0.01513442   
     24850   1.0708503      0              0              0.53542517     0.015047449  
     24900   1.1858625      0              0              0.59293123    -0.030111408  
     24950   1.1650196      0              0              0.58250978     0.014913903  
     25000   1.2043555      0              0              0.60217773    -0.0039041281 
     25050   1.1629316      0              0              0.5814658     -0.0018684849 
     25100   1.1971721      0              0              0.59858604    -0.0057492362 
     25150   1.206801       0              0              0.60340048     0.017835131  
     25200   1.1345031      0              0              0.56725153    -0.00071677857
     25250   1.1367858      0              0              0.56839288     0.02532268   
     25300   1.058014       0              0              0.52900702    -0.0042474983 
     25350   1.1391557      0              0              0.56957784     0.010015581  
     25400   1.1103128      0              0              0.55515638    -0.021693302  
     25450   1.211964       0              0              0.60598202    -0.0013918855 
     25500   1.1809187      0              0              0.59045933     0.02170843   
     25550   1.1520561      0              0              0.57602807     0.0083700515 
     25600   1.1354707      0              0              0.56773537     0.015688186  
     25650   1.2095885      0              0              0.60479423     0.01123354   
     25700   1.1161119      0              0              0.55805597    -0.0045254437 
     25750   1.0426369      0              0              0.52131843    -0.014063869  
     25800   1.0239035      0              0              0.51195173    -0.0016852551 
     25850   0.98914516     0              0              0.49457258     0.0079572683 
     25900   0.90550452     0              0              0.45275226    -0.010685423  
     25950   0.95580457     0              0              0.47790228    -0.00024877474
     26000   0.86524906     0              0              0.43262453    -0.0048540487 
     26050   0.79348226     0              0              0.39674113     0.0052976326 
     26100   0.77384511     0              0              0.38692256     0.015260454  
     26150   0.8050792      0              0              0.4025396      0.0046122938 
     26200   0.80107872     0              0              0.40053936     0.0059421613 
     26250   0.88624402     0              0              0.44312201     0.0054530398 
     26300   0.83822714     0              0              0.41911357    -0.0052336658 
     26350   0.9707194      0              0              0.4853597     -0.0050876244 
     26400   0.87888747     0              0              0.43944374     0.01321482   
     26450   0.8595295      0              0              0.42976475     0.0020836196 
     26500   1.0931793      0              0              0.54658967     0.01312734   
     26550   1.210587       0              0              0.6052935      0.0020234589 
     26600   1.2279866      0              0              0.61399332     0.0070031243 
     26650   1.1044236      0              0              0.5522118      0.0020416581 
     26700   0.93115496     0              0              0.46557748    -0.0031125084 
     26750   1.046244       0              0              0.52312202     0.0011911012 
     26800   1.0430009      0              0              0.52150043    -0.0095398465 
     26850   1.0885738      0              0              0.54428692     0.016846639  
     26900   1.1955882      0              0              0.59779409     0.0064626121 
     26950   1.1396952      0              0              0.56984758     0.0023090891 
     27000   1.1864002      0              0              0.5932001      0.0098543859 
     27050   1.1624474      0              0              0.58122371    -0.0035029072 
     27100   1.1814106      0              0              0.5907053      0.0073533553 
     27150   1.3089279      0              0              0.65446393    -0.0031740502 
     27200   1.3344327      0              0              0.66721637     0.0071669607 
     27250   1.2955612      0              0              0.6477806      0.011898875  
     27300   1.1984543      0              0              0.59922713    -0.0016156834 
     27350   1.2270869      0              0              0.61354346    -0.0039448268 
     27400   1.2208754      0              0              0.61043769    -0.0079829837 
     27450   1.2326996      0              0              0.61634978     0.0049632025 
     27500   1.0915896      0              0              0.54579478     0.0016254127 
     27550   1.145868       0              0              0.572934      -0.0040030533 
     27600   1.142643       0              0              0.57132148     0.0074478685 
     27650   1.1619771      0              0              0.58098857     0.0013612701 
     27700   1.3218591      0              0              0.66092957     0.0029382113 
     27750   1.4489718      0              0              0.72448588    -0.00073686395
     27800   1.4781387      0              0              0.73906933     0.0080146035 
     27850   1.3411993      0              0              0.67059967    -0.0084647555 
     27900   1.3058497      0              0              0.65292483    -0.0079384415 
     27950   1.2672503      0              0              0.63362514     0.0055926953 
     28000   1.2767498      0              0              0.63837488     0.0019671642 
     28050   1.3795969      0              0              0.68979844    -0.00070965284
     28100   1.4448521      0              0              0.72242604     0.0011590472 
     28150   1.3405178      0              0              0.6702589      0.0039302314 
     28200   1.4124618      0              0              0.70623091     0.0068917709 
     28250   1.2453519      0              0              0.62267594     0.0021211318 
     28300   1.2597314      0              0              0.62986571    -0.0043240781 
     28350   1.3184608      0              0              0.6592304     -0.0068778086 
     28400   1.2954394      0              0              0.6477197      0.014657646  
     28450   1.2030618      0              0              0.60153092     0.020196043  
     28500   1.1244548      0              0              0.56222741     0.023791826  
     28550   1.1235985      0              0              0.56179925    -0.021109369  
     28600   1.1318732      0              0              0.5659366      0.0022688752 
     28650   1.0545276      0              0              0.52726378     0.0031326207 
     28700   1.029544       0              0              0.51477198     0.0013421179 
     28750   1.1304122      0              0              0.56520611     0.004171     
     28800   1.2412056      0              0              0.62060281    -0.008810649  
     28850   1.3452698      0              0              0.67263488    -0.023969602  
     28900   1.3996608      0              0              0.69983038     0.0028408048 
     28950   1.3377934      0              0              0.66889669     0.0068445753 
     29000   1.2508248      0              0              0.62541238    -0.015268706  
     29050   1.1740356      0              0              0.58701781    -0.007016868  
     29100   1.2535806      0              0              0.62679032     0.0068326227 
     29150   1.2442105      0              0              0.62210524     0.0024478577 
     29200   1.2374631      0              0              0.61873157     0.005347085  
     29250   1.1397697      0              0              0.56988486    -0.0067575582 
     29300   1.1749708      0              0              0.58748538     0.0072314034 
     29350   1.3012958      0              0              0.65064791     0.012307958  
     29400   1.2609779      0              0              0.63048897     0.0022398078 
     29450   1.2284848      0              0              0.61424242     0.01243411   
     29500   1.2329838      0              0              0.61649189    -0.021719673  
     29550   1.2490389      0              0              0.62451945    -0.0015867078 
     29600   1.2990341      0              0              0.64951705    -0.0027134257 
     29650   1.3260313      0              0              0.66301566    -0.0028309679 
     29700   1.4269535      0              0              0.71347676     0.012841807  
     29750   1.308094       0              0              0.65404698     0.0093429765 
     29800   1.3741226      0              0              0.68706129    -0.020061344  
     29850   1.3316453      0              0              0.66582263    -0.0062724514 
     29900   1.3438248      0              0              0.67191239     0.01402844   
     29950   1.4006614      0              0              0.70033071    -6.9216441e-05
     30000   1.3089189      0              0              0.65445947    -0.00012243247
     30050   1.4018172      0              0              0.70090861    -0.0039877443 
     30100   1.3740008      0              0              0.68700039     0.014577938  
     30150   1.3227531      0              0              0.66137653     0.0018477238 
     30200   1.3496659      0              0              0.67483295    -0.01050974   
     30250   1.4346913      0              0              0.71734567    -0.024090707  
     30300   1.3066907      0              0              0.65334536    -0.019739182  
     30350   1.3679485      0              0              0.68397425    -0.01980254   
     30400   1.1989581      0              0              0.59947907    -0.0029590848 
     30450   1.0544941      0              0              0.52724706    -0.010294637  
     30500   0.94506604     0              0              0.47253302     0.0094634778 
     30550   0.95313482     0              0              0.47656741     0.013758062  
     30600   0.92449413     0              0              0.46224707     0.0058049206 
     30650   1.0136547      0              0              0.50682735    -0.01060645   
     30700   1.0386671      0              0              0.51933353    -0.0075631484 
     30750   1.1348399      0              0              0.56741996    -0.0025332553 
     30800   1.1200446      0              0              0.56002228     0.0052776888 
     30850   1.0085561      0              0              0.50427803     0.022050116  
     30900   1.1241732      0              0              0.5620866      0.00073070931
     30950   1.0986815      0              0              0.54934076    -0.030458177  
     31000   1.1998259      0              0              0.59991297    -0.010678533  
     31050   1.1022125      0              0              0.55110627     0.0066855807 
     31100   1.1556596      0              0              0.57782978     0.017882617  
     31150   1.2173533      0              0              0.60867663     0.026725512  
     31200   1.2323955      0              0              0.61619776    -0.0065207882 
     31250   1.3655871      0              0              0.68279356     0.0040614011 
     31300   1.3581186      0              0              0.67905931     0.0091714397 
     31350   1.3101274      0              0              0.65506371     0.0079611865 
     31400   1.3098257      0              0              0.65491287    -0.0085236389 
     31450   1.4653397      0              0              0.73266984     0.0094188682 
     31500   1.6613871      0              0              0.83069354     0.0096761671 
     31550   1.5184859      0              0              0.75924296     0.0079665659 
     31600   1.539289       0              0              0.76964452     0.011634045  
     31650   1.6194397      0              0              0.80971984     0.0034696706 
     31700   1.4626079      0              0              0.73130395    -0.011640957  
     31750   1.5172665      0              0              0.75863327    -0.0062885166 
     31800   1.3900709      0              0              0.69503545     0.013397253  
     31850   1.6012105      0              0              0.80060527     0.0043416942 
     31900   1.6714268      0              0              0.83571342    -0.027400498  
     31950   1.7520254      0              0              0.8760127      0.016962147  
     32000   1.7846158      0              0              0.89230792    -0.013703882  
     32050   1.8112098      0              0              0.9056049     -0.026895348  
     32100   1.6957395      0              0              0.84786977    -0.010188321  
     32150   1.6583603      0              0              0.82918016     0.028853153  
     32200   1.615004       0              0              0.80750198     0.010112921  
     32250   1.6804362      0              0              0.8402181     -0.0067879834 
     32300   1.7040186      0              0              0.8520093     -0.020434024  
     32350   1.875148       0              0              0.937574       0.0069292784 
     32400   1.5968801      0              0              0.79844006     0.040426593  
     32450   1.5320168      0              0              0.76600839     0.019996507  
     32500   1.5658441      0              0              0.78292207     0.0034010779 
     32550   1.6712493      0              0              0.83562466     0.0061665379 
     32600   1.7437375      0              0              0.87186874    -0.0087781279 
     32650   1.7179289      0              0              0.85896446    -0.0066498473 
     32700   1.674679       0              0              0.83733952    -0.0014353179 
     32750   1.4680415      0              0              0.73402076    -0.010548187  
     32800   1.5324802      0              0              0.76624012    -0.013862752  
     32850   1.6255312      0              0              0.81276561     0.024078472  
     32900   1.7477826      0              0              0.87389131    -0.021891746  
     32950   1.7588326      0              0              0.87941629    -0.023010857  
     33000   1.7526184      0              0              0.8763092      0.025824583  
     33050   1.6902917      0              0              0.84514584     0.0094688    
     33100   1.6175353      0              0              0.80876764     0.014641242  
     33150   1.5943664      0              0              0.79718322    -0.013205488  
     33200   1.5503563      0              0              0.77517814    -0.013741683  
     33250   1.5045831      0              0              0.75229153     0.022033343  
     33300   1.4161976      0              0              0.70809881     0.001742534  
     33350   1.4214678      0              0              0.7107339     -0.0065273825 
     33400   1.4382785      0              0              0.71913924    -0.0091053274 
     33450   1.4801203      0              0              0.74006014     0.00024923071
     33500   1.3489417      0              0              0.67447087     0.018299786  
     33550   1.366834       0              0              0.68341702     0.00088929316
     33600   1.3856864      0              0              0.69284321    -0.028550657  
     33650   1.3932679      0              0              0.69663396    -0.002035013  
     33700   1.417507       0              0              0.70875352    -0.0081674482 
     33750   1.356006       0              0              0.678003      -0.0066486661 
     33800   1.2381959      0              0              0.61909797     0.005559009  
     33850   1.3180944      0              0              0.65904719    -0.0060135412 
     33900   1.4677693      0              0              0.73388467    -0.00078280962
     33950   1.408437       0              0              0.70421851    -0.012868421  
     34000   1.4076401      0              0              0.70382003    -0.0020513602 
     34050   1.328122       0              0              0.66406101     0.003871288  
     34100   1.2622576      0              0              0.63112879    -0.0056427477 
     34150   1.2590566      0              0              0.62952829     1.167764e-05 
     34200   1.3196384      0              0              0.65981919     0.00036303932
     34250   1.4406914      0              0              0.72034568     0.021017501  
     34300   1.3081332      0              0              0.6540666     -0.010827673  
     34350   1.3557573      0              0              0.67787864    -0.007142405  
     34400   1.2772226      0              0              0.63861128     0.00050451061
     34450   1.2879968      0              0              0.64399838    -0.0036784459 
     34500   1.2324143      0              0              0.61620713     0.0026434151 
     34550   1.2421455      0              0              0.62107276     0.0038686441 
     34600   1.3139767      0              0              0.65698833    -0.0083913264 
     34650   1.2842916      0              0              0.64214578    -0.0067305252 
     34700   1.3124709      0              0              0.65623546     0.0033110376 
     34750   1.3048581      0              0              0.65242907     0.0043470315 
     34800   1.2426872      0              0              0.62134361     0.0079338353 
     34850   1.2664833      0              0              0.63324167    -0.019512091  
     34900   1.1538328      0              0              0.57691638    -0.00053084904
     34950   1.0914119      0              0              0.54570596    -0.016998505  
     35000   1.0453416      0              0              0.52267081     0.0016119124 
     35050   1.0490446      0              0              0.52452231    -0.0096236018 
     35100   0.99451847     0              0              0.49725923     0.015515232  
     35150   0.99730834     0              0              0.49865417    -0.0066938184 
     35200   0.9050758      0              0              0.4525379      0.010148538  
     35250   0.9292016      0              0              0.4646008      0.007821131  
     35300   0.98348759     0              0              0.49174379     0.024029009  
     35350   0.92471217     0              0              0.46235609     0.012874611  
     35400   0.90140626     0              0              0.45070313    -0.0058265502 
     35450   0.93205925     0              0              0.46602962     0.011642571  
     35500   0.94696278     0              0              0.47348139     0.026697322  
     35550   0.99767318     0              0              0.49883659     0.0023513664 
     35600   1.0848587      0              0              0.54242937     0.0062550765 
     35650   1.2204644      0              0              0.61023222     0.0066881613 
     35700   1.2436192      0              0              0.6218096      0.021434145  
     35750   1.3628053      0              0              0.68140263    -0.01882523   
     35800   1.3921613      0              0              0.69608067    -0.014436628  
     35850   1.413977       0              0              0.7069885      0.014336509  
     35900   1.2819971      0              0              0.64099856    -0.0075209671 
     35950   1.3162965      0              0              0.65814823    -0.0010685359 
     36000   1.3100411      0              0              0.65502057    -0.0050525646 
     36050   1.2316504      0              0              0.61582522    -0.010659649  
     36100   1.2577712      0              0              0.62888558     0.015155436  
     36150   1.399889       0              0              0.69994451    -0.010713716  
     36200   1.3762936      0              0              0.68814678    -0.0052269087 
     36250   1.2894679      0              0              0.64473397    -0.021817666  
     36300   1.1979799      0              0              0.59898995    -0.0033204343 
     36350   1.1607737      0              0              0.58038686    -0.0065415224 
     36400   1.2947586      0              0              0.64737932    -0.0067857848 
     36450   1.2251951      0              0              0.61259753    -0.0055306614 
     36500   1.2733456      0              0              0.6366728      0.032710362  
     36550   1.2406487      0              0              0.62032435     0.02405433   
     36600   1.1817202      0              0              0.59086008    -0.026517043  
     36650   1.1872104      0              0              0.59360522     0.032991177  
     36700   1.1749527      0              0              0.58747637    -0.0019937013 
     36750   1.2749054      0              0              0.63745271     0.001794481  
     36800   1.223765       0              0              0.61188249     0.012675542  
     36850   1.2534601      0              0              0.62673005    -0.025397276  
     36900   1.2100042      0              0              0.60500211     0.005742923  
     36950   1.1251942      0              0              0.5625971      0.0056242248 
     37000   0.99426171     0              0              0.49713085    -0.023976212  
     37050   0.98459589     0              0              0.49229794     0.0021757335 
     37100   1.0173626      0              0              0.50868131     0.023736753  
     37150   0.99344095     0              0              0.49672048    -0.0043679814 
     37200   1.1288601      0              0              0.56443005    -0.0037085814 
     37250   1.2618275      0              0              0.63091374    -0.005846833  
     37300   1.18217        0              0              0.59108499    -0.018699523  
     37350   1.1118596      0              0              0.55592982     0.0064804434 
     37400   1.0074755      0              0              0.50373774    -0.0095414868 
     37450   1.0242859      0              0              0.51214297     0.035430662  
     37500   1.07914        0              0              0.53957002    -0.010068546  
     37550   1.0490078      0              0              0.52450392    -0.0504451    
     37600   1.1124696      0              0              0.55623482     0.0050340337 
     37650   1.1158003      0              0              0.55790013    -0.012377206  
     37700   1.0895846      0              0              0.54479229     0.016588226  
     37750   1.0978393      0              0              0.54891965     0.022163431  
     37800   1.1153787      0              0              0.55768934    -0.021730996  
     37850   1.2357113      0              0              0.61785566     0.017573938  
     37900   1.1483186      0              0              0.57415931     0.0071822885 
     37950   1.0654498      0              0              0.53272491    -0.021561606  
     38000   0.95539856     0              0              0.47769928     0.022038529  
     38050   1.0125918      0              0              0.50629588    -0.0077306419 
     38100   0.99646579     0              0              0.4982329      0.028218432  
     38150   0.90382716     0              0              0.45191358     0.0010050963 
     38200   0.87923113     0              0              0.43961556    -0.041658071  
     38250   0.85347782     0              0              0.42673891    -0.015895975  
     38300   0.86282207     0              0              0.43141103     0.0074038588 
     38350   1.026408       0              0              0.51320399     0.016257739  
     38400   1.0371322      0              0              0.51856612    -0.0024295916 
     38450   1.0009702      0              0              0.50048509     0.010984968  
     38500   1.0881155      0              0              0.54405774    -0.0020245076 
     38550   1.0963737      0              0              0.54818684    -0.0027898098 
     38600   1.0878415      0              0              0.54392076     0.02876445   
     38650   1.0832986      0              0              0.54164932     0.018252501  
     38700   1.0183078      0              0              0.50915392     0.015218894  
     38750   1.1020739      0              0              0.55103693    -0.0010393042 
     38800   1.1061794      0              0              0.5530897      0.018778426  
     38850   0.98807131     0              0              0.49403565    -0.014548414  
     38900   1.0146707      0              0              0.50733535     0.012257862  
     38950   0.87661656     0              0              0.43830828     0.030734126  
     39000   0.91156246     0              0              0.45578123     0.0065048022 
     39050   0.86742919     0              0              0.43371459     0.01888735   
     39100   0.87582242     0              0              0.43791121     0.0097764729 
     39150   0.74171281     0              0              0.3708564      0.01918699   
     39200   0.72731729     0              0              0.36365864    -0.013371293  
     39250   0.71993308     0              0              0.35996654     0.016955921  
     39300   0.68020611     0              0              0.34010306     0.0035256087 
     39350   0.81315501     0              0              0.4065775     -0.012836108  
     39400   0.83154918     0              0              0.41577459     0.031216101  
     39450   0.80612583     0              0              0.40306292     0.01866034   
     39500   0.75783422     0              0              0.37891711     0.010666503  
     39550   0.73826265     0              0              0.36913132    -0.0046941427 
     39600   0.7241542      0              0              0.3620771      0.00086295862
     39650   0.6490942      0              0              0.3245471      0.015932897  
     39700   0.56788352     0              0              0.28394176     0.012399657  
     39750   0.5999386      0              0              0.2999693      0.0161212    
     39800   0.58228987     0              0              0.29114493    -0.0070505779 
     39850   0.58320022     0              0              0.29160011    -0.0018019649 
     39900   0.57010664     0              0              0.28505332     0.010134514  
     39950   0.62406144     0              0              0.31203072     0.01473354   
     40000   0.60738482     0              0              0.30369241     0.010966723  
     40050   0.67131801     0              0              0.335659      -0.0010451003 
     40100   0.64058326     0              0              0.32029163    -0.011290467  
     40150   0.69806211     0              0              0.34903105     0.023888009  
     40200   0.64953781     0              0              0.3247689     -0.031548089  
     40250   0.73013554     0              0              0.36506777     0.027002276  
     40300   0.7859831      0              0              0.39299155     0.028130235  
     40350   0.81965546     0              0              0.40982773     0.0043480873 
     40400   0.84895866     0              0              0.42447933    -0.0196174    
     40450   0.88471988     0              0              0.44235994    -0.0064123884 
     40500   0.81946172     0              0              0.40973086    -0.0040607077 
     40550   0.81401938     0              0              0.40700969    -0.016341215  
     40600   0.84202204     0              0              0.42101102     0.0084913406 
     40650   0.95626524     0              0              0.47813262     0.0060513014 
     40700   0.93397888     0              0              0.46698944    -0.014374521  
     40750   0.89670272     0              0              0.44835136     0.0023611094 
     40800   0.8924057      0              0              0.44620285    -0.023145435  
     40850   0.91543914     0              0              0.45771957     0.0064473428 
     40900   0.9471328      0              0              0.4735664      0.0055973001 
     40950   0.92232234     0              0              0.46116117     0.026544222  
     41000   0.94110885     0              0              0.47055442    -0.010383467  
     41050   0.96598591     0              0              0.48299296    -0.0063611848 
     41100   1.0110444      0              0              0.5055222      0.024113811  
     41150   1.0723381      0              0              0.53616906    -0.013888027  
     41200   1.0935557      0              0              0.54677783    -0.0016563827 
     41250   1.0951628      0              0              0.54758139    -0.0096099585 
     41300   1.155443       0              0              0.57772149     0.0013397965 
     41350   1.1559546      0              0              0.57797728     0.0059394875 
     41400   1.0729188      0              0              0.53645938    -0.020486195  
     41450   0.9486145      0              0              0.47430725    -0.0011890005 
     41500   0.90402367     0              0              0.45201183     0.01012494   
     41550   0.92641242     0              0              0.46320621     0.017840469  
     41600   0.98760751     0              0              0.49380375    -0.006003702  
     41650   1.0157204      0              0              0.50786018     0.011925598  
     41700   1.0537228      0              0              0.52686141     0.017416624  
     41750   1.1102798      0              0              0.5551399      0.0086368618 
     41800   1.1204697      0              0              0.56023485     0.0044000846 
     41850   1.1906915      0              0              0.59534575    -0.0068419878 
     41900   1.178254       0              0              0.58912701     0.018389163  
     41950   1.1520899      0              0              0.57604496     0.014353577  
     42000   1.1357386      0              0              0.56786929     0.0076168817 
     42050   1.132148       0              0              0.56607399    -0.012258926  
     42100   1.1330739      0              0              0.56653696     6.5952892e-05
     42150   1.335562       0              0              0.66778102     0.0025123005 
     42200   1.4690467      0              0              0.73452334     0.0073899721 
     42250   1.5911583      0              0              0.79557915    -0.0068740777 
     42300   1.5772745      0              0              0.78863726    -0.008667633  
     42350   1.5074712      0              0              0.75373562     0.0075749431 
     42400   1.5883416      0              0              0.79417078     0.014020291  
     42450   1.6069888      0              0              0.80349441     0.0049202103 
     42500   1.5920051      0              0              0.79600253    -0.0073006802 
     42550   1.5225738      0              0              0.76128688     0.00056363755
     42600   1.3123121      0              0              0.65615605    -0.01002206   
     42650   1.3758086      0              0              0.68790431     0.020538159  
     42700   1.2553709      0              0              0.62768543    -0.0016316369 
     42750   1.1991935      0              0              0.59959677    -0.012082227  
     42800   1.4038161      0              0              0.70190803     0.0047198756 
     42850   1.332456       0              0              0.666228       0.010741178  
     42900   1.4752195      0              0              0.73760974     0.015500415  
     42950   1.5835825      0              0              0.79179124    -0.0032751185 
     43000   1.4977597      0              0              0.74887986     0.0063382786 
     43050   1.5330136      0              0              0.76650678     0.011673981  
     43100   1.4446161      0              0              0.72230807    -0.0061256254 
     43150   1.3939271      0              0              0.69696353    -0.0075613271 
     43200   1.4020552      0              0              0.70102759     0.016298901  
     43250   1.2982516      0              0              0.64912578     0.0014716644 
     43300   1.2797165      0              0              0.63985825     0.017091662  
     43350   1.2656702      0              0              0.63283508     0.005858205  
     43400   1.2336731      0              0              0.61683655     0.032364616  
     43450   1.2135843      0              0              0.60679217    -0.0015510728 
     43500   1.2052049      0              0              0.60260247    -0.021803969  
     43550   1.3050793      0              0              0.65253967     0.01869169   
     43600   1.2724909      0              0              0.63624546     0.011139713  
     43650   1.2989084      0              0              0.64945421     0.023145743  
     43700   1.218733       0              0              0.60936651     0.0047605338 
     43750   1.2409945      0              0              0.62049723     0.016303148  
     43800   1.2235882      0              0              0.61179412    -0.0095343128 
     43850   1.1802462      0              0              0.59012311    -0.0016785076 
     43900   1.1519083      0              0              0.57595417     0.017279506  
     43950   1.1289902      0              0              0.56449512    -0.017753892  
     44000   1.1292846      0              0              0.5646423      0.0098465624 
     44050   1.1265634      0              0              0.5632817      0.011478432  
     44100   1.1745328      0              0              0.58726642    -0.025694615  
     44150   1.1467632      0              0              0.5733816      0.019295135  
     44200   1.1210651      0              0              0.56053255    -0.00157694   
     44250   1.0731419      0              0              0.53657096    -0.0014234064 
     44300   1.112384       0              0              0.55619199     0.0017825436 
     44350   1.1287984      0              0              0.56439918    -0.0044476425 
     44400   1.0926468      0              0              0.54632341     0.015572498  
     44450   1.1057518      0              0              0.55287589     0.017624795  
     44500   1.1076947      0              0              0.55384735    -0.0036802065 
     44550   1.1315062      0              0              0.56575311    -0.0045906341 
     44600   1.1872376      0              0              0.5936188      0.022708244  
     44650   1.2236669      0              0              0.61183345     0.011246913  
     44700   1.2332986      0              0              0.61664928    -0.0016624629 
     44750   1.2010349      0              0              0.60051743    -0.01661849   
     44800   1.2281825      0              0              0.61409125     0.017154173  
     44850   1.159874       0              0              0.57993701    -0.026988191  
     44900   1.1121846      0              0              0.55609232    -0.015947913  
     44950   1.0933476      0              0              0.54667379     0.022737316  
     45000   1.0078268      0              0              0.50391341     0.034538506  
     45050   1.022625       0              0              0.51131252     0.0095937998 
     45100   1.0632559      0              0              0.53162793    -0.00013057851
     45150   1.0522226      0              0              0.52611128    -0.0096171939 
     45200   1.1703326      0              0              0.58516629    -0.011718889  
     45250   1.2483614      0              0              0.62418069     0.010544136  
     45300   1.169674       0              0              0.58483698     0.014580944  
     45350   1.1355584      0              0              0.56777919     0.010451321  
     45400   1.0617909      0              0              0.53089543     0.0017154271 
     45450   1.1345609      0              0              0.56728044    -0.012891475  
     45500   1.1329691      0              0              0.56648453     0.014894749  
     45550   1.1424575      0              0              0.57122875     0.024342268  
     45600   1.2428462      0              0              0.62142312     0.0046845383 
     45650   1.1632609      0              0              0.58163044     0.007306577  
     45700   1.2261362      0              0              0.61306809     0.0024599624 
     45750   1.2186428      0              0              0.6093214      0.0053363631 
     45800   1.1562636      0              0              0.57813182     0.012483083  
     45850   1.1314762      0              0              0.5657381      0.0019063963 
     45900   1.0807405      0              0              0.54037023    -0.011236953  
     45950   1.086017       0              0              0.54300848     0.002953447  
     46000   1.1131881      0              0              0.55659404    -0.015174083  
     46050   1.0400153      0              0              0.52000767     0.03026144   
     46100   0.98526006     0              0              0.49263003    -0.0063133824 
     46150   0.94379103     0              0              0.47189551     0.0010584793 
     46200   0.93628669     0              0              0.46814335    -0.0070004127 
     46250   1.1457443      0              0              0.57287214    -0.0038402486 
     46300   1.0122961      0              0              0.50614804    -0.016580148  
     46350   0.98932129     0              0              0.49466064     0.013231897  
     46400   0.9777153      0              0              0.48885765     0.015821094  
     46450   0.90550005     0              0              0.45275002    -0.010457996  
     46500   0.93109493     0              0              0.46554747     0.0045289462 
     46550   0.85243467     0              0              0.42621733     0.02511259   
     46600   0.96236974     0              0              0.48118487     0.025154958  
     46650   0.92839514     0              0              0.46419757    -0.02467638   
     46700   0.82317877     0              0              0.41158938    -0.027215657  
     46750   0.87323263     0              0              0.43661631     0.016071389  
     46800   0.91999631     0              0              0.45999815     0.0056049816 
     46850   1.0236167      0              0              0.51180835     0.018713557  
     46900   1.0986773      0              0              0.54933866     0.010669214  
     46950   1.0071701      0              0              0.50358504     0.028842202  
     47000   1.0654157      0              0              0.53270785     0.0055063453 
     47050   1.0735178      0              0              0.53675892     0.017178627  
     47100   1.1375329      0              0              0.56876644     0.0098535497 
     47150   1.0762441      0              0              0.53812205     0.0048816722 
     47200   1.0921757      0              0              0.54608786     0.018556459  
     47250   1.0913572      0              0              0.54567861     0.0088580813 
     47300   1.0790879      0              0              0.53954396     0.028136556  
     47350   1.0233286      0              0              0.51166428     0.025079041  
     47400   1.1457963      0              0              0.57289816     0.0081305198 
     47450   1.0905627      0              0              0.54528137    -0.0036102298 
     47500   1.1432331      0              0              0.57161655     0.010441707  
     47550   1.1776791      0              0              0.58883953     0.022712903  
     47600   1.1340418      0              0              0.56702091     0.0061716894 
     47650   1.2932772      0              0              0.64663859     0.010808556  
     47700   1.313984       0              0              0.65699198     0.0079928089 
     47750   1.3018576      0              0              0.65092882    -0.0090225898 
     47800   1.166855       0              0              0.58342749    -0.014579047  
     47850   1.2227743      0              0              0.61138717    -0.015315863  
     47900   1.2442462      0              0              0.62212312     0.0032205092 
     47950   1.2383779      0              0              0.61918895    -0.0013270972 
     48000   1.3567834      0              0              0.67839169    -0.011828241  
     48050   1.4144563      0              0              0.70722813     0.0029213651 
     48100   1.3524388      0              0              0.67621938     0.033575186  
     48150   1.3854666      0              0              0.69273331    -0.004897914  
     48200   1.3884971      0              0              0.69424856     0.013988805  
     48250   1.4329068      0              0              0.71645341     0.02503268   
     48300   1.4808627      0              0              0.74043134     0.030957822  
     48350   1.4969484      0              0              0.74847418     0.031117536  
     48400   1.4836327      0              0              0.74181637     0.0042723981 
     48450   1.4304596      0              0              0.7152298      0.023101146  
     48500   1.3879156      0              0              0.69395778    -0.00086192488
     48550   1.2854924      0              0              0.64274622    -0.0029107887 
     48600   1.2164044      0              0              0.60820219    -0.021497545  
     48650   1.2286682      0              0              0.61433411     0.018474067  
     48700   1.1542126      0              0              0.57710632     0.0029183124 
     48750   1.3092842      0              0              0.65464211    -0.0062358714 
     48800   1.330594       0              0              0.66529699    -0.010789923  
     48850   1.4455994      0              0              0.7227997      0.0094572029 
     48900   1.4039901      0              0              0.70199506     0.008607406  
     48950   1.4435904      0              0              0.72179521     0.019019977  
     49000   1.3989206      0              0              0.69946031    -0.011549741  
     49050   1.5337025      0              0              0.76685126     0.033121639  
     49100   1.5152155      0              0              0.75760775    -0.00046002836
     49150   1.570275       0              0              0.78513748     0.021964546  
     49200   1.5593003      0              0              0.77965016     0.0089242191 
     49250   1.4533947      0              0              0.72669733     0.0067812134 
     49300   1.4709139      0              0              0.73545694    -0.012282767  
     49350   1.4843608      0              0              0.74218038     0.0029591708 
     49400   1.5282398      0              0              0.76411992     0.012002306  
     49450   1.6021831      0              0              0.80109157     0.015210179  
     49500   1.6899814      0              0              0.8449907     -0.0023769006 
     49550   1.7485902      0              0              0.8742951     -0.0092833464 
     49600   1.6705631      0              0              0.83528157    -0.0038915352 
     49650   1.805315       0              0              0.9026575     -0.010041529  
     49700   1.7482398      0              0              0.87411989     0.0083100675 
     49750   1.6843651      0              0              0.84218255    -0.006939264  
     49800   1.5201748      0              0              0.76008741     0.0064104    
     49850   1.4572487      0              0              0.72862436    -0.011035563  
     49900   1.563021       0              0              0.78151052     0.0088122421 
     49950   1.3953804      0              0              0.69769019    -0.014343152  
     50000   1.4639788      0              0              0.7319894     -0.011657173  
     50050   1.4263761      0              0              0.71318807     0.013185709  
     50100   1.5820137      0              0              0.79100684     0.0048112359 
     50150   1.6218549      0              0              0.81092745     0.0085855063 
     50200   1.6586492      0              0              0.82932458    -0.00036457706
     50250   1.7431734      0              0              0.87158668    -0.0076008286 
     50300   1.6805322      0              0              0.8402661      0.011711619  
     50350   1.6690874      0              0              0.83454372     0.0060629555 
     50400   1.5914483      0              0              0.79572414     0.01705116   
     50450   1.6216754      0              0              0.81083772    -0.0062158279 
     50500   1.6278325      0              0              0.81391627     0.033495927  
     50550   1.618009       0              0              0.80900449    -0.011765075  
     50600   1.6072922      0              0              0.8036461      0.020354507  
     50650   1.6702058      0              0              0.8351029      0.0019791573 
     50700   1.5829703      0              0              0.79148517     0.010770201  
     50750   1.556402       0              0              0.77820099     0.016815315  
     50800   1.5311548      0              0              0.76557739     0.0037907048 
     50850   1.4497868      0              0              0.72489338     0.020191819  
     50900   1.4313869      0              0              0.71569343    -0.012920816  
     50950   1.4227127      0              0              0.71135634    -0.0017991214 
     51000   1.3092022      0              0              0.65460108    -0.01870718   
     51050   1.2545235      0              0              0.62726177     3.7060001e-05
     51100   1.3706481      0              0              0.68532405     0.019318958  
     51150   1.2532452      0              0              0.62662258     0.021777704  
     51200   1.3285296      0              0              0.66426478     0.026994293  
     51250   1.3820263      0              0              0.69101315     0.017085546  
     51300   1.3057387      0              0              0.65286935    -0.0021153313 
     51350   1.4150466      0              0              0.70752328    -0.020950153  
     51400   1.531938       0              0              0.765969      -0.002533938  
     51450   1.4874665      0              0              0.74373325     0.036229008  
     51500   1.5294288      0              0              0.76471438     0.040215914  
     51550   1.5461247      0              0              0.77306233    -0.0062656609 
     51600   1.6060073      0              0              0.80300365     0.016380922  
     51650   1.7607914      0              0              0.88039572    -0.02905318   
     51700   1.7410822      0              0              0.87054111     0.00013951869
     51750   1.7461241      0              0              0.87306204    -0.0075986664 
     51800   1.739118       0              0              0.86955902     0.012650726  
     51850   1.7611026      0              0              0.8805513      0.037438638  
     51900   1.6987694      0              0              0.84938471     0.0068103684 
     51950   1.6820569      0              0              0.84102843    -0.021412859  
     52000   1.670363       0              0              0.83518151     0.0089774692 
     52050   1.6724901      0              0              0.83624504    -0.00081415528
     52100   1.6059427      0              0              0.80297135    -0.00081800651
     52150   1.7377019      0              0              0.86885097    -0.0011836797 
     52200   1.8808708      0              0              0.94043538     0.020001759  
     52250   1.9414374      0              0              0.97071868     0.046825272  
     52300   2.0499998      0              0              1.0249999      0.023436357  
     52350   2.1141965      0              0              1.0570983     -0.017123161  
     52400   1.9270769      0              0              0.96353844    -0.018402013  
     52450   1.9487726      0              0              0.9743863      0.011357484  
     52500   1.8907067      0              0              0.94535336    -0.0059573678 
     52550   1.9736479      0              0              0.98682397     0.044474623  
     52600   1.9628949      0              0              0.98144745     0.029311718  
     52650   1.9950837      0              0              0.99754187     0.034969389  
     52700   1.9263082      0              0              0.96315411     0.0043793571 
     52750   1.8828393      0              0              0.94141963    -0.024528863  
     52800   1.8824193      0              0              0.94120964    -0.038597925  
     52850   2.0312804      0              0              1.0156402      0.008735828  
     52900   1.9432691      0              0              0.97163456     0.011094134  
     52950   2.0159787      0              0              1.0079893     -0.0018046176 
     53000   1.9794895      0              0              0.98974474     0.042722399  
     53050   1.9287257      0              0              0.96436284     0.0071475301 
     53100   2.1477875      0              0              1.0738937      0.0013517669 
     53150   2.0714997      0              0              1.0357498      0.013230987  
     53200   1.9361885      0              0              0.96809425     0.0059137464 
     53250   1.9279829      0              0              0.96399147    -0.0072607077 
     53300   1.9459376      0              0              0.97296878    -0.007259044  
     53350   2.0288043      0              0              1.0144021     -0.0039647767 
     53400   2.0536379      0              0              1.026819      -0.0035552482 
     53450   1.9424122      0              0              0.9712061      0.031571668  
     53500   2.0309284      0              0              1.0154642     -0.029313835  
     53550   2.2468932      0              0              1.1234466     -0.0061447876 
     53600   2.1824022      0              0              1.0912011      0.0076553185 
     53650   2.2629225      0              0              1.1314613     -0.012884933  
     53700   2.1815965      0              0              1.0907982      0.0014098436 
     53750   2.1127474      0              0              1.0563737      0.0066283994 
     53800   2.0780284      0              0              1.0390142     -0.0047617461 
     53850   1.7568126      0              0              0.87840629    -0.0058550314 
     53900   1.7615719      0              0              0.88078594    -0.015014589  
     53950   1.7690898      0              0              0.8845449      0.011381066  
     54000   1.8465373      0              0              0.92326867     0.0023219368 
     54050   1.859301       0              0              0.92965052     0.013280451  
     54100   1.8196652      0              0              0.90983258    -0.020108741  
     54150   1.8963037      0              0              0.94815186    -0.021048292  
     54200   1.8511779      0              0              0.92558894    -0.0044258438 
     54250   1.8573988      0              0              0.92869939     0.0006780351 
     54300   1.7451905      0              0              0.87259525     0.0014440102 
     54350   1.6634384      0              0              0.83171922     0.031392887  
     54400   1.6635513      0              0              0.83177566     0.012043091  
     54450   1.7135376      0              0              0.85676882     0.012025401  
     54500   1.7020886      0              0              0.85104429    -0.0092686307 
     54550   1.7836686      0              0              0.89183431    -0.026060503  
     54600   1.7685975      0              0              0.88429874    -0.015590241  
     54650   1.8499631      0              0              0.92498156    -0.012877828  
     54700   1.8011339      0              0              0.90056694    -0.0037984279 
     54750   1.923191       0              0              0.9615955      0.0024537063 
     54800   1.9413804      0              0              0.97069022    -0.0016375274 
     54850   1.8137258      0              0              0.90686292    -0.0038082325 
     54900   1.8372635      0              0              0.91863174     0.013694051  
     54950   1.6807753      0              0              0.84038766    -0.0035778164 
     55000   1.5522234      0              0              0.77611168    -0.0041327914 
     55050   1.6270176      0              0              0.8135088     -0.007791191  
     55100   1.6716176      0              0              0.83580878     0.0049952282 
     55150   1.7875521      0              0              0.89377605     0.0017808386 
     55200   1.5444624      0              0              0.77223118     0.01525398   
     55250   1.4366176      0              0              0.71830881     0.0099598499 
     55300   1.4575499      0              0              0.72877496    -0.0082709968 
     55350   1.450125       0              0              0.72506252    -0.0045064428 
     55400   1.3959812      0              0              0.69799061    -0.048675315  
     55450   1.3554441      0              0              0.67772203     0.025740357  
     55500   1.32768        0              0              0.66384001    -0.007110084  
     55550   1.3333113      0              0              0.66665564    -0.0091008965 
     55600   1.2748918      0              0              0.6374459      0.002321469  
     55650   1.1743631      0              0              0.58718154     0.0013275123 
     55700   1.1648967      0              0              0.58244834    -0.003003852  
     55750   1.200326       0              0              0.60016301    -0.011010827  
     55800   1.158827       0              0              0.5794135     -0.013251152  
     55850   1.0643711      0              0              0.53218557     0.006285022  
     55900   1.1936494      0              0              0.5968247     -0.0098940423 
     55950   1.2136903      0              0              0.60684516     0.0054310078 
     56000   1.2657896      0              0              0.63289482    -0.012266182  
     56050   1.1427202      0              0              0.5713601     -0.0079700117 
     56100   1.1736808      0              0              0.58684039     0.0050091402 
     56150   1.283963       0              0              0.64198148     0.023198294  
     56200   1.3027314      0              0              0.6513657     -0.004160499  
     56250   1.2866277      0              0              0.64331384     0.019071921  
     56300   1.2783741      0              0              0.63918706    -0.00067920448
     56350   1.3265846      0              0              0.66329229     0.0032407857 
     56400   1.3409966      0              0              0.67049828     0.025369053  
     56450   1.3437038      0              0              0.6718519      0.029117501  
     56500   1.2539139      0              0              0.62695695    -0.016642017  
     56550   1.2312103      0              0              0.61560516     0.025035781  
     56600   1.1385636      0              0              0.56928179     0.0036478472 
     56650   1.1527473      0              0              0.57637367    -0.0038769547 
     56700   1.1177593      0              0              0.55887965     0.02466788   
     56750   1.0235449      0              0              0.51177243    -0.009650744  
     56800   0.91709021     0              0              0.4585451     -0.0033647542 
     56850   0.93853908     0              0              0.46926954    -0.0032700068 
     56900   0.91095        0              0              0.455475       0.0078112691 
     56950   0.9395561      0              0              0.46977805     0.04419639   
     57000   0.87683419     0              0              0.4384171     -0.0025397451 
     57050   0.92745904     0              0              0.46372952     0.016347207  
     57100   0.94978417     0              0              0.47489209     0.031729146  
     57150   1.0627908      0              0              0.53139539     0.011257862  
     57200   1.0990947      0              0              0.54954736    -0.0077487227 
     57250   0.93715829     0              0              0.46857914     0.028612491  
     57300   0.87594097     0              0              0.43797049    -0.0071178988 
     57350   0.85711684     0              0              0.42855842     0.0090857868 
     57400   0.84254799     0              0              0.42127399     0.026207625  
     57450   0.88347663     0              0              0.44173832    -0.0024403897 
     57500   0.85146834     0              0              0.42573417    -0.011131787  
     57550   0.75868397     0              0              0.37934199     0.021449439  
     57600   0.83863273     0              0              0.41931636     0.019082388  
     57650   0.8575728      0              0              0.4287864     -0.011580306  
     57700   0.74633937     0              0              0.37316969     0.0047168615 
     57750   0.67591768     0              0              0.33795884     0.014316155  
     57800   0.63067446     0              0              0.31533723     0.012608402  
     57850   0.63738068     0              0              0.31869034    -0.0088923056 
     57900   0.6715246      0              0              0.3357623     -0.0097516474 
     57950   0.59193351     0              0              0.29596676     0.0084556714 
     58000   0.56875314     0              0              0.28437657    -0.0052044624 
     58050   0.5982795      0              0              0.29913975    -0.0066239623 
     58100   0.57981702     0              0              0.28990851    -0.0016962173 
     58150   0.57183163     0              0              0.28591582     0.0016657281 
     58200   0.57396361     0              0              0.28698181    -0.010749003  
     58250   0.49526174     0              0              0.24763087    -0.0045216912 
     58300   0.5608308      0              0              0.2804154      0.01328682   
     58350   0.53948212     0              0              0.26974106    -0.0022077613 
     58400   0.50888505     0              0              0.25444252     0.0061897867 
     58450   0.4761396      0              0              0.2380698      0.010571425  
     58500   0.4605227      0              0              0.23026135    -0.0042710188 
     58550   0.3553102      0              0              0.1776551     -0.030549865  
     58600   0.30855094     0              0              0.15427547     0.0086501706 
     58650   0.39780687     0              0              0.19890343    -0.020120534  
     58700   0.41204626     0              0              0.20602313     0.015724279  
     58750   0.43168423     0              0              0.21584212     0.0066818461 
     58800   0.43416628     0              0              0.21708314     0.010152889  
     58850   0.47160606     0              0              0.23580303    -0.0092212947 
     58900   0.50174747     0              0              0.25087373     0.0010077276 
     58950   0.5325919      0              0              0.26629595     0.0035177724 
     59000   0.5877946      0              0              0.2938973     -0.010146172  
     59050   0.6240048      0              0              0.3120024     -0.015351319  
     59100   0.63806324     0              0              0.31903162     0.0057912068 
     59150   0.60460781     0              0              0.3023039     -0.026569928  
     59200   0.56122421     0              0              0.28061211    -0.006348904  
     59250   0.60136769     0              0              0.30068384     0.0071549865 
     59300   0.56436241     0              0              0.2821812     -0.0037982512 
     59350   0.64233009     0              0              0.32116504    -0.005700783  
     59400   0.66643937     0              0              0.33321968    -0.0018055495 
     59450   0.61811847     0              0              0.30905923     0.020183783  
     59500   0.56355875     0              0              0.28177938    -0.010106608  
     59550   0.45786023     0              0              0.22893012     0.013269635  
     59600   0.5009698      0              0              0.2504849      0.005060035  
     59650   0.49136888     0              0              0.24568444    -0.0042024309 
     59700   0.48447456     0              0              0.24223728     0.0028729814 
     59750   0.4897429      0              0              0.24487145     0.012953526  
     59800   0.47639433     0              0              0.23819716     0.013789085  
     59850   0.4796225      0              0              0.23981125     0.019480206  
     59900   0.47577893     0              0              0.23788946    -0.015750855  
     59950   0.49324464     0              0              0.24662232     0.0087723174 
     60000   0.43726684     0              0              0.21863342     0.015378287  
     60050   0.44592127     0              0              0.22296063     0.00037672949
     60100   0.58299809     0              0              0.29149905    -0.018607482  
     60150   0.63309693     0              0              0.31654847     0.014158805  
     60200   0.75353745     0              0              0.37676872     0.00011789061
     60250   0.8750965      0              0              0.43754825    -0.0066915686 
     60300   0.85457011     0              0              0.42728505     0.022636518  
     60350   0.91469758     0              0              0.45734879     0.00095320813
     60400   0.99542623     0              0              0.49771311    -0.012524483  
     60450   1.0162896      0              0              0.5081448     -0.038203017  
     60500   0.97861883     0              0              0.48930942     0.010280076  
     60550   0.92904833     0              0              0.46452417    -0.021112065  
     60600   1.0081076      0              0              0.50405379     0.024205939  
     60650   0.91177107     0              0              0.45588554    -0.015226409  
     60700   0.90840198     0              0              0.45420099     0.016060523  
     60750   0.89491574     0              0              0.44745787     0.015957864  
     60800   0.90167657     0              0              0.45083829    -0.02311101   
     60850   0.91135399     0              0              0.455677       0.0047096883 
     60900   0.81002942     0              0              0.40501471    -0.0011588964 
     60950   0.80497489     0              0              0.40248744     0.023656512  
     61000   0.90167552     0              0              0.45083776     0.021498457  
     61050   0.83884386     0              0              0.41942193    -0.0061836639 
     61100   0.82573183     0              0              0.41286592     0.033558906  
     61150   0.79817542     0              0              0.39908771     0.040727303  
     61200   0.85501954     0              0              0.42750977     0.0077651192 
     61250   0.86583566     0              0              0.43291783     0.014663968  
     61300   0.88298997     0              0              0.44149499     0.001989792  
     61350   0.84891959     0              0              0.4244598      0.022889823  
     61400   0.82929021     0              0              0.4146451      0.0077928126 
     61450   0.80585229     0              0              0.40292614     0.0016808583 
     61500   0.84127069     0              0              0.42063534    -0.029186922  
     61550   0.89181353     0              0              0.44590677    -0.025350556  
     61600   0.83884415     0              0              0.41942208    -0.0079339902 
     61650   0.68517297     0              0              0.34258648    -0.0062892408 
     61700   0.76042779     0              0              0.3802139     -0.032319781  
     61750   0.72792719     0              0              0.36396359     0.030410017  
     61800   0.82401453     0              0              0.41200727    -0.0046090927 
     61850   0.78369896     0              0              0.39184948     0.013536243  
     61900   0.79543016     0              0              0.39771508     0.011495624  
     61950   0.71694259     0              0              0.35847129     0.013992395  
     62000   0.72353426     0              0              0.36176713     0.012699132  
     62050   0.69881068     0              0              0.34940534    -0.016235285  
     62100   0.74899678     0              0              0.37449839    -0.023553102  
     62150   0.78000788     0              0              0.39000394    -0.024458226  
     62200   0.71412283     0              0              0.35706142     0.010092039  
     62250   0.72497733     0              0              0.36248866    -0.018481572  
     62300   0.79016278     0              0              0.39508139    -0.0064516955 
     62350   0.8096923      0              0              0.40484615     0.0015813171 
     62400   0.77226636     0              0              0.38613318    -0.0062161769 
     62450   0.72891369     0              0              0.36445685     0.035870135  
     62500   0.65325916     0              0              0.32662958     0.024376367  
     62550   0.64035874     0              0              0.32017937     0.010199122  
     62600   0.63283471     0              0              0.31641736     0.033204935  
     62650   0.70065186     0              0              0.35032593    -0.038062737  
     62700   0.67737606     0              0              0.33868803     0.018236001  
     62750   0.84198451     0              0              0.42099226     0.0022475237 
     62800   0.88176949     0              0              0.44088474    -0.012397135  
     62850   0.86829989     0              0              0.43414995     0.020983873  
     62900   0.85683354     0              0              0.42841677    -0.0043500227 
     62950   0.80564191     0              0              0.40282096    -0.0026124215 
     63000   0.79439409     0              0              0.39719705    -0.0062553288 
     63050   0.88654784     0              0              0.44327392    -0.0078402296 
     63100   0.87979776     0              0              0.43989888     0.00048572042
     63150   0.97282549     0              0              0.48641274     0.0051325651 
     63200   0.90386783     0              0              0.45193392     0.036495064  
     63250   0.83824966     0              0              0.41912483    -0.007886319  
     63300   0.84738023     0              0              0.42369012     0.0018660136 
     63350   0.83586313     0              0              0.41793156     0.027086937  
     63400   0.88603023     0              0              0.44301511     0.0040667085 
     63450   1.012193       0              0              0.5060965     -0.0010167457 
     63500   1.0609301      0              0              0.53046504     0.0037658429 
     63550   1.1693685      0              0              0.58468425     0.010485963  
     63600   1.0907539      0              0              0.54537694     0.0033195091 
     63650   1.0391236      0              0              0.51956181    -0.013133928  
     63700   1.1230572      0              0              0.56152858     0.0046064344 
     63750   0.98860207     0              0              0.49430104     0.014497427  
     63800   1.0952439      0              0              0.54762195    -0.0052620048 
     63850   1.1869074      0              0              0.59345368     0.026524003  
     63900   1.1139796      0              0              0.55698981    -0.0075663979 
     63950   1.1362105      0              0              0.56810525    -0.0037066445 
     64000   1.2260927      0              0              0.61304634    -0.00095134529
     64050   1.3441406      0              0              0.67207032     0.0034347918 
     64100   1.3519268      0              0              0.67596342     0.013978292  
     64150   1.3385903      0              0              0.66929513    -0.00098090283
     64200   1.4746835      0              0              0.73734176     0.0017744242 
     64250   1.5120077      0              0              0.75600387     0.029200926  
     64300   1.6405863      0              0              0.82029317     0.0036010254 
     64350   1.5345786      0              0              0.76728932     0.03255406   
     64400   1.7665157      0              0              0.88325784     0.014690091  
     64450   1.9075792      0              0              0.95378962     0.013669612  
     64500   1.9973983      0              0              0.99869916     0.0026290513 
     64550   1.9631788      0              0              0.98158938    -0.0017151426 
     64600   1.9920712      0              0              0.99603561     0.014361285  
     64650   2.1144593      0              0              1.0572296      0.0083351688 
     64700   1.9636419      0              0              0.98182094    -0.02435658   
     64750   1.9838165      0              0              0.99190826     0.005586972  
     64800   1.80486        0              0              0.90243002    -0.00062278634
     64850   2.0083195      0              0              1.0041597      0.011413812  
     64900   2.1614001      0              0              1.0807001      0.029171061  
     64950   2.1691922      0              0              1.0845961      0.014281542  
     65000   2.1405765      0              0              1.0702882      0.0058893639 
     65050   2.2537101      0              0              1.1268551      0.020733428  
     65100   2.2880995      0              0              1.1440498      0.030912622  
     65150   2.242539       0              0              1.1212695     -0.026071814  
     65200   2.2167599      0              0              1.10838        0.016230883  
     65250   2.1924504      0              0              1.0962252      0.037067936  
     65300   2.0603571      0              0              1.0301785     -0.0046656586 
     65350   2.0426228      0              0              1.0213114     -0.0014252348 
     65400   2.0585474      0              0              1.0292737     -0.0043536985 
     65450   2.1672293      0              0              1.0836147      0.009735264  
     65500   2.1160401      0              0              1.05802        0.01122445   
     65550   1.9938002      0              0              0.99690008    -0.0004073604 
     65600   1.8918123      0              0              0.94590614     0.0066106593 
     65650   1.7233801      0              0              0.86169006     0.0064224244 
     65700   1.7220327      0              0              0.86101634     0.013456036  
     65750   1.7442416      0              0              0.87212079     0.0091724839 
     65800   1.6449693      0              0              0.82248467    -0.0036580895 
     65850   1.6143332      0              0              0.80716658    -0.02100912   
     65900   1.6138566      0              0              0.80692832     0.034187716  
     65950   1.5518388      0              0              0.77591939    -0.0022761832 
     66000   1.7112111      0              0              0.85560553    -0.016001303  
     66050   1.6137223      0              0              0.80686114     0.012528123  
     66100   1.6338179      0              0              0.81690897     0.012557428  
     66150   1.593172       0              0              0.79658601    -0.0024759156 
     66200   1.667585       0              0              0.83379249     0.036102228  
     66250   1.465497       0              0              0.73274852     0.0073324961 
     66300   1.420159       0              0              0.7100795     -0.034973144  
     66350   1.2834848      0              0              0.64174238     0.00051280001
     66400   1.3610788      0              0              0.68053941    -0.00069735003
     66450   1.3952038      0              0              0.6976019      0.00043431833
     66500   1.3398418      0              0              0.66992088    -0.0052037504 
     66550   1.3191705      0              0              0.65958525     0.0055482706 
     66600   1.2409384      0              0              0.62046919     0.0051707425 
     66650   1.211843       0              0              0.60592148    -0.0029039911 
     66700   1.1156714      0              0              0.55783568    -0.0012399094 
     66750   1.1741923      0              0              0.58709615     0.012474347  
     66800   1.1686792      0              0              0.58433961     0.0092233102 
     66850   1.1368285      0              0              0.56841423     0.0003116887 
     66900   1.1496102      0              0              0.57480512     0.017790874  
     66950   1.0438079      0              0              0.52190394     0.0043317888 
     67000   1.1071657      0              0              0.55358287     0.0097102595 
     67050   1.1357608      0              0              0.56788038    -0.0326895    
     67100   1.0891466      0              0              0.54457331     0.020699429  
     67150   1.1101103      0              0              0.55505513     0.00088441616
     67200   1.1843982      0              0              0.59219909    -0.012449254  
     67250   1.1788456      0              0              0.58942279     0.0052654423 
     67300   1.2139143      0              0              0.60695715     0.0052795828 
     67350   1.2327043      0              0              0.61635217     0.0065847911 
     67400   1.2407401      0              0              0.62037005     0.019061407  
     67450   1.2971686      0              0              0.64858428     0.0070706008 
     67500   1.2690987      0              0              0.63454937    -0.018593151  
     67550   1.2088646      0              0              0.60443228     0.0012656864 
     67600   1.2311606      0              0              0.61558028     0.031508732  
     67650   1.2265637      0              0              0.61328185    -0.029219133  
     67700   1.2160828      0              0              0.60804138     0.039766506  
     67750   1.3390087      0              0              0.66950434     0.011578162  
     67800   1.2139065      0              0              0.60695325    -0.0087047016 
     67850   1.2807639      0              0              0.64038195     0.0046741347 
     67900   1.3325969      0              0              0.66629847     0.0056547329 
     67950   1.3231833      0              0              0.66159163     0.013611318  
     68000   1.4259784      0              0              0.71298921     0.011781209  
     68050   1.4486838      0              0              0.72434189    -0.014060465  
     68100   1.6013078      0              0              0.80065391     0.00040614592
     68150   1.4387458      0              0              0.71937289    -0.0023018302 
     68200   1.4090903      0              0              0.70454514    -0.00024995785
     68250   1.4112803      0              0              0.70564013     0.036448173  
     68300   1.4978748      0              0              0.74893738     0.0092866973 
     68350   1.46765        0              0              0.73382502    -0.0071013358 
     68400   1.548008       0              0              0.77400402    -0.0014831903 
     68450   1.5515891      0              0              0.77579453    -0.014247068  
     68500   1.6450989      0              0              0.82254944     0.014487178  
     68550   1.4315722      0              0              0.71578609    -0.0048826372 
     68600   1.4689127      0              0              0.73445634    -0.0046433996 
     68650   1.463463       0              0              0.7317315     -0.011212716  
     68700   1.391068       0              0              0.695534      -0.0018756382 
     68750   1.4237558      0              0              0.7118779     -0.010410924  
     68800   1.3993944      0              0              0.69969721     0.019176822  
     68850   1.3698069      0              0              0.68490343     0.01330329   
     68900   1.1692618      0              0              0.58463092    -5.4111892e-05
     68950   1.1818213      0              0              0.59091064    -0.0010436728 
     69000   1.1954124      0              0              0.59770619    -0.0062685335 
     69050   1.2214648      0              0              0.61073238     0.013631736  
     69100   1.2575747      0              0              0.62878736     0.0077282251 
     69150   1.1538895      0              0              0.57694476    -0.012561654  
     69200   1.1281987      0              0              0.56409933     0.00030483072
     69250   1.1082779      0              0              0.55413896    -0.011667067  
     69300   1.1161268      0              0              0.55806342     0.0062893854 
     69350   1.2968274      0              0              0.64841368    -0.0031609282 
     69400   1.4605417      0              0              0.73027083     0.007807464  
     69450   1.5154521      0              0              0.75772603    -0.0048420171 
     69500   1.4902719      0              0              0.74513594     0.013132721  
     69550   1.3265077      0              0              0.66325383     0.036585651  
     69600   1.3299957      0              0              0.66499787    -0.0066893612 
     69650   1.3236022      0              0              0.66180108    -0.0076279708 
     69700   1.2063077      0              0              0.60315385    -0.016379615  
     69750   1.2716597      0              0              0.63582984     0.0020195807 
     69800   1.2056406      0              0              0.60282029     0.033730779  
     69850   1.2256435      0              0              0.61282177     0.0028444225 
     69900   1.2772845      0              0              0.63864224    -0.0043616761 
     69950   1.2344577      0              0              0.61722885    -0.01240665   
     70000   1.1930182      0              0              0.5965091      0.0072399397 
     70050   1.1000676      0              0              0.55003381    -0.009111593  
     70100   1.0920581      0              0              0.54602906     0.0035136662 
     70150   1.1627841      0              0              0.58139204    -0.008449084  
     70200   1.0785516      0              0              0.53927581    -0.0019938145 
     70250   1.0646935      0              0              0.53234677    -0.0002865414 
     70300   1.0312687      0              0              0.51563435     0.0049833339 
     70350   0.96387688     0              0              0.48193844    -0.017095962  
     70400   0.95538068     0              0              0.47769034     0.0099119259 
     70450   1.0322115      0              0              0.51610573     0.0030257416 
     70500   1.0335834      0              0              0.51679171     0.0080742305 
     70550   1.110322       0              0              0.55516099    -0.0095935034 
     70600   1.0943891      0              0              0.54719457     0.0064044611 
     70650   1.0995572      0              0              0.5497786      0.0097688175 
     70700   1.09727        0              0              0.54863501     0.0051882538 
     70750   1.1452732      0              0              0.57263662     0.015758993  
     70800   1.1422971      0              0              0.57114857    -0.0079118077 
     70850   1.1138606      0              0              0.5569303      0.0067212087 
     70900   1.2693747      0              0              0.63468734     0.012297795  
     70950   1.285763       0              0              0.64288152     0.016746465  
     71000   1.1761065      0              0              0.58805327     0.0089603065 
     71050   1.1371875      0              0              0.56859374    -0.0013633385 
     71100   1.0307972      0              0              0.51539862    -0.010771308  
     71150   1.105845       0              0              0.55292249     0.0035106848 
     71200   1.0291948      0              0              0.5145974     -0.01135499   
     71250   1.0387098      0              0              0.5193549     -0.00075702476
     71300   1.0882905      0              0              0.54414524     0.001221121  
     71350   1.0730478      0              0              0.53652388     0.0036830212 
     71400   1.0235831      0              0              0.51179155    -0.00051424022
     71450   1.0159551      0              0              0.50797757     0.008937109  
     71500   1.0727862      0              0              0.53639308    -0.0023531706 
     71550   1.1297974      0              0              0.56489871     0.0018702997 
     71600   1.1888411      0              0              0.59442057     0.0052732212 
     71650   1.1946217      0              0              0.59731084     0.0018878176 
     71700   1.1604223      0              0              0.58021117    -0.0069235644 
     71750   1.1350742      0              0              0.56753712    -0.011336407  
     71800   1.0752946      0              0              0.5376473      0.027180899  
     71850   1.0540804      0              0              0.52704018     0.0022628856 
     71900   1.0274516      0              0              0.51372581     0.0081272414 
     71950   1.0416182      0              0              0.52080908    -0.0150325    
     72000   1.0820453      0              0              0.54102264     0.00061207089
     72050   1.1331703      0              0              0.56658516     0.011886294  
     72100   1.2444711      0              0              0.62223556    -0.0078231243 
     72150   1.0870735      0              0              0.54353675     0.012507574  
     72200   1.2465998      0              0              0.62329991    -0.0017009514 
     72250   1.317293       0              0              0.65864649    -0.026949015  
     72300   1.3645873      0              0              0.68229364    -0.0021403347 
     72350   1.289541       0              0              0.64477049    -0.011498338  
     72400   1.3195284      0              0              0.65976419    -0.01600099   
     72450   1.1884537      0              0              0.59422687     0.0070581556 
     72500   1.299007       0              0              0.64950352    -0.036316382  
     72550   1.3383156      0              0              0.66915781     0.0088685191 
     72600   1.3024311      0              0              0.65121554     0.0061811527 
     72650   1.2916507      0              0              0.64582536     0.0074989117 
     72700   1.3859002      0              0              0.69295008     0.012594128  
     72750   1.4226704      0              0              0.71133518    -0.0051116363 
     72800   1.4405069      0              0              0.72025347    -0.018770895  
     72850   1.4681427      0              0              0.73407136     0.013200353  
     72900   1.460597       0              0              0.73029852     0.0067387259 
     72950   1.5166381      0              0              0.75831905    -0.034783863  
     73000   1.4244455      0              0              0.71222274    -0.027714811  
     73050   1.4646359      0              0              0.73231797    -0.0081653285 
     73100   1.3553272      0              0              0.67766362     0.0044860378 
     73150   1.4141377      0              0              0.70706885     0.0081611992 
     73200   1.3255622      0              0              0.66278109     0.0031164466 
     73250   1.31895        0              0              0.65947502     0.0023729927 
     73300   1.2698399      0              0              0.63491996     0.0073753316 
     73350   1.2643029      0              0              0.63215145     0.0023824739 
     73400   1.3488903      0              0              0.67444517    -0.023507917  
     73450   1.2935546      0              0              0.64677731    -0.0073837294 
     73500   1.2398627      0              0              0.61993135     0.011913636  
     73550   1.1754891      0              0              0.58774456     0.0062549615 
     73600   1.1556196      0              0              0.57780982     0.022473555  
     73650   1.1650277      0              0              0.58251386     0.0082517724 
     73700   1.2063209      0              0              0.60316045    -0.006320354  
     73750   1.2747117      0              0              0.63735585    -0.01922829   
     73800   1.2655384      0              0              0.63276921     0.0089782587 
     73850   1.2746496      0              0              0.63732479     0.020784422  
     73900   1.0612152      0              0              0.5306076     -0.017578482  
     73950   1.1351217      0              0              0.56756085    -0.0055527727 
     74000   1.0147515      0              0              0.50737577     0.0013102397 
     74050   1.0677194      0              0              0.53385971    -0.0018703149 
     74100   1.1676164      0              0              0.58380818    -0.02215643   
     74150   1.2240817      0              0              0.61204083    -0.0081660924 
     74200   1.2499738      0              0              0.62498688     0.014429126  
     74250   1.210786       0              0              0.60539302     0.0034418094 
     74300   1.1907162      0              0              0.59535812     0.02150418   
     74350   1.1221811      0              0              0.56109053    -0.01373883   
     74400   1.2456714      0              0              0.62283572    -0.0038560098 
     74450   1.2121044      0              0              0.60605219    -0.0027117831 
     74500   1.2405151      0              0              0.62025757    -0.0040572235 
     74550   1.22852        0              0              0.61425998     0.0074779084 
     74600   1.2355606      0              0              0.61778028    -0.013158933  
     74650   1.2768075      0              0              0.63840376     0.0078509071 
     74700   1.3553577      0              0              0.67767887     0.012691949  
     74750   1.2820976      0              0              0.64104882     0.005419519  
     74800   1.4720832      0              0              0.73604158     0.0091947982 
     74850   1.6309744      0              0              0.81548721    -0.0042743005 
     74900   1.6263278      0              0              0.81316389    -0.003703379  
     74950   1.7064876      0              0              0.85324379     0.00096652104
     75000   1.702334       0              0              0.85116698     0.012128449  
     75050   1.8053452      0              0              0.90267258     0.0016195036 
     75100   1.9424427      0              0              0.97122137    -0.01168182   
     75150   1.8697315      0              0              0.93486576    -0.00062874118
     75200   1.8583641      0              0              0.92918205     0.012793488  
     75250   1.8724802      0              0              0.9362401      0.015922434  
     75300   1.8413507      0              0              0.92067534     0.0041806766 
     75350   1.5921742      0              0              0.7960871     -0.017580055  
     75400   1.5739435      0              0              0.78697173     0.016948262  
     75450   1.5169828      0              0              0.75849139     0.0037681538 
     75500   1.3512213      0              0              0.67561067     0.0011927653 
     75550   1.3680406      0              0              0.6840203     -0.015341615  
     75600   1.3860676      0              0              0.69303381    -0.0077812275 
     75650   1.4384248      0              0              0.71921238     0.024959069  
     75700   1.3104026      0              0              0.65520131     0.011811152  
     75750   1.3113393      0              0              0.65566965    -0.0020959532 
     75800   1.3821883      0              0              0.69109414     0.0054133429 
     75850   1.2829515      0              0              0.64147573     0.00430345   
     75900   1.3499115      0              0              0.67495573    -0.010191244  
     75950   1.4296074      0              0              0.71480369     0.0067465435 
     76000   1.4034685      0              0              0.70173427     0.02459203   
     76050   1.3981135      0              0              0.69905677     0.033676466  
     76100   1.3200673      0              0              0.66003363    -0.011675043  
     76150   1.2689941      0              0              0.63449705    -0.017490387  
     76200   1.245419       0              0              0.6227095      0.021377736  
     76250   1.3833426      0              0              0.69167128     0.010308598  
     76300   1.3624777      0              0              0.68123887    -0.022461164  
     76350   1.3397012      0              0              0.66985061     0.025427653  
     76400   1.3306293      0              0              0.66531467     0.014832235  
     76450   1.2646693      0              0              0.63233465     0.026849529  
     76500   1.3233823      0              0              0.66169116    -0.02126751   
     76550   1.1941437      0              0              0.59707183     0.02910286   
     76600   1.2597286      0              0              0.62986431     0.03249427   
     76650   1.2432457      0              0              0.62162286     0.013428961  
     76700   1.3018902      0              0              0.65094508    -0.022071286  
     76750   1.3422494      0              0              0.67112469     0.0056693688 
     76800   1.4147114      0              0              0.70735568     0.029500716  
     76850   1.4191981      0              0              0.70959906     0.035449418  
     76900   1.396223       0              0              0.69811149    -0.017351072  
     76950   1.3628004      0              0              0.68140019     0.020028718  
     77000   1.4034411      0              0              0.70172054    -0.00028055047
     77050   1.3651687      0              0              0.68258437    -0.0055936408 
     77100   1.3525271      0              0              0.67626357     0.002644377  
     77150   1.3992895      0              0              0.69964476     0.0028193626 
     77200   1.3506673      0              0              0.67533363     0.029619026  
     77250   1.4073966      0              0              0.70369832     0.028247656  
     77300   1.3314671      0              0              0.66573354     0.010455817  
     77350   1.1962007      0              0              0.59810033    -0.013596623  
     77400   1.2951756      0              0              0.64758781    -0.0015389517 
     77450   1.2765355      0              0              0.63826773    -0.0025940369 
     77500   1.2874337      0              0              0.64371684     0.0010398495 
     77550   1.3892498      0              0              0.6946249      0.029866987  
     77600   1.4923328      0              0              0.74616641     0.0013516963 
     77650   1.3868952      0              0              0.69344759     0.010841229  
     77700   1.3924486      0              0              0.69622428    -0.00098448823
     77750   1.325564       0              0              0.66278198     0.016769602  
     77800   1.2171918      0              0              0.60859592     0.036776717  
     77850   1.2008742      0              0              0.60043709    -0.023110858  
     77900   1.3201797      0              0              0.66008984     0.0011369982 
     77950   1.2544143      0              0              0.62720714     0.020871788  
     78000   1.1042274      0              0              0.55211368    -0.02327543   
     78050   1.0275997      0              0              0.51379983    -0.0071204895 
     78100   0.9469936      0              0              0.4734968     -0.00034766367
     78150   0.99383898     0              0              0.49691949     0.0047372742 
     78200   1.0302948      0              0              0.5151474     -0.016512953  
     78250   1.0206004      0              0              0.51030018     0.017016624  
     78300   0.99481433     0              0              0.49740717     0.022397191  
     78350   1.0950014      0              0              0.54750071     0.020831676  
     78400   1.1369833      0              0              0.56849165    -0.0035431364 
     78450   1.1319073      0              0              0.56595366     0.00069613111
     78500   1.0969228      0              0              0.54846139    -0.0044179368 
     78550   1.0778887      0              0              0.53894435    -0.0095401475 
     78600   1.0061536      0              0              0.50307681     0.0096723782 
     78650   0.95087344     0              0              0.47543672     0.010035616  
     78700   0.9434661      0              0              0.47173305    -0.010808723  
     78750   0.75162323     0              0              0.37581162    -0.028944221  
     78800   0.84264459     0              0              0.4213223      0.017891027  
     78850   0.77453086     0              0              0.38726543    -0.0078976312 
     78900   0.75832064     0              0              0.37916032    -0.013728693  
     78950   0.65797724     0              0              0.32898862    -0.0013914175 
     79000   0.64781761     0              0              0.3239088      0.01409206   
     79050   0.64555021     0              0              0.32277511     0.0035722698 
     79100   0.69829523     0              0              0.34914762     0.026749402  
     79150   0.77397102     0              0              0.38698551    -0.0023106388 
     79200   0.76354696     0              0              0.38177348     0.013179824  
     79250   0.86137186     0              0              0.43068593     0.0069755461 
     79300   0.84666887     0              0              0.42333443    -0.0079659492 
     79350   0.82630298     0              0              0.41315149     0.0018725825 
     79400   0.83796473     0              0              0.41898237     0.027723011  
     79450   0.79230001     0              0              0.39615        0.0099077307 
     79500   0.73545496     0              0              0.36772748     0.021375488  
     79550   0.75464546     0              0              0.37732273    -0.0072178483 
     79600   0.79044541     0              0              0.39522271     0.0047249066 
     79650   0.85308779     0              0              0.42654389     0.0021230079 
     79700   0.94053015     0              0              0.47026508    -0.0082090517 
     79750   0.94878349     0              0              0.47439175    -0.0012184222 
     79800   0.85449315     0              0              0.42724658     0.012774284  
     79850   0.95086955     0              0              0.47543477    -0.016759279  
     79900   1.115418       0              0              0.55770901    -0.018614247  
     79950   0.99087755     0              0              0.49543877     0.00060098944
     80000   1.018951       0              0              0.50947551     0.021851669  
     80050   0.93298974     0              0              0.46649487     0.037253623  
     80100   0.9739286      0              0              0.4869643      0.0021278556 
     80150   0.92598941     0              0              0.4629947      0.014407036  
     80200   0.98291452     0              0              0.49145726    -0.006312146  
     80250   0.89713774     0              0              0.44856887     0.00036156305
     80300   0.81679528     0              0              0.40839764     0.026939629  
     80350   0.82551496     0              0              0.41275748    -0.008096866  
     80400   0.84416539     0              0              0.4220827     -0.00061954981
     80450   0.73227798     0              0              0.36613899    -0.042162001  
     80500   0.65073778     0              0              0.32536889     0.0057958376 
     80550   0.7341464      0              0              0.3670732     -0.0047675449 
     80600   0.77976295     0              0              0.38988148     0.0076037257 
     80650   0.77326079     0              0              0.38663039    -0.02512808   
     80700   0.7248862      0              0              0.3624431     -0.0046510723 
     80750   0.68647027     0              0              0.34323514     0.018067652  
     80800   0.63088562     0              0              0.31544281     0.043775364  
     80850   0.57405264     0              0              0.28702632     0.022536904  
     80900   0.59899882     0              0              0.29949941    -5.0260044e-05
     80950   0.71376081     0              0              0.3568804     -0.00022406525
     81000   0.7186463      0              0              0.35932315    -0.0056340208 
     81050   0.83563119     0              0              0.41781559     0.011296837  
     81100   0.75703697     0              0              0.37851849     0.012427349  
     81150   0.786783       0              0              0.3933915      0.032412641  
     81200   0.69580159     0              0              0.3479008     -0.0047940573 
     81250   0.64715911     0              0              0.32357956    -0.012821209  
     81300   0.67387566     0              0              0.33693783     0.01737864   
     81350   0.78045362     0              0              0.39022681    -0.0057747401 
     81400   0.76817956     0              0              0.38408978    -0.0055045088 
     81450   0.75021908     0              0              0.37510954    -0.018582076  
     81500   0.80642211     0              0              0.40321106     0.020004961  
     81550   0.70367867     0              0              0.35183934     0.013217728  
     81600   0.88155988     0              0              0.44077994    -0.020398247  
     81650   0.94183231     0              0              0.47091616    -0.019224897  
     81700   0.97767528     0              0              0.48883764     0.00091464221
     81750   0.96013852     0              0              0.48006926     0.010863525  
     81800   1.1161494      0              0              0.55807469     0.034408073  
     81850   1.1013333      0              0              0.55066665    -0.0042174861 
     81900   1.0020343      0              0              0.50101717     0.0063066274 
     81950   1.1565003      0              0              0.57825017     0.007733214  
     82000   1.1999226      0              0              0.59996129     0.0088300795 
     82050   1.1826183      0              0              0.59130917     0.019738975  
     82100   1.2752277      0              0              0.63761386     0.018905928  
     82150   1.3256741      0              0              0.66283707    -0.0008771326 
     82200   1.2125779      0              0              0.60628897     0.016627859  
     82250   1.0390484      0              0              0.51952422    -0.004220607  
     82300   1.1428146      0              0              0.57140732     0.015153407  
     82350   1.1721712      0              0              0.58608559    -0.0035503127 
     82400   1.1839677      0              0              0.59198386     0.020083459  
     82450   1.1724561      0              0              0.58622807    -0.014406922  
     82500   1.1017831      0              0              0.55089155     0.019632005  
     82550   1.1968464      0              0              0.59842322    -0.0093506966 
     82600   1.1688698      0              0              0.5844349      0.015912807  
     82650   1.1530077      0              0              0.57650386    -0.008925471  
     82700   1.1468268      0              0              0.57341339    -9.1750652e-05
     82750   1.1601346      0              0              0.58006731    -0.0029491676 
     82800   1.1569676      0              0              0.57848381     0.011206757  
     82850   1.2097837      0              0              0.60489185     0.0070656324 
     82900   1.2581411      0              0              0.62907056    -0.0069833723 
     82950   1.4542106      0              0              0.7271053     -0.010779259  
     83000   1.4748573      0              0              0.73742866     0.010450696  
     83050   1.4271354      0              0              0.71356768     0.016449848  
     83100   1.441947       0              0              0.72097349    -0.020056227  
     83150   1.4411713      0              0              0.72058564     0.0095466428 
     83200   1.3987542      0              0              0.69937708     0.010961024  
     83250   1.3210168      0              0              0.66050838     0.003068225  
     83300   1.2734778      0              0              0.63673891    -0.013174283  
     83350   1.3123649      0              0              0.65618245    -0.0066116144 
     83400   1.445261       0              0              0.7226305     -0.0099178861 
     83450   1.4750987      0              0              0.73754937     0.0072462963 
     83500   1.321974       0              0              0.66098702     0.010395763  
     83550   1.409783       0              0              0.70489152     0.011725667  
     83600   1.278245       0              0              0.63912248     0.012386446  
     83650   1.3746308      0              0              0.68731542    -0.0086932364 
     83700   1.3363988      0              0              0.66819938     0.021333199  
     83750   1.2953522      0              0              0.64767612     0.014055797  
     83800   1.1802674      0              0              0.59013368     0.00080512914
     83850   1.2056618      0              0              0.60283091    -0.00079684279
     83900   1.2560819      0              0              0.62804097    -0.012062356  
     83950   1.263821       0              0              0.63191049     0.013140683  
     84000   1.292049       0              0              0.64602452     0.02579243   
     84050   1.1236108      0              0              0.5618054      0.044695429  
     84100   1.0482126      0              0              0.52410632     0.009962707  
     84150   1.0580791      0              0              0.52903953    -0.021561877  
     84200   1.1405661      0              0              0.57028306     0.00010436266
     84250   1.2247624      0              0              0.6123812      0.0053509685 
     84300   1.2492334      0              0              0.6246167      0.002577845  
     84350   1.3874922      0              0              0.69374608    -0.027813467  
     84400   1.3876064      0              0              0.69380321    -0.0087938342 
     84450   1.3294896      0              0              0.66474479    -0.0066847155 
     84500   1.3320346      0              0              0.66601731    -0.014315879  
     84550   1.3201637      0              0              0.66008186    -0.017753562  
     84600   1.5642657      0              0              0.78213287     0.048626239  
     84650   1.5174527      0              0              0.75872636     0.023463089  
     84700   1.4394105      0              0              0.71970524    -0.017747342  
     84750   1.3830838      0              0              0.69154192     0.0028693638 
     84800   1.2513107      0              0              0.62565534     0.032063754  
     84850   1.2242474      0              0              0.6121237     -0.012919165  
     84900   1.2078213      0              0              0.60391064     0.035386292  
     84950   1.1866682      0              0              0.59333412    -0.0057058225 
     85000   1.1998566      0              0              0.5999283      0.0019680273 
     85050   1.3224812      0              0              0.6612406     -0.0021041235 
     85100   1.3341768      0              0              0.66708839     0.026674713  
     85150   1.3014251      0              0              0.65071254    -0.031450122  
     85200   1.468296       0              0              0.73414799     0.00022365977
     85250   1.4439443      0              0              0.72197217     0.01236249   
     85300   1.4394255      0              0              0.71971276    -0.0059970826 
     85350   1.3346875      0              0              0.66734375     0.032560371  
     85400   1.2227316      0              0              0.61136581    -0.00080090419
     85450   1.1695909      0              0              0.58479543     0.0066672076 
     85500   1.1843344      0              0              0.59216718     0.022182094  
     85550   1.1711115      0              0              0.58555577    -0.01155789   
     85600   1.1972165      0              0              0.59860824    -2.2101635e-05
     85650   1.1745138      0              0              0.58725689    -0.015003669  
     85700   1.2399138      0              0              0.61995688     0.0025452532 
     85750   1.207379       0              0              0.60368951    -0.0030192644 
     85800   1.1874436      0              0              0.59372178    -0.0027691745 
     85850   1.1645906      0              0              0.58229529    -0.004590446  
     85900   1.2001088      0              0              0.60005441    -0.0038906534 
     85950   1.2179172      0              0              0.60895862    -0.014390493  
     86000   1.3770351      0              0              0.68851753     0.0013135807 
     86050   1.3050146      0              0              0.65250729    -0.0011270816 
     86100   1.3408394      0              0              0.67041969    -0.0013229179 
     86150   1.3193714      0              0              0.65968572    -0.022345621  
     86200   1.3806483      0              0              0.69032416     0.024775268  
     86250   1.3627772      0              0              0.68138859    -0.019353778  
     86300   1.437402       0              0              0.71870098     0.012168813  
     86350   1.3712339      0              0              0.68561696     0.00064552458
     86400   1.4514233      0              0              0.72571166     0.01984467   
     86450   1.4345463      0              0              0.71727316    -0.021919868  
     86500   1.4775415      0              0              0.73877074     0.015702928  
     86550   1.4532051      0              0              0.72660254     0.027039152  
     86600   1.4849669      0              0              0.74248344     0.014919912  
     86650   1.5515759      0              0              0.77578796     0.020793708  
     86700   1.5400194      0              0              0.77000969     0.01391294   
     86750   1.549598       0              0              0.774799      -0.0091991699 
     86800   1.6017419      0              0              0.80087095     0.017309605  
     86850   1.7392242      0              0              0.86961211    -0.013299178  
     86900   1.9143254      0              0              0.9571627     -0.012502708  
     86950   1.7201829      0              0              0.86009147    -0.0086344695 
     87000   1.7498102      0              0              0.87490508     0.0093855323 
     87050   1.8229182      0              0              0.91145912    -0.00082953656
     87100   1.6446099      0              0              0.82230495    -0.0054722751 
     87150   1.6555489      0              0              0.82777446    -0.004947075  
     87200   1.6024078      0              0              0.80120388    -0.0024901861 
     87250   1.6445265      0              0              0.82226327     0.018081983  
     87300   1.4205892      0              0              0.71029462    -0.00026654937
     87350   1.5487979      0              0              0.77439894    -0.023090905  
     87400   1.5099734      0              0              0.75498671    -0.0079081478 
     87450   1.5472804      0              0              0.77364019     0.00052500984
     87500   1.5254775      0              0              0.76273875    -0.0012926017 
     87550   1.5245852      0              0              0.7622926      0.00073816173
     87600   1.4876851      0              0              0.74384257    -0.012316534  
     87650   1.4206893      0              0              0.71034463    -0.0020743916 
     87700   1.4006377      0              0              0.70031886    -0.043848485  
     87750   1.3307478      0              0              0.66537391     0.0071032477 
     87800   1.4292566      0              0              0.71462831    -0.03336688   
     87850   1.3877522      0              0              0.69387612    -0.0068865606 
     87900   1.4156224      0              0              0.70781118     0.0046964812 
     87950   1.3968387      0              0              0.69841937     0.0049380607 
     88000   1.3185957      0              0              0.65929785    -0.014163691  
     88050   1.3412227      0              0              0.67061135     0.015283251  
     88100   1.3702098      0              0              0.68510491     0.0081076522 
     88150   1.4537202      0              0              0.72686012     0.05561437   
     88200   1.3282546      0              0              0.6641273      0.031659479  
     88250   1.3758686      0              0              0.68793431    -0.0051907321 
     88300   1.4478375      0              0              0.72391874    -0.0018836174 
     88350   1.4374368      0              0              0.71871839    -0.013133133  
     88400   1.3769618      0              0              0.68848091    -0.014543158  
     88450   1.4048911      0              0              0.70244554    -0.0054065944 
     88500   1.4163189      0              0              0.70815946    -0.0028770443 
     88550   1.4704724      0              0              0.73523619     0.030574239  
     88600   1.4772047      0              0              0.73860236     0.0083560225 
     88650   1.5063407      0              0              0.75317033     0.020075817  
     88700   1.4622189      0              0              0.73110945    -0.0070475751 
     88750   1.4329478      0              0              0.7164739      0.0054702333 
     88800   1.2930725      0              0              0.64653623     0.028488245  
     88850   1.2521302      0              0              0.62606512     0.0043424305 
     88900   1.2783226      0              0              0.63916131     0.0090695878 
     88950   1.1721471      0              0              0.58607356    -0.0060217372 
     89000   1.309109       0              0              0.65455452     0.00043155722
     89050   1.3288788      0              0              0.66443939     0.0012285438 
     89100   1.3180099      0              0              0.65900497     0.017382262  
     89150   1.3041405      0              0              0.65207027     0.020446982  
     89200   1.2865337      0              0              0.64326684     0.015736915  
     89250   1.3500702      0              0              0.6750351      0.029436829  
     89300   1.2841728      0              0              0.64208639     0.043441443  
     89350   1.3530251      0              0              0.67651257    -0.011628622  
     89400   1.3180902      0              0              0.65904512     0.010400494  
     89450   1.2884001      0              0              0.64420004    -0.006449386  
     89500   1.3168733      0              0              0.65843663    -0.00090757613
     89550   1.3321618      0              0              0.66608091    -0.010017186  
     89600   1.3598379      0              0              0.67991895     0.0097778873 
     89650   1.2815414      0              0              0.64077069     0.011140313  
     89700   1.3411971      0              0              0.67059854    -0.0089513369 
     89750   1.3131871      0              0              0.65659357    -0.0043637379 
     89800   1.3091626      0              0              0.65458131    -0.030213463  
     89850   1.3829961      0              0              0.69149806    -0.011624853  
     89900   1.3203207      0              0              0.66016033     0.029686989  
     89950   1.3203116      0              0              0.66015578    -0.0053821435 
     90000   1.166503       0              0              0.5832515     -0.008886431  
     90050   1.156678       0              0              0.57833901    -0.023104014  
     90100   1.2344624      0              0              0.61723121    -0.017610045  
     90150   1.2389433      0              0              0.61947164     0.024659293  
     90200   1.3046716      0              0              0.65233581     0.033082924  
     90250   1.3859007      0              0              0.69295034     0.0011003312 
     90300   1.3377848      0              0              0.66889242     0.010352366  
     90350   1.2848478      0              0              0.6424239      0.015176424  
     90400   1.2522806      0              0              0.6261403     -0.039370409  
     90450   1.3495297      0              0              0.67476486     0.022158604  
     90500   1.3880563      0              0              0.69402815    -0.022389925  
     90550   1.3893027      0              0              0.69465136     0.0017036672 
     90600   1.3247725      0              0              0.66238624    -0.021908868  
     90650   1.2538503      0              0              0.62692516     0.021954028  
     90700   1.3124449      0              0              0.65622245     0.014960443  
     90750   1.3591077      0              0              0.67955385     0.014060016  
     90800   1.2934596      0              0              0.64672982    -0.01908496   
     90850   1.1449393      0              0              0.57246967    -0.0088590104 
     90900   1.1267026      0              0              0.56335128    -0.0028413434 
     90950   1.0656756      0              0              0.53283779    -0.0011320526 
     91000   1.0758038      0              0              0.53790192     0.0051639767 
     91050   1.0554735      0              0              0.52773673     0.00049937406
     91100   1.0441486      0              0              0.52207428     0.019524493  
     91150   1.0977108      0              0              0.54885542    -0.012567813  
     91200   1.0137228      0              0              0.50686139     0.028615717  
     91250   1.0854491      0              0              0.54272454     0.012854419  
     91300   1.0909583      0              0              0.54547913    -0.029280302  
     91350   1.0835668      0              0              0.5417834      0.0007646459 
     91400   1.1454438      0              0              0.57272192     0.027670271  
     91450   1.165202       0              0              0.582601       0.0012342809 
     91500   1.2339505      0              0              0.61697526     5.7555426e-05
     91550   1.2102585      0              0              0.60512926     0.00014201429
     91600   1.0913525      0              0              0.54567626     0.0068927488 
     91650   1.169318       0              0              0.584659       0.010290861  
     91700   1.2788989      0              0              0.63944944    -0.0095275576 
     91750   1.2885918      0              0              0.64429591     0.0097160783 
     91800   1.2087311      0              0              0.60436557     0.0034505422 
     91850   1.2533514      0              0              0.6266757      0.019589748  
     91900   1.228278       0              0              0.61413902    -0.02120877   
     91950   1.1231233      0              0              0.56156167    -0.0083124597 
     92000   1.1538727      0              0              0.57693635     0.017991072  
     92050   1.1520243      0              0              0.57601217    -0.0095745881 
     92100   1.0935637      0              0              0.54678184    -0.0094911721 
     92150   1.078822       0              0              0.53941102    -0.011862237  
     92200   0.99140226     0              0              0.49570113     0.019971731  
     92250   1.0220197      0              0              0.51100984     0.0057672362 
     92300   1.1358028      0              0              0.56790138    -0.030116083  
     92350   1.0642574      0              0              0.53212871     0.0057119444 
     92400   1.0644488      0              0              0.53222438     0.022134499  
     92450   1.1298872      0              0              0.56494358     0.038572679  
     92500   1.0379657      0              0              0.51898285    -0.055708944  
     92550   0.9885357      0              0              0.49426785    -0.0080250977 
     92600   1.1000336      0              0              0.55001682     0.020696255  
     92650   0.98357725     0              0              0.49178863    -0.004478874  
     92700   1.0076683      0              0              0.50383413    -0.0095882709 
     92750   1.0341166      0              0              0.51705829    -0.029633885  
     92800   1.0099881      0              0              0.50499406     0.008763979  
     92850   1.155337       0              0              0.57766852    -0.010220608  
     92900   0.99444576     0              0              0.49722288     0.019866702  
     92950   1.1271579      0              0              0.56357893     0.014722029  
     93000   1.0241193      0              0              0.51205967    -0.020352094  
     93050   0.95070482     0              0              0.47535241     0.009042729  
     93100   0.93866911     0              0              0.46933456     0.035126824  
     93150   0.84283899     0              0              0.4214195      0.033580291  
     93200   0.71569962     0              0              0.35784981     0.00015273298
     93250   0.77788059     0              0              0.38894029    -0.0017684925 
     93300   0.71571716     0              0              0.35785858    -0.020348733  
     93350   0.65731577     0              0              0.32865788    -0.00027816664
     93400   0.67759819     0              0              0.3387991     -0.0024317246 
     93450   0.7768876      0              0              0.3884438     -0.0051205748 
     93500   0.75883134     0              0              0.37941567    -0.014803021  
     93550   0.76520166     0              0              0.38260083    -0.0070650603 
     93600   0.8449685      0              0              0.42248425    -0.022470419  
     93650   0.81733446     0              0              0.40866723     0.0083182805 
     93700   0.91139813     0              0              0.45569907     0.0065048241 
     93750   1.1077308      0              0              0.55386542     0.0349407    
     93800   1.0781477      0              0              0.53907385    -0.022425142  
     93850   1.0872107      0              0              0.54360533    -0.0063045396 
     93900   1.078095       0              0              0.5390475     -0.043543364  
     93950   0.9684126      0              0              0.4842063      0.0076298143 
     94000   0.89773639     0              0              0.4488682      0.0020183832 
     94050   0.9741896      0              0              0.4870948      0.0058688986 
     94100   0.98650858     0              0              0.49325429     0.018647034  
     94150   0.9715757      0              0              0.48578785    -0.011524817  
     94200   1.00023        0              0              0.500115       0.02300468   
     94250   1.0435403      0              0              0.52177015     0.01378233   
     94300   1.1097229      0              0              0.55486146    -0.013136514  
     94350   1.0529828      0              0              0.52649142     0.0016415555 
     94400   0.9903078      0              0              0.4951539      0.0056007244 
     94450   1.0212902      0              0              0.51064511    -0.0069035992 
     94500   1.1618501      0              0              0.58092507     0.0053375964 
     94550   1.1047767      0              0              0.55238833     0.0034521342 
     94600   1.124479       0              0              0.56223951     0.0017834605 
     94650   1.081834       0              0              0.54091702    -0.018088944  
     94700   1.1921787      0              0              0.59608935    -0.0096288798 
     94750   1.2496764      0              0              0.62483819     0.0040767126 
     94800   1.3331559      0              0              0.66657795     0.013825473  
     94850   1.4177984      0              0              0.70889921    -0.012200973  
     94900   1.4827776      0              0              0.74138878     0.0071358709 
     94950   1.4212584      0              0              0.71062921     0.025093142  
     95000   1.5516335      0              0              0.77581674    -0.026032234  
     95050   1.6842811      0              0              0.84214057     0.023952494  
     95100   1.718596       0              0              0.85929801     0.0051107915 
     95150   1.7501981      0              0              0.87509903     0.028597612  
     95200   1.8694358      0              0              0.93471789     0.017839201  
     95250   1.854693       0              0              0.9273465     -0.0026613097 
     95300   1.8510075      0              0              0.92550374     0.022908391  
     95350   1.8714699      0              0              0.93573497    -0.0099973968 
     95400   2.0727159      0              0              1.0363579     -0.01686427   
     95450   2.1136811      0              0              1.0568405      0.0061082638 
     95500   2.169712       0              0              1.084856      -0.0065183483 
     95550   2.1206683      0              0              1.0603341      0.027462806  
     95600   2.1769798      0              0              1.0884899      0.00024590601
     95650   2.2671849      0              0              1.1335925     -0.00097351113
     95700   2.2829311      0              0              1.1414656     -0.019514979  
     95750   2.2497739      0              0              1.1248869     -0.0041686992 
     95800   2.2947076      0              0              1.1473538     -0.015756566  
     95850   2.2988795      0              0              1.1494398      0.020150587  
     95900   2.282737       0              0              1.1413685      0.00071961707
     95950   2.2347574      0              0              1.1173787      0.0028600642 
     96000   2.1075149      0              0              1.0537574      0.0019832315 
     96050   2.1458974      0              0              1.0729487      0.015055261  
     96100   2.1946939      0              0              1.097347       0.035242511  
     96150   2.0500446      0              0              1.0250223      0.011358637  
     96200   2.0074418      0              0              1.0037209      0.013512174  
     96250   1.9032537      0              0              0.95162683     0.010465855  
     96300   1.7801241      0              0              0.89006205     0.0031258314 
     96350   1.7414425      0              0              0.87072126     0.013687641  
     96400   1.6418245      0              0              0.82091227     0.0097257992 
     96450   1.7085643      0              0              0.85428215    -0.010616269  
     96500   1.6040097      0              0              0.80200483    -0.0036630446 
     96550   1.7313451      0              0              0.86567253     0.014748864  
     96600   1.712197       0              0              0.8560985      0.019105641  
     96650   1.8132696      0              0              0.90663482     0.017076855  
     96700   1.7657576      0              0              0.88287881    -0.0046365137 
     96750   1.7148949      0              0              0.85744746     0.0041731789 
     96800   1.7959425      0              0              0.89797127     0.010340167  
     96850   1.7933809      0              0              0.89669045     0.02320017   
     96900   1.7709004      0              0              0.88545022    -0.0067911694 
     96950   1.7488591      0              0              0.87442954    -0.010350412  
     97000   1.6381127      0              0              0.81905637    -0.0078397382 
     97050   1.670798       0              0              0.83539901     0.011570321  
     97100   1.5515142      0              0              0.77575709    -0.0088780705 
     97150   1.5064842      0              0              0.75324211     0.01392804   
     97200   1.8829917      0              0              0.94149583     0.019111589  
     97250   1.8027318      0              0              0.90136588     0.021275084  
     97300   1.8058802      0              0              0.90294009     0.0029943898 
     97350   1.8541776      0              0              0.92708881     0.024020286  
     97400   1.8851251      0              0              0.94256255     0.011373961  
     97450   1.9282267      0              0              0.96411334     0.012192538  
     97500   2.0465263      0              0              1.0232632      0.026975685  
     97550   1.9540106      0              0              0.97700529    -0.0064802179 
     97600   1.9145955      0              0              0.95729774     0.0039729863 
     97650   1.9557157      0              0              0.97785786    -0.010103798  
     97700   2.0875167      0              0              1.0437584      0.0067338522 
     97750   2.1230081      0              0              1.0615041      0.021531854  
     97800   2.2035231      0              0              1.1017616      0.015542765  
     97850   2.1418868      0              0              1.0709434      0.011328152  
     97900   2.0722155      0              0              1.0361077      0.024462297  
     97950   1.9492893      0              0              0.97464465     0.033259412  
     98000   2.0255516      0              0              1.0127758      0.010332356  
     98050   2.0968018      0              0              1.0484009      0.0071945723 
     98100   2.0357402      0              0              1.0178701     -0.0098521665 
     98150   2.0548073      0              0              1.0274036      0.0079058491 
     98200   1.9672106      0              0              0.98360531    -0.0049737774 
     98250   1.8513521      0              0              0.92567607    -0.016530279  
     98300   1.860651       0              0              0.93032548     0.00028738647
     98350   1.9236288      0              0              0.96181442     0.029034343  
     98400   1.8396802      0              0              0.91984011     0.0013049909 
     98450   1.9049129      0              0              0.95245647     0.0076816222 
     98500   1.7511932      0              0              0.87559658    -0.026099714  
     98550   1.6581077      0              0              0.82905383    -0.0043427409 
     98600   1.5203988      0              0              0.7601994     -0.0045921783 
     98650   1.5416978      0              0              0.77084892    -0.0047813342 
     98700   1.4454346      0              0              0.7227173     -0.011752485  
     98750   1.422996       0              0              0.71149798    -0.00803833   
     98800   1.3190506      0              0              0.6595253      0.0075244405 
     98850   1.3601102      0              0              0.6800551     -0.020448546  
     98900   1.4389521      0              0              0.71947604    -0.0083163913 
     98950   1.3086491      0              0              0.65432453    -0.02636994   
     99000   1.3062422      0              0              0.65312112     6.1022343e-05
     99050   1.3772022      0              0              0.68860108    -0.017510734  
     99100   1.2911938      0              0              0.64559688     0.0022103661 
     99150   1.187528       0              0              0.59376398    -0.020596492  
     99200   1.1626346      0              0              0.58131731     0.023105582  
     99250   1.0861579      0              0              0.54307896    -0.022030332  
     99300   1.0184876      0              0              0.50924381     0.00092960227
     99350   1.1132128      0              0              0.55660641     0.02060603   
     99400   1.0882704      0              0              0.54413519     0.0075514218 
     99450   1.0219662      0              0              0.5109831      0.023971086  
     99500   1.0791717      0              0              0.53958584    -0.031811256  
     99550   1.0672086      0              0              0.5336043      0.0048480038 
     99600   1.1370983      0              0              0.56854915     0.0077515286 
     99650   1.2223319      0              0              0.61116593    -0.0093893513 
     99700   1.1485496      0              0              0.57427479     0.023080681  
     99750   1.2179871      0              0              0.60899355    -0.0049376202 
     99800   1.3187208      0              0              0.65936038    -0.0080443361 
     99850   1.3432563      0              0              0.67162817     0.011668661  
     99900   1.4551242      0              0              0.72756211    -0.0090105467 
     99950   1.8227158      0              0              0.91135788     0.020802088  
    100000   1.8988844      0              0              0.9494422      0.013497385  
    100001   1.9076284      0              0              0.95381421     0.0084647555 
Loop time of 0.840967 on 1 procs for 100000 steps with 8 atoms

Performance: 51369435.424 tau/day, 118910.730 timesteps/s, 951.286 katom-step/s
44.6% CPU use with 1 MPI tasks x 1 OpenMP threads

MPI task timing breakdown:
Section |  min time  |  avg time  |  max time  |%varavg| %total
---------------------------------------------------------------
Pair    | 0.038359   | 0.038359   | 0.038359   |   0.0 |  4.56
Bond    | 0.00839    | 0.00839    | 0.00839    |   0.0 |  1.00
Neigh   | 0.031465   | 0.031465   | 0.031465   |   0.0 |  3.74
Comm    | 0.026938   | 0.026938   | 0.026938   |   0.0 |  3.20
Output  | 0.45561    | 0.45561    | 0.45561    |   0.0 | 54.18
Modify  | 0.15645    | 0.15645    | 0.15645    |   0.0 | 18.60
Other   |            | 0.1238     |            |       | 14.72

Nlocal:              8 ave           8 max           8 min
Histogram: 1 0 0 0 0 0 0 0 0 0
Nghost:              7 ave           7 max           7 min
Histogram: 1 0 0 0 0 0 0 0 0 0
Neighs:              0 ave           0 max           0 min
Histogram: 1 0 0 0 0 0 0 0 0 0

Total # of neighbors = 0
Ave neighs/atom = 0
Ave special neighs/atom = 3.25
Neighbor list builds = 4765
Dangerous builds = 0
Total wall time: 0:00:00
