LAMMPS (2 Aug 2023 - Update 3)
OMP_NUM_THREADS environment is not set. Defaulting to 1 thread. (src/comm.cpp:98)
  using 1 OpenMP thread(s) per MPI task
Loaded 1 plugins from F:\LAMMPS\LAMMPS 64-bit 2Aug2023\plugins
# Script to create a Polymer using Patchy Particles (PP)
# Types of Particles:
#   Cross linker:   PPA
#   Monomer:        PPB

# Initialization
units lj
dimension 3
boundary p p p

# Types of atoms and that stuff
atom_style full
bond_style zero nocoeff
pair_style hybrid lj/cut 2.5 cosine/squared 2.5 zero 2.5

# Get data for box and particles
read_data data.patchyP1.lmp group CL1
Reading data file ...
  orthogonal box = (-5 -5 -5) to (5 5 5)
  1 by 1 by 1 MPI processor grid
WARNING: Atom style in data file atom-ID molecule-ID atom-type q x y z differs from currently defined atom style full (src/read_data.cpp:621)
  reading atoms ...
  5 atoms
  scanning bonds ...
  4 = max bonds/atom
WARNING: Bond style ID parameters in data file differs from currently defined bond style zero (src/read_data.cpp:724)
  reading bonds ...
  4 bonds
Finding 1-2 1-3 1-4 neighbors ...
  special bond factors lj:    0        0        0       
  special bond factors coul:  0        0        0       
     4 = max # of 1-2 neighbors
     3 = max # of 1-3 neighbors
     3 = max # of 1-4 neighbors
     4 = max # of special neighbors
  special bonds CPU = 0.002 seconds
  read_data CPU = 0.011 seconds
read_data data.patchyP2.lmp add append group Mo1
Reading data file ...
  orthogonal box = (-5 -5 -5) to (5 5 5)
  1 by 1 by 1 MPI processor grid
WARNING: Atom style in data file atom-ID molecule-ID atom-type q x y z differs from currently defined atom style full (src/read_data.cpp:621)
  reading atoms ...
  3 atoms
  scanning bonds ...
  2 = max bonds/atom
WARNING: Bond style ID parameters in data file differs from currently defined bond style zero (src/read_data.cpp:724)
  reading bonds ...
  2 bonds
Finding 1-2 1-3 1-4 neighbors ...
  special bond factors lj:    0        0        0       
  special bond factors coul:  0        0        0       
     4 = max # of 1-2 neighbors
     3 = max # of 1-3 neighbors
     3 = max # of 1-4 neighbors
     4 = max # of special neighbors
  special bonds CPU = 0.002 seconds
  read_data CPU = 0.010 seconds

displace_atoms Mo1 move 0.0 0.0 3.0 units box
Displacing atoms ...

# Set the patchy particle interaction
fix CLfix CL1 rigid single
  1 rigid bodies with 5 atoms
fix Mofix Mo1 rigid single
  1 rigid bodies with 3 atoms

pair_coeff 1 1 zero 2.24
pair_coeff 2 2 zero 2.24
pair_coeff 3 3 zero 2.24
pair_coeff 1 3 zero 1.68
pair_coeff 1 4 zero 1.68
pair_coeff 2 3 zero 1.68
pair_coeff 2 4 zero 1.68
pair_coeff 1 2 lj/cut 1.0 1.0 2.24 # i-type j-type eps sigma cutoff
pair_coeff 3 4 cosine/squared 5.0 0.5 0.56 wca # i-type j-type eps sigma cutoff wca
pair_coeff 4 4 cosine/squared 5.0 0.5 0.56 wca # i-type j-type eps sigma cutoff wca

# Neighbor list
neighbor 0.3 bin # extra-distance style
#neigh_modify delay 5

minimize 1.0e-4 1.0e-6 1000 10000 # etol ftol maxiter maxeval
Generated 0 of 6 mixed pair_coeff terms from geometric mixing rule
WARNING: More than one fix rigid (src/RIGID/fix_rigid.cpp:709)
WARNING: More than one fix rigid (src/RIGID/fix_rigid.cpp:709)
Neighbor list info ...
  update: every = 1 steps, delay = 0 steps, check = yes
  max neighbors/atom: 2000, page size: 100000
  master list distance cutoff = 2.54
  ghost atom cutoff = 2.54
  binsize = 1.27, bins = 8 8 8
  5 neighbor lists, perpetual/occasional/extra = 5 0 0
  (1) pair lj/cut, perpetual, skip from (4)
      attributes: half, newton on
      pair build: skip
      stencil: none
      bin: none
  (2) pair cosine/squared, perpetual, skip from (5)
      attributes: half, newton on, cut 0.8600000000000001
      pair build: skip
      stencil: none
      bin: none
  (3) pair zero, perpetual, skip from (4)
      attributes: half, newton on
      pair build: skip
      stencil: none
      bin: none
  (4) neighbor class addition, perpetual
      attributes: half, newton on
      pair build: half/bin/newton
      stencil: half/bin/3d
      bin: standard
  (5) neighbor class addition, perpetual, trim from (4)
      attributes: half, newton on, cut 0.8600000000000001
      pair build: trim
      stencil: none
      bin: none
Per MPI rank memory allocation (min/avg/max) = 12.84 | 12.84 | 12.84 Mbytes
   Step          Temp          E_pair         E_mol          TotEng         Press     
         0   0              0              0              0              0            
         1   0              0              0              0              0            
Loop time of 0.000236 on 1 procs for 1 steps with 8 atoms

0.0% CPU use with 1 MPI tasks x 1 OpenMP threads

Minimization stats:
  Stopping criterion = search direction is not downhill
  Energy initial, next-to-last, final = 
                     0                  0                  0
  Force two-norm initial, final = 0 0
  Force max component initial, final = 0 0
  Final line search alpha, max atom move = 0 0
  Iterations, force evaluations = 1 0

MPI task timing breakdown:
Section |  min time  |  avg time  |  max time  |%varavg| %total
---------------------------------------------------------------
Pair    | 5e-06      | 5e-06      | 5e-06      |   0.0 |  2.12
Bond    | 1e-06      | 1e-06      | 1e-06      |   0.0 |  0.42
Neigh   | 0          | 0          | 0          |   0.0 |  0.00
Comm    | 1e-06      | 1e-06      | 1e-06      |   0.0 |  0.42
Output  | 0          | 0          | 0          |   0.0 |  0.00
Modify  | 0          | 0          | 0          |   0.0 |  0.00
Other   |            | 0.000229   |            |       | 97.03

Nlocal:              8 ave           8 max           8 min
Histogram: 1 0 0 0 0 0 0 0 0 0
Nghost:              3 ave           3 max           3 min
Histogram: 1 0 0 0 0 0 0 0 0 0
Neighs:              0 ave           0 max           0 min
Histogram: 1 0 0 0 0 0 0 0 0 0

Total # of neighbors = 0
Ave neighs/atom = 0
Ave special neighs/atom = 3.25
Neighbor list builds = 0
Dangerous builds = 0

fix 1 all langevin 1.0 1.0 50.0 12345
fix 2 all nve

thermo 50
compute t all temp
compute ep all pe
compute ek all ke
compute tm all momentum

dump 1 all atom 50 dump.patchy_pairs1_ng

timestep 0.005
run 100000
Generated 0 of 6 mixed pair_coeff terms from geometric mixing rule
WARNING: More than one fix rigid (src/RIGID/fix_rigid.cpp:709)
WARNING: More than one fix rigid (src/RIGID/fix_rigid.cpp:709)
WARNING: One or more atoms are time integrated more than once (src/modify.cpp:289)
Per MPI rank memory allocation (min/avg/max) = 11.72 | 11.72 | 11.72 Mbytes
   Step          Temp          E_pair         E_mol          TotEng         Press     
         1   0              0              0              0              0            
        50   0.014322986    0              0              0.007161493   -0.0029524055 
       100   0.03646068     0              0              0.01823034    -0.017250368  
       150   0.045221298    0              0              0.022610649    0.015494569  
       200   0.047687793    0              0              0.023843896   -0.00074151367
       250   0.069346541    0              0              0.034673271   -0.0018671329 
       300   0.085007449    0              0              0.042503725   -0.0034043379 
       350   0.10342464     0              0              0.051712318   -0.013695424  
       400   0.099802124    0              0              0.049901062   -0.00082704834
       450   0.13759743     0              0              0.068798717    0.0040108891 
       500   0.1186818      0              0              0.059340899   -0.0083182546 
       550   0.15464177     0              0              0.077320886   -0.0058056055 
       600   0.17563339     0              0              0.087816695   -0.011355132  
       650   0.17982391     0              0              0.089911955    0.0065314939 
       700   0.2409854      0              0              0.1204927     -0.0046501363 
       750   0.24882918     0              0              0.12441459    -0.0029410137 
       800   0.26622443     0              0              0.13311221     0.007270663  
       850   0.29959763     0              0              0.14979882     0.0118483    
       900   0.2768158      0              0              0.1384079      0.0052929586 
       950   0.28778953     0              0              0.14389476     0.016996752  
      1000   0.3175879      0              0              0.15879395     0.0093953171 
      1050   0.31009571     0              0              0.15504786    -0.0065599953 
      1100   0.32816665     0              0              0.16408332     0.0019324515 
      1150   0.30504835     0              0              0.15252418     0.0013039841 
      1200   0.32680005     0              0              0.16340003    -0.0042852786 
      1250   0.24636798     0              0              0.12318399    -0.010592649  
      1300   0.33079822     0              0              0.16539911    -0.0023274541 
      1350   0.28614383     0              0              0.14307191    -0.012000704  
      1400   0.25155152     0              0              0.12577576    -0.011868819  
      1450   0.28392801     0              0              0.141964       0.0038043661 
      1500   0.26453077     0              0              0.13226538     0.012603391  
      1550   0.3117932      0              0              0.1558966      0.003951076  
      1600   0.33953137     0              0              0.16976569    -0.0024924597 
      1650   0.38483011     0              0              0.19241505    -0.0082688557 
      1700   0.50356777     0              0              0.25178388     0.0071822575 
      1750   0.52567667     0              0              0.26283834     0.014816485  
      1800   0.52995797     0              0              0.26497898     0.0010325966 
      1850   0.56113066     0              0              0.28056533    -7.4499023e-05
      1900   0.5237141      0              0              0.26185705     0.013280041  
      1950   0.61100345     0              0              0.30550172     0.017227971  
      2000   0.6940841      0              0              0.34704205     0.019054242  
      2050   0.56959895     0              0              0.28479948     0.0037047208 
      2100   0.61829868     0              0              0.30914934    -0.0087606731 
      2150   0.64626323     0              0              0.32313161    -0.012588002  
      2200   0.60095488     0              0              0.30047744    -0.0069005172 
      2250   0.63166127     0              0              0.31583063    -0.020838791  
      2300   0.69875861     0              0              0.34937931    -0.0069843755 
      2350   0.67234675     0              0              0.33617338     0.013211359  
      2400   0.60416924     0              0              0.30208462     0.020550503  
      2450   0.50642163     0              0              0.25321082    -0.0075708353 
      2500   0.47281353     0              0              0.23640676    -0.002454528  
      2550   0.51692626     0              0              0.25846313    -0.0036182821 
      2600   0.5073904      0              0              0.2536952      0.0086728176 
      2650   0.53602861     0              0              0.26801431     0.0093572116 
      2700   0.56838033     0              0              0.28419017     0.016860633  
      2750   0.51992781     0              0              0.25996391    -0.0076106033 
      2800   0.49322712     0              0              0.24661356    -0.0087221656 
      2850   0.46342815     0              0              0.23171408     0.0096061974 
      2900   0.41312693     0              0              0.20656347     0.021055966  
      2950   0.55821457     0              0              0.27910728     0.019002382  
      3000   0.55401342     0              0              0.27700671     0.012863191  
      3050   0.62269626     0              0              0.31134813     0.0099437321 
      3100   0.67601608     0              0              0.33800804    -0.016254442  
      3150   0.68607836     0              0              0.34303918    -0.018310741  
      3200   0.70148647     0              0              0.35074323    -0.012342584  
      3250   0.64853908     0              0              0.32426954     0.00088817335
      3300   0.6428256      0              0              0.3214128      0.0026551773 
      3350   0.633618       0              0              0.316809       0.02644748   
      3400   0.56949476     0              0              0.28474738    -0.0024755345 
      3450   0.59486219     0              0              0.2974311     -0.0118068    
      3500   0.70283125     0              0              0.35141562    -0.02049748   
      3550   0.64318739     0              0              0.32159369    -0.002773787  
      3600   0.73100259     0              0              0.3655013     -0.01113638   
      3650   0.69499284     0              0              0.34749642     0.0096402859 
      3700   0.74939789     0              0              0.37469895     0.0093520079 
      3750   0.81580132     0              0              0.40790066    -0.0013459373 
      3800   0.78623227     0              0              0.39311614    -0.017235577  
      3850   0.80657159     0              0              0.4032858     -0.005397364  
      3900   0.81578492     0              0              0.40789246    -0.012724454  
      3950   0.8546015      0              0              0.42730075     0.0019385475 
      4000   0.84812703     0              0              0.42406351     0.0045355286 
      4050   0.84689749     0              0              0.42344875     0.020459618  
      4100   0.86367389     0              0              0.43183695     0.0089724802 
      4150   0.77209927     0              0              0.38604963     0.011248699  
      4200   0.79709197     0              0              0.39854599     0.017727502  
      4250   0.669606       0              0              0.334803      -0.0026493822 
      4300   0.63329662     0              0              0.31664831     0.00088884292
      4350   0.4982057      0              0              0.24910285    -0.011904744  
      4400   0.57464051     0              0              0.28732025     0.004125128  
      4450   0.62131095     0              0              0.31065548     0.0079247943 
      4500   0.60492292     0              0              0.30246146     0.013069773  
      4550   0.67628024     0              0              0.33814012     0.016090175  
      4600   0.70666991     0              0              0.35333495     0.0088727677 
      4650   0.70457795     0              0              0.35228898     0.0014242908 
      4700   0.72479379     0              0              0.36239689    -0.0028362672 
      4750   0.55279356    -0.0040718849   0              0.27232489     0.0044214369 
      4800   0.61502189    -0.0051654322   0              0.30234551     0.0012624817 
      4850   0.64756325    -0.005648425    0              0.3181332      0.013136273  
      4900   0.67307447    -0.0056870928   0              0.33085014     0.0039251817 
      4950   0.81058649    -0.0048911858   0              0.40040206    -0.0045218471 
      5000   0.75085951     0              0              0.37542976    -0.0010359657 
      5050   0.66007538     0              0              0.33003769    -0.00070260061
      5100   0.68039225     0              0              0.34019613     0.0055416775 
      5150   0.62216508     0              0              0.31108254     0.011650429  
      5200   0.67146077     0              0              0.33573039     0.014498802  
      5250   0.62550639     0              0              0.31275319    -0.012286867  
      5300   0.66169732     0              0              0.33084866    -0.0032920523 
      5350   0.67290119     0              0              0.3364506     -0.00070774789
      5400   0.67296904     0              0              0.33648452    -0.012060567  
      5450   0.71205464     0              0              0.35602732     0.0051902978 
      5500   0.7488336      0              0              0.3744168     -0.012280547  
      5550   0.75487883     0              0              0.37743942     0.017002803  
      5600   0.77289972     0              0              0.38644986     0.0062926611 
      5650   0.83400828     0              0              0.41700414     0.00084080915
      5700   0.78541317     0              0              0.39270658    -0.0086155658 
      5750   0.83518948     0              0              0.41759474     0.00062859792
      5800   0.90581694     0              0              0.45290847    -0.01453239   
      5850   0.82012728     0              0              0.41006364    -0.0074961258 
      5900   0.84512844     0              0              0.42256422    -0.040187254  
      5950   0.74440946     0              0              0.37220473     0.0094642444 
      6000   0.78935038     0              0              0.39467519     0.010349781  
      6050   0.82481129     0              0              0.41240564    -0.006412791  
      6100   0.78792172     0              0              0.39396086    -0.015949117  
      6150   0.75732592     0              0              0.37866296     0.0021932145 
      6200   0.79181834     0              0              0.39590917    -0.0059035496 
      6250   0.87599277     0              0              0.43799639     0.0080496219 
      6300   0.85390094     0              0              0.42695047     0.0069651683 
      6350   0.94602752     0              0              0.47301376    -0.0021621959 
      6400   0.92749714     0              0              0.46374857     0.026107297  
      6450   0.89909006     0              0              0.44954503    -0.02011627   
      6500   0.97884996     0              0              0.48942498     0.010911973  
      6550   1.0109652      0              0              0.50548258     0.023192239  
      6600   0.95682109     0              0              0.47841054    -0.040200617  
      6650   1.0328353      0              0              0.51641764     0.022001918  
      6700   1.0137531      0              0              0.50687657     0.029769962  
      6750   0.95740451     0              0              0.47870226     0.024759553  
      6800   0.94483459     0              0              0.47241729    -0.0055621268 
      6850   0.97781874     0              0              0.48890937     0.0026022725 
      6900   1.1017189      0              0              0.55085943    -0.00084785898
      6950   1.0537601      0              0              0.52688004    -0.0072815373 
      7000   1.1352087      0              0              0.56760436    -0.0045009714 
      7050   1.1581483      0              0              0.57907416     0.0017332456 
      7100   1.1048944      0              0              0.55244718    -0.017879219  
      7150   0.94276755     0              0              0.47138378     0.0035757835 
      7200   0.87248725     0              0              0.43624362     0.024791317  
      7250   0.89334074     0              0              0.44667037     0.011339941  
      7300   0.94422182     0              0              0.47211091    -0.020843872  
      7350   1.0093004      0              0              0.50465022    -0.012973791  
      7400   0.98409504     0              0              0.49204752     0.0050091404 
      7450   1.0695591      0              0              0.53477955    -0.01565955   
      7500   0.99119858     0              0              0.49559929    -0.011243885  
      7550   1.041113       0              0              0.5205565     -0.032529017  
      7600   1.0180361      0              0              0.50901804     0.0085235286 
      7650   0.99692821     0              0              0.4984641      0.060956079  
      7700   0.91349682     0              0              0.45674841     0.04194869   
      7750   0.90615517     0              0              0.45307758    -0.010219354  
      7800   1.019431       0              0              0.50971548     0.013855977  
      7850   1.0371663      0              0              0.51858314     0.015034533  
      7900   1.0060483      0              0              0.50302416    -0.0048665513 
      7950   1.0023089      0              0              0.50115444    -0.025761553  
      8000   0.993892       0              0              0.496946       0.016185966  
      8050   0.90563197     0              0              0.45281598    -0.011433632  
      8100   0.94255164     0              0              0.47127582    -0.0074474132 
      8150   1.0252802      0              0              0.51264012     0.0054956523 
      8200   1.2057246      0              0              0.6028623      0.030909809  
      8250   1.2261278      0              0              0.6130639      0.0073745977 
      8300   1.1790015      0              0              0.58950073     0.02219226   
      8350   1.2099547      0              0              0.60497734     0.011263992  
      8400   1.205194       0              0              0.60259701     0.0049653253 
      8450   1.2200047      0              0              0.61000236     0.00015734715
      8500   1.1486448      0              0              0.5743224     -0.0043604424 
      8550   1.1216003      0              0              0.56080014     0.015128392  
      8600   1.0727791      0              0              0.53638953     0.02295587   
      8650   1.1341475      0              0              0.56707375    -0.016739703  
      8700   1.1034439      0              0              0.55172193     0.0023811299 
      8750   1.1157642      0              0              0.55788212     0.018851728  
      8800   1.2091902      0              0              0.6045951      0.0044155441 
      8850   1.0458912      0              0              0.52294562    -0.001772129  
      8900   0.99530501     0              0              0.4976525      0.006500194  
      8950   0.88084171     0              0              0.44042085     0.0090117968 
      9000   0.87540239     0              0              0.4377012     -0.020546295  
      9050   0.88391236     0              0              0.44195618     0.0098335915 
      9100   0.88702243     0              0              0.44351122     0.00032480723
      9150   0.93335859     0              0              0.46667929     0.0050960401 
      9200   0.92221459     0              0              0.4611073     -0.0070821664 
      9250   0.97056441     0              0              0.48528221     0.026874345  
      9300   0.95184233     0              0              0.47592117     0.015173569  
      9350   0.94251002     0              0              0.47125501    -0.0055337654 
      9400   0.99879305     0              0              0.49939653    -0.015302163  
      9450   1.1316982      0              0              0.56584912    -0.012228019  
      9500   1.1485133      0              0              0.57425665     0.039285465  
      9550   1.187296       0              0              0.59364799     0.025577943  
      9600   1.2521229      0              0              0.62606145    -0.0039599721 
      9650   1.1789255      0              0              0.58946273    -0.00056756337
      9700   1.1728928      0              0              0.58644641     0.011835937  
      9750   1.1630924      0              0              0.5815462     -0.013447491  
      9800   1.1174255      0              0              0.55871276    -0.00031738858
      9850   1.0155559      0              0              0.50777795     0.016322337  
      9900   1.1162202      0              0              0.5581101      0.0074038608 
      9950   1.2079576      0              0              0.6039788     -0.0085731788 
     10000   1.2559058      0              0              0.62795288     0.020664871  
     10050   1.3642915      0              0              0.68214574    -0.0054403937 
     10100   1.5263735      0              0              0.76318676     0.021650003  
     10150   1.3429947      0              0              0.67149733     0.0042569081 
     10200   1.328652       0              0              0.66432598     0.0071254683 
     10250   1.2748762      0              0              0.63743812    -0.0072290736 
     10300   1.340038       0              0              0.670019      -0.006966395  
     10350   1.4498259      0              0              0.72491297     0.0010518146 
     10400   1.3397125      0              0              0.66985624    -0.0029525967 
     10450   1.4899758      0              0              0.74498788     0.004003608  
     10500   1.3923616      0              0              0.69618081     0.026653148  
     10550   1.5402261      0              0              0.77011307     0.00026960248
     10600   1.507108       0              0              0.75355399    -0.0089210419 
     10650   1.4598078      0              0              0.72990389    -0.005222897  
     10700   1.44873        0              0              0.72436502     0.024280663  
     10750   1.4429694      0              0              0.72148468    -0.014323897  
     10800   1.4617638      0              0              0.73088189     0.015645455  
     10850   1.4436741      0              0              0.72183705     0.0080948748 
     10900   1.4219073      0              0              0.71095367     0.019195619  
     10950   1.2062314      0              0              0.6031157      0.014056567  
     11000   1.0363305      0              0              0.51816524     0.0011768417 
     11050   0.99876235     0              0              0.49938118    -0.019076514  
     11100   0.97743617     0              0              0.48871808    -0.039348455  
     11150   0.95188251     0              0              0.47594125     0.0096090308 
     11200   1.0307131      0              0              0.51535653     0.0023343927 
     11250   1.0302753      0              0              0.51513765    -0.0085721681 
     11300   1.126624       0              0              0.563312       0.044228421  
     11350   1.1410045      0              0              0.57050224     0.061049705  
     11400   1.2616106      0              0              0.63080531    -0.0025602738 
     11450   1.3562812      0              0              0.67814061    -0.0022134706 
     11500   1.4801285      0              0              0.74006426     0.01578876   
     11550   1.4910578      0              0              0.7455289      0.005878584  
     11600   1.4680824      0              0              0.7340412      0.015540668  
     11650   1.4412341      0              0              0.72061707     0.013760353  
     11700   1.4304232      0              0              0.71521159    -0.014564198  
     11750   1.4380217      0              0              0.71901087     0.01480205   
     11800   1.4038289      0              0              0.70191443     0.013939753  
     11850   1.5776976      0              0              0.78884881    -0.0034904312 
     11900   1.506754       0              0              0.75337701     0.0098520601 
     11950   1.5234284      0              0              0.76171419     0.024568506  
     12000   1.5317145      0              0              0.76585726    -0.00033100655
     12050   1.6339704      0              0              0.81698521     0.0085492849 
     12100   1.6836413      0              0              0.84182065     0.014175463  
     12150   1.69687        0              0              0.84843498     0.0020495571 
     12200   1.5834455      0              0              0.79172275    -0.013538641  
     12250   1.5346232      0              0              0.76731158     0.008250591  
     12300   1.6547981      0              0              0.82739907    -0.0014343542 
     12350   1.5786805      0              0              0.78934025     0.010089994  
     12400   1.5306093      0              0              0.76530464     7.9347233e-05
     12450   1.5416884      0              0              0.77084422    -0.0015911804 
     12500   1.5195436      0              0              0.75977182     0.00020978319
     12550   1.4240053      0              0              0.71200267    -0.0068385149 
     12600   1.3428116      0              0              0.67140578     0.014531486  
     12650   1.2983704      0              0              0.6491852     -0.0093652366 
     12700   1.3007792      0              0              0.65038959     0.00025854964
     12750   1.3690496      0              0              0.6845248     -0.013304998  
     12800   1.3870486      0              0              0.69352428     0.0040403401 
     12850   1.4978892      0              0              0.7489446     -0.0014611105 
     12900   1.5216846      0              0              0.76084232    -0.0020458895 
     12950   1.5616489      0              0              0.78082445    -0.0027094624 
     13000   1.6082021      0              0              0.80410106    -0.01409483   
     13050   1.4218876      0              0              0.71094382     0.0027544326 
     13100   1.5584458      0              0              0.77922291     0.016860981  
     13150   1.5765757      0              0              0.78828784     0.0058030047 
     13200   1.5196442      0              0              0.75982208     0.010938359  
     13250   1.4439281      0              0              0.72196404     0.00069126723
     13300   1.3785927      0              0              0.68929635     0.0061104966 
     13350   1.3010041      0              0              0.65050206    -0.0074848509 
     13400   1.3037625      0              0              0.65188127    -0.0079954727 
     13450   1.2019653      0              0              0.60098264    -0.0079090765 
     13500   1.2983509      0              0              0.64917545     0.0036134717 
     13550   1.2432452      0              0              0.62162258     0.0019386707 
     13600   1.2630799      0              0              0.63153997     0.011491722  
     13650   1.2542532      0              0              0.62712659     0.0086075409 
     13700   1.37201        0              0              0.68600501     0.0083512736 
     13750   1.1821413      0              0              0.59107065    -0.0051620643 
     13800   1.1834745      0              0              0.59173725     0.0090999818 
     13850   1.1651712      0              0              0.58258558     0.0061502137 
     13900   1.0657118      0              0              0.53285589     0.022972874  
     13950   0.96243556     0              0              0.48121778     0.011093924  
     14000   1.0624747      0              0              0.53123736     0.0092112962 
     14050   1.0623246      0              0              0.53116232    -0.017602494  
     14100   1.0848953      0              0              0.54244766    -0.016425547  
     14150   1.0694176      0              0              0.53470879     0.0058864632 
     14200   1.067656       0              0              0.53382802    -0.0008392682 
     14250   1.1006084      0              0              0.5503042      0.043112601  
     14300   1.1850741      0              0              0.59253707    -0.025650791  
     14350   1.1207065      0              0              0.56035325     0.026106212  
     14400   0.91368328     0              0              0.45684164     0.0087833947 
     14450   0.88978865     0              0              0.44489433    -0.0057090203 
     14500   0.85878601     0              0              0.429393      -0.013102854  
     14550   0.82436027     0              0              0.41218013     0.036685357  
     14600   0.86727335     0              0              0.43363667    -0.0023519364 
     14650   0.87410698     0              0              0.43705349    -0.0019660191 
     14700   1.0060237      0              0              0.50301186    -0.0065244862 
     14750   0.9801325      0              0              0.49006625     0.010702305  
     14800   0.92743222     0              0              0.46371611    -0.010631388  
     14850   0.87446153     0              0              0.43723076    -0.0120524    
     14900   0.9578663      0              0              0.47893315     0.0079709289 
     14950   1.0874416      0              0              0.54372079    -0.010314525  
     15000   1.1732033      0              0              0.58660163    -0.00857822   
     15050   1.131957       0              0              0.56597852    -0.036505166  
     15100   1.1628013      0              0              0.58140066    -0.0032260925 
     15150   1.1008755      0              0              0.55043774    -0.034105527  
     15200   1.1773416      0              0              0.58867081    -0.010036076  
     15250   1.241691       0              0              0.62084549     0.014476956  
     15300   1.2572967      0              0              0.62864833    -0.0070374641 
     15350   1.3224404      0              0              0.66122022     0.014070414  
     15400   1.407758       0              0              0.70387899    -0.028909798  
     15450   1.4165387      0              0              0.70826935     0.01914637   
     15500   1.4076013      0              0              0.70380067    -0.0036965172 
     15550   1.3784343      0              0              0.68921715    -0.017824815  
     15600   1.2974868      0              0              0.64874338     0.014622983  
     15650   1.205309       0              0              0.60265448     0.013450354  
     15700   1.2562683      0              0              0.62813415    -0.0024803645 
     15750   1.2991233      0              0              0.64956167     0.022932808  
     15800   1.2697076      0              0              0.63485378     0.0022929617 
     15850   1.2025739      0              0              0.60128696     0.035185812  
     15900   1.3186958      0              0              0.65934788    -0.021248464  
     15950   1.2496242      0              0              0.6248121      0.0014796846 
     16000   1.2511344      0              0              0.62556719     0.017451045  
     16050   1.2946695      0              0              0.64733473    -0.0015355108 
     16100   1.4089042      0              0              0.70445212    -0.019888139  
     16150   1.3431396      0              0              0.67156978     0.018133495  
     16200   1.271197       0              0              0.63559848    -0.015686913  
     16250   1.3245039      0              0              0.66225195    -0.0082592455 
     16300   1.3506414      0              0              0.67532072     0.020975242  
     16350   1.3071029      0              0              0.65355146    -0.0018711828 
     16400   1.3377487      0              0              0.66887433    -0.0051132781 
     16450   1.3817033      0              0              0.69085166     0.0036032026 
     16500   1.3799477      0              0              0.68997386     0.013308629  
     16550   1.3473708     -0.0046785617   0              0.66900684    -0.011513443  
     16600   1.3016661     -0.0069388347   0              0.64389421    -0.018013809  
     16650   1.3724496     -0.0087686685   0              0.67745613     0.0092957212 
     16700   1.4461653     -0.0096702057   0              0.71341246     0.024773347  
     16750   1.5455436     -0.0091686373   0              0.76360318    -0.0017274247 
     16800   1.5769478     -0.0069604867   0              0.78151339     0.011901498  
     16850   1.4741821     -0.0044529956   0              0.73263803     0.0060049044 
     16900   1.3493591      0              0              0.67467957     0.017787686  
     16950   1.3523041      0              0              0.67615203     0.0081019212 
     17000   1.379337       0              0              0.68966849     0.0065651551 
     17050   1.4458889      0              0              0.72294446     0.0091419498 
     17100   1.5057398      0              0              0.75286991     0.01737379   
     17150   1.5573007      0              0              0.77865037     0.020789485  
     17200   1.5261105      0              0              0.76305523     0.011718158  
     17250   1.591365       0              0              0.79568248     0.019652095  
     17300   1.4847971      0              0              0.74239854    -0.0051147833 
     17350   1.5912176      0              0              0.7956088      0.0089717544 
     17400   1.7121853      0              0              0.85609265     0.0057448405 
     17450   1.7074248      0              0              0.8537124      0.0020915253 
     17500   1.7031193      0              0              0.85155965    -0.0086793464 
     17550   1.7830086      0              0              0.89150429    -0.033533199  
     17600   1.7369235      0              0              0.86846173     0.01891673   
     17650   1.6508366      0              0              0.82541831     0.017113762  
     17700   1.7278316      0              0              0.86391582    -0.0084861129 
     17750   1.6471917      0              0              0.82359583    -0.0026122217 
     17800   1.6103707      0              0              0.80518537     0.0068793744 
     17850   1.6708903      0              0              0.83544516    -0.0033676632 
     17900   1.7279364      0              0              0.86396819    -0.019539849  
     17950   1.5231114      0              0              0.76155568     0.014587329  
     18000   1.5081823      0              0              0.75409115     0.0073485676 
     18050   1.4572787      0              0              0.72863934    -0.011239181  
     18100   1.4676529      0              0              0.73382643    -0.0063067775 
     18150   1.3627868      0              0              0.68139341     0.0039025578 
     18200   1.5643363      0              0              0.78216813    -0.0097302838 
     18250   1.5253274      0              0              0.76266369    -0.012876902  
     18300   1.5691178      0              0              0.78455891    -0.011711536  
     18350   1.6661138      0              0              0.83305688     0.0083221081 
     18400   1.5730132      0              0              0.78650658     0.0031396276 
     18450   1.4615351      0              0              0.73076756     0.020890653  
     18500   1.416498       0              0              0.70824899     0.0076749595 
     18550   1.4903106      0              0              0.74515529     0.0095321486 
     18600   1.4873502      0              0              0.74367511     0.01045089   
     18650   1.6150907      0              0              0.80754533    -0.016091809  
     18700   1.6216169      0              0              0.81080843     0.0017999607 
     18750   1.4522402      0              0              0.72612008     0.000490774  
     18800   1.3873832     -0.0050673059   0              0.68862427    -0.039328354  
     18850   1.4101512     -0.011351814    0              0.69372377     0.0045207786 
     18900   1.4852687     -0.027930445    0              0.71470388    -0.0075747119 
     18950   1.5061632     -0.067104335    0              0.68597729     0.013128073  
     19000   1.6402278     -0.12343557     0              0.69667832     0.019341647  
     19050   0.92184761    -0.69667899     0             -0.23575518    -0.034483832  
     19100   0.89130333    -0.74971997     0             -0.3040683      0.039202382  
     19150   0.78556316    -0.72184619     0             -0.32906461     0.019002806  
     19200   0.7033147     -0.69650471     0             -0.34484736    -0.0030076108 
     19250   0.65292473    -0.68439548     0             -0.35793311     0.0014786414 
     19300   0.64540444    -0.68066828     0             -0.35796606     0.010141192  
     19350   0.72893061    -0.69391437     0             -0.32944907     0.01226387   
     19400   0.78135977    -0.73237418     0             -0.3416943     -0.0025811827 
     19450   0.60100832    -0.68336903     0             -0.38286487    -0.0042846859 
     19500   0.79733664    -0.749992       0             -0.35132369    -0.0035300429 
     19550   0.71470745    -0.70361582     0             -0.3462621     -0.0035846177 
     19600   0.70355083    -0.6699296      0             -0.31815419    -0.014367572  
     19650   0.69106895    -0.6524086      0             -0.30687413     0.0089945123 
     19700   0.63269877    -0.64384857     0             -0.32749918    -0.00057169243
     19750   0.58869775    -0.64310041     0             -0.34875153    -0.00037294162
     19800   0.59574744    -0.64593006     0             -0.34805634    -0.0024327392 
     19850   0.58206522    -0.65015431     0             -0.3591217      0.0012001857 
     19900   0.57516338    -0.65173202     0             -0.36415033     0.01685005   
     19950   0.53452203    -0.65008866     0             -0.38282764     0.019134111  
     20000   0.54482953    -0.6486207      0             -0.37620594    -0.016918953  
     20050   0.61250353    -0.64681259     0             -0.34056082    -0.032091068  
     20100   0.58121471    -0.64421614     0             -0.35360878     0.0074905851 
     20150   0.51369882    -0.64109155     0             -0.38424214     0.030408543  
     20200   0.50112386    -0.63728178     0             -0.38671985    -0.024722034  
     20250   0.60124777    -0.63388083     0             -0.33325694    -0.0013653069 
     20300   0.51492951    -0.63295941     0             -0.37549466    -0.021117697  
     20350   0.53554097    -0.63643083     0             -0.36866034    -0.030534105  
     20400   0.49799018    -0.64406993     0             -0.39507484    -0.0077506404 
     20450   0.48700973    -0.65341375     0             -0.40990889     0.009848066  
     20500   0.53036106    -0.66077325     0             -0.39559271     0.013165634  
     20550   0.50806668    -0.66414152     0             -0.41010818     0.021428422  
     20600   0.49707044    -0.6633683      0             -0.41483308     0.00023220485
     20650   0.53581423    -0.6578037      0             -0.38989658    -0.011515977  
     20700   0.47977287    -0.65221916     0             -0.41233273    -0.0014116232 
     20750   0.51820505    -0.64745261     0             -0.38835009     0.004775417  
     20800   0.43439778    -0.64254423     0             -0.42534534     0.0088001388 
     20850   0.45845227    -0.63783168     0             -0.40860555     0.0041279519 
     20900   0.45150366    -0.6337389      0             -0.40798707    -0.0014145019 
     20950   0.47540862    -0.63082301     0             -0.3931187      0.0239181    
     21000   0.53488622    -0.62914641     0             -0.3617033     -0.0081132831 
     21050   0.54105433    -0.629465       0             -0.35893783    -0.018491549  
     21100   0.53657931    -0.63032702     0             -0.36203737    -0.010311418  
     21150   0.59147167    -0.63221564     0             -0.3364798     -0.03335417   
     21200   0.53291111    -0.63445435     0             -0.36799879    -0.0097755945 
     21250   0.62400287    -0.63660107     0             -0.32459964    -0.0004908715 
     21300   0.67896287    -0.6399741      0             -0.30049267    -0.0032418852 
     21350   0.72762714    -0.64408876     0             -0.28027519     0.010180059  
     21400   0.74338283    -0.64857921     0             -0.2768878      0.0085518972 
     21450   0.90352138    -0.65032483     0             -0.19856414     0.011225298  
     21500   0.88215975    -0.65143482     0             -0.21035494     0.0094182264 
     21550   1.0836704     -0.65906872     0             -0.11723351     0.02604876   
     21600   1.1621727     -0.68836194     0             -0.1072756     -0.015312173  
     21650   1.2110664     -0.74977476     0             -0.14424155     0.027357246  
     21700   0.96099866    -0.67249023     0             -0.19199091     0.0067618194 
     21750   1.0312232     -0.72178176     0             -0.20617019    -0.0036601871 
     21800   0.92386781    -0.67245775     0             -0.21052384    -0.030192582  
     21850   0.86547757    -0.65281816     0             -0.22007937     0.011581937  
     21900   0.85550319    -0.64581485     0             -0.21806325     0.0033819605 
     21950   0.85770172    -0.64148123     0             -0.21263037     0.0080078889 
     22000   0.82637575    -0.63759277     0             -0.2244049      0.0093893291 
     22050   0.86236862    -0.63479198     0             -0.20360767     0.0059357188 
     22100   0.88549172    -0.63272382     0             -0.18997796    -0.011495762  
     22150   0.89963463    -0.63099391     0             -0.18117659    -0.013903753  
     22200   0.96123134    -0.63068397     0             -0.1500683      0.0098582704 
     22250   0.94301924    -0.63198919     0             -0.16047957    -0.012284732  
     22300   0.97476054    -0.63518091     0             -0.14780064     0.017009349  
     22350   1.1755511     -0.64136557     0             -0.053590006    0.019276283  
     22400   1.2238183     -0.65476956     0             -0.042860391    0.0020589478 
     22450   1.1915423     -0.67754281     0             -0.081771639    0.0091628571 
     22500   1.3071203     -0.72167308     0             -0.068112941    0.0078073756 
     22550   1.3271636     -0.74166746     0             -0.078085661    0.011232513  
     22600   1.2267498     -0.73912334     0             -0.12574843    -0.0005416448 
     22650   1.1900361     -0.74812929     0             -0.15311126    -0.011571408  
     22700   1.1841895     -0.74930041     0             -0.15720565     0.017236294  
     22750   1.0499259     -0.73210022     0             -0.20713727    -0.0053896221 
     22800   1.1395623     -0.74054046     0             -0.17075932    -0.005236606  
     22850   1.234708      -0.74095685     0             -0.12360286    -0.0013040661 
     22900   1.2329538     -0.72421271     0             -0.10773582     0.00042832921
     22950   1.1628078     -0.7106918      0             -0.12928788     0.0032616242 
     23000   1.1579609     -0.70683052     0             -0.12785007     0.016277105  
     23050   1.0600253     -0.71297951     0             -0.18296686     0.019139974  
     23100   0.97716777    -0.72522375     0             -0.23663986     0.0012134838 
     23150   1.0420997     -0.74720891     0             -0.22615906    -0.010219081  
     23200   1.0390826     -0.74050392     0             -0.22096261     0.0026474008 
     23250   1.0652596     -0.74967672     0             -0.21704692     0.00091973495
     23300   1.1766282     -0.739248       0             -0.15093391    -0.0026354915 
     23350   1.2069843     -0.73356126     0             -0.1300691     -0.0027170289 
     23400   1.2510362     -0.7494417      0             -0.12392362     0.0015077462 
     23450   1.0590041     -0.71588437     0             -0.18638231    -0.012715864  
     23500   1.0313669     -0.74994611     0             -0.23426266    -0.028097626  
     23550   1.04316       -0.71879246     0             -0.19721245     0.0048550838 
     23600   0.92968176    -0.68900444     0             -0.22416356     3.5248156e-05
     23650   0.9231683     -0.6759614      0             -0.21437725     0.021653288  
     23700   0.96419369    -0.67596757     0             -0.19387073    -0.0065607771 
     23750   0.98864766    -0.68861282     0             -0.19428899     0.0050445518 
     23800   1.1190788     -0.72093057     0             -0.16139119     0.016818981  
     23850   1.1520923     -0.74950761     0             -0.17346147    -0.0067450077 
     23900   1.0736068     -0.73751168     0             -0.20070826     0.0035395237 
     23950   0.9671967     -0.74885611     0             -0.26525776    -2.3271703e-06
     24000   0.86327606    -0.72377306     0             -0.29213503     0.0046065908 
     24050   0.87731244    -0.69896911     0             -0.26031289    -0.0096396243 
     24100   0.85630055    -0.68876315     0             -0.26061288    -0.0045534786 
     24150   0.85585472    -0.68774349     0             -0.25981613    -0.011113035  
     24200   0.90680532    -0.6942664      0             -0.24086374    -0.0010752491 
     24250   0.90141983    -0.71753537     0             -0.26682545     0.027727743  
     24300   0.93048529    -0.74916001     0             -0.28391737    -0.0029993126 
     24350   1.0107199     -0.69867576     0             -0.1933158     -0.030202921  
     24400   1.085592      -0.74616859     0             -0.20337261     0.0056199958 
     24450   1.0193178     -0.72938555     0             -0.21972667    -0.0090913931 
     24500   1.1056108     -0.70409016     0             -0.15128474     0.010942391  
     24550   1.1571961     -0.68991777     0             -0.1113197      0.013705934  
     24600   1.2406608     -0.68218176     0             -0.061851362   -0.0022465509 
     24650   1.2295797     -0.68120226     0             -0.066412385    0.0095125455 
     24700   1.2363041     -0.68918511     0             -0.07103306     0.0075381278 
     24750   1.2307795     -0.70298031     0             -0.08759054    -0.040092196  
     24800   1.2445117     -0.73430395     0             -0.1120481     -0.050707907  
     24850   1.2663835     -0.7235484      0             -0.090356636    0.032425405  
     24900   1.2908563     -0.74157853     0             -0.096150356    0.0021254762 
     24950   1.3378023     -0.72924719     0             -0.060346019    0.0075164951 
     25000   1.4836341     -0.69730637     0              0.044510658   -0.02713191   
     25050   1.3875255     -0.67824248     0              0.015520254   -0.013699483  
     25100   1.412546      -0.66644189     0              0.039831132   -0.0051772578 
     25150   1.26768       -0.65881419     0             -0.024974177    0.01714684   
     25200   1.2958889     -0.65623233     0             -0.0082879066   0.005360647  
     25250   1.2166049     -0.65772917     0             -0.04942672    -0.027766831  
     25300   1.1997035     -0.66194037     0             -0.06208862    -0.0061388802 
     25350   1.2953887     -0.66874438     0             -0.021050015   -0.022295484  
     25400   1.3373278     -0.67993897     0             -0.011275072   -0.004841348  
     25450   1.4014538     -0.6989595      0              0.0017673963  -0.0076861334 
     25500   1.4075476     -0.7274014      0             -0.023627587   -0.0077388175 
     25550   1.3576938     -0.74449881     0             -0.065651899   -0.00058272973
     25600   1.4235997     -0.74922434     0             -0.037424516    0.025669534  
     25650   1.4789894     -0.74991333     0             -0.010418636   -0.034798265  
     25700   1.4893819     -0.74483177     0             -0.00014082764 -0.017518466  
     25750   1.2079657     -0.7142527      0             -0.11026987     0.014319234  
     25800   1.1803494     -0.73045276     0             -0.14027807    -0.050441576  
     25850   1.2037338     -0.73963772     0             -0.13777082    -0.031943923  
     25900   1.1524495     -0.70924804     0             -0.13302329     0.008437834  
     25950   1.1059211     -0.68602603     0             -0.13306549     0.017713181  
     26000   0.96926133    -0.67067463     0             -0.18604397     0.0067581497 
     26050   0.80432836    -0.65794732     0             -0.25578314    -0.0090802659 
     26100   0.84323789    -0.64885769     0             -0.22723874     0.0096778547 
     26150   0.81471067    -0.64137886     0             -0.23402353     0.011909598  
     26200   0.90499709    -0.6355474      0             -0.18304885     0.018346462  
     26250   0.9688888     -0.63132223     0             -0.14687783    -0.0026561969 
     26300   0.94275078    -0.62920493     0             -0.15782954    -0.0026948659 
     26350   0.90892071    -0.62374656     0             -0.16928621     0.014237296  
     26400   0.88107995    -0.628882       0             -0.18834202    -0.010326476  
     26450   0.90220641    -0.63112677     0             -0.18002356    -0.0076880459 
     26500   0.80299691    -0.63446107     0             -0.23296262    -0.028167028  
     26550   0.79621813    -0.64031733     0             -0.24220826     0.0076828769 
     26600   0.93514316    -0.65221095     0             -0.18463937     0.019453723  
     26650   0.96449724    -0.67352853     0             -0.19127991    -0.0075927679 
     26700   0.9787606     -0.69372205     0             -0.20434175     0.014692778  
     26750   1.0151628     -0.71325121     0             -0.20566983    -0.006860737  
     26800   1.0333155     -0.73531179     0             -0.21865405    -0.0080305914 
     26850   1.0048699     -0.7486688      0             -0.24623387     0.00081888966
     26900   0.81594637    -0.72960677     0             -0.32163359    -0.032207842  
     26950   0.81445505    -0.71393984     0             -0.30671231    -0.016513174  
     27000   0.96971473    -0.74672525     0             -0.26186788     0.021582402  
     27050   0.95370911    -0.72832266     0             -0.25146811    -0.026850948  
     27100   0.99695119    -0.74680728     0             -0.24833169    -0.0057076749 
     27150   0.7995714     -0.69601411     0             -0.29622841    -0.016295364  
     27200   0.8898495     -0.7478213      0             -0.30289655    -0.014424036  
     27250   0.87306944    -0.71727238     0             -0.28073766     0.0052867442 
     27300   0.83945194    -0.69870597     0             -0.27898        0.0022272241 
     27350   0.79898855    -0.69549332     0             -0.29599905     0.014040263  
     27400   0.76226411    -0.70152341     0             -0.32039136    -0.0071738897 
     27450   0.72798585    -0.72156441     0             -0.35757148     0.0062489113 
     27500   0.84951496    -0.74941869     0             -0.3246612      0.013596619  
     27550   0.81865245    -0.71343221     0             -0.30410599    -0.010659665  
     27600   0.93241404    -0.74799688     0             -0.28178986     0.031718642  
     27650   0.88886113    -0.74970837     0             -0.3052778      0.0087629062 
     27700   0.8193943     -0.74944455     0             -0.3397474     -0.011095652  
     27750   0.73003533    -0.74704035     0             -0.38202268    -0.0024472533 
     27800   0.69197371    -0.74992447     0             -0.40393762    -0.027519545  
     27850   0.72118043    -0.74769118     0             -0.38710097    -0.0024604679 
     27900   0.65257509    -0.74653842     0             -0.42025088    -0.025993265  
     27950   0.6383444     -0.74716544     0             -0.42799324    -0.035428072  
     28000   0.63287526    -0.74988074     0             -0.43344311    -0.028918769  
     28050   0.6549875     -0.74887381     0             -0.42138007     0.038944271  
     28100   0.72510293    -0.74474217     0             -0.3821907      0.041478113  
     28150   0.6374087     -0.72102216     0             -0.40231781     0.019008306  
     28200   0.61825136    -0.69362089     0             -0.38449521     0.023410541  
     28250   0.62456923    -0.67897298     0             -0.36668836     0.042794116  
     28300   0.58992322    -0.6767583      0             -0.38179669    -0.04632623   
     28350   0.60218165    -0.68419753     0             -0.3831067      0.0045217556 
     28400   0.65169331    -0.69642604     0             -0.37057938    -0.031754206  
     28450   0.78743126    -0.71938969     0             -0.32567406    -0.011922663  
     28500   0.86943893    -0.74996781     0             -0.31524835     0.015351885  
     28550   0.86102468    -0.72326306     0             -0.29275072     0.01337826   
     28600   0.9652468     -0.74427838     0             -0.26165498    -0.051148067  
     28650   0.90865911    -0.70723727     0             -0.25290772    -0.0078636989 
     28700   0.86742963    -0.69207736     0             -0.25836255     0.0078493757 
     28750   0.9816354     -0.70118984     0             -0.21037214     0.013076856  
     28800   1.1723216     -0.73375582     0             -0.14759502     0.021954718  
     28850   1.1055179     -0.71737872     0             -0.16461976    -0.025091672  
     28900   1.2561971     -0.7446697      0             -0.11657115     0.021979647  
     28950   1.1181255     -0.72294101     0             -0.16387826     0.027730042  
     29000   1.1290825     -0.68747679     0             -0.12293553    -0.022857366  
     29050   1.0059776     -0.66728363     0             -0.16429482    -0.012643688  
     29100   1.010691      -0.65654606     0             -0.15120057     0.0042718432 
     29150   1.0490776     -0.65182457     0             -0.12728575     0.00041215095
     29200   1.3277449     -0.65011558     0              0.013756852    0.00052996125
     29250   1.3575757     -0.65008786     0              0.028700003   -0.026797176  
     29300   1.3449111     -0.65174099     0              0.02071456    -0.0030360684 
     29350   1.3620143     -0.65275743     0              0.028249694    0.015092101  
     29400   1.3224251     -0.65337909     0              0.0078334395   0.019792062  
     29450   1.3330621     -0.65574339     0              0.01078765     0.0040980358 
     29500   1.2741181     -0.6607128      0             -0.023653733    0.015109446  
     29550   1.2870683     -0.67131069     0             -0.02777652    -0.016902054  
     29600   1.3889657     -0.69320898     0              0.0012738619   0.038697038  
     29650   1.5668119     -0.740364       0              0.043041973   -0.0056984868 
     29700   1.5534162     -0.71051653     0              0.066191579    0.020743939  
     29750   1.6308145     -0.74973015     0              0.065677088   -0.017213523  
     29800   1.6316575     -0.70795734     0              0.10787139     0.0089828994 
     29850   1.43571       -0.6657944      0              0.052060622   -0.015829873  
     29900   1.4329822     -0.64514185     0              0.071349259    0.012957413  
     29950   1.5023469     -0.63535373     0              0.11581971     0.016868109  
     30000   1.4357991     -0.63122104     0              0.086678485   -0.0038215613 
     30050   1.4970968     -0.62911711     0              0.11943129     0.031007641  
     30100   1.2857188     -0.62447971     0              0.018379707    0.0013106111 
     30150   1.2406137     -0.62499825     0             -0.0046914178  -0.0055839253 
     30200   1.2306835     -0.62499999     0             -0.0096582441  -0.0036041671 
     30250   1.2484707     -0.62985338     0             -0.0056180144   0.01396425   
     30300   1.3196359     -0.63156036     0              0.028257601   -0.018970977  
     30350   1.326951      -0.634575       0              0.028900495   -0.019578289  
     30400   1.2726451     -0.63920206     0             -0.002879501    0.023904537  
     30450   1.2565996     -0.64753841     0             -0.019238619   -0.0020200971 
     30500   1.257606      -0.66354862     0             -0.034745644    0.0050052142 
     30550   1.4157878     -0.70331318     0              0.0045807407   0.02378173   
     30600   1.4328594     -0.73725965     0             -0.020829933   -0.011230398  
     30650   1.437545      -0.72940279     0             -0.010630288   -0.0067058411 
     30700   1.3909674     -0.71315917     0             -0.017675449   -0.0026456728 
     30750   1.2838761     -0.67443329     0             -0.032495244   -0.021845319  
     30800   1.1822242     -0.65820512     0             -0.067093003    0.012684374  
     30850   0.97678499    -0.65123033     0             -0.16283784    -0.00077967757
     30900   1.0357485     -0.64909755     0             -0.1312233     -0.02609597   
     30950   1.0427535     -0.64779376     0             -0.12641702    -0.015289378  
     31000   1.083976      -0.64877056     0             -0.10678255    -0.0077084506 
     31050   1.1099481     -0.65243285     0             -0.09745879     0.0043071216 
     31100   1.2520349     -0.65777956     0             -0.031762103    0.022797656  
     31150   1.1848458     -0.66684751     0             -0.074424593    0.025218304  
     31200   1.2089466     -0.68262113     0             -0.078147821   -0.0022460431 
     31250   1.44035       -0.69836563     0              0.021809377    0.048225203  
     31300   1.3653266     -0.68887632     0             -0.0062130096  -0.0047327162 
     31350   1.3148138     -0.67356962     0             -0.016162708    0.036387372  
     31400   1.3096927     -0.66702569     0             -0.012179331   -0.012931618  
     31450   1.3488342     -0.66857795     0              0.0058391545  -0.040506564  
     31500   1.3687903     -0.68124367     0              0.0031514826  -0.014934825  
     31550   1.3806496     -0.71647883     0             -0.026154031    0.0012498656 
     31600   1.259852      -0.73737575     0             -0.10744974     0.021694006  
     31650   1.2223953     -0.67728134     0             -0.066083688   -0.0093161633 
     31700   1.2792083     -0.73652197     0             -0.096917795   -0.023931478  
     31750   1.1239935     -0.69277094     0             -0.1307742     -0.041662628  
     31800   1.0258403     -0.67492418     0             -0.16200405    -0.0001791966 
     31850   1.2148326     -0.67225911     0             -0.064842802    0.0018843429 
     31900   1.1838697     -0.68176259     0             -0.089827713   -0.0018096693 
     31950   1.3024676     -0.70596256     0             -0.054728774    0.020118798  
     32000   1.3458331     -0.74276044     0             -0.069843871    0.032555746  
     32050   1.4143208     -0.73452842     0             -0.027368021    0.028575812  
     32100   1.398264      -0.74750888     0             -0.048376863    0.013883457  
     32150   1.2247371     -0.7458075      0             -0.13343896    -0.019936867  
     32200   1.1894782     -0.74973923     0             -0.15500013    -0.019325379  
     32250   1.0612658     -0.66065131     0             -0.13001839     0.017858552  
     32300   1.2535461     -0.74993593     0             -0.12316288    -0.036979121  
     32350   1.175174      -0.71219895     0             -0.12461196    -0.013196318  
     32400   1.1036617     -0.69142478     0             -0.13959393    -0.0012553928 
     32450   1.0308005     -0.68632577     0             -0.17092551     0.0082210884 
     32500   0.92275535    -0.68775809     0             -0.22638042     0.0061836773 
     32550   1.0674203     -0.69389349     0             -0.16018335     0.023352191  
     32600   1.1487722     -0.68950274     0             -0.11511665    -0.020159231  
     32650   1.1570923     -0.68426142     0             -0.10571526     0.030773812  
     32700   1.2099187     -0.67931385     0             -0.074354492    0.0098587969 
     32750   1.0587423     -0.67491037     0             -0.14553922    -0.0024653294 
     32800   1.1046879     -0.67771092     0             -0.12536696     0.024258062  
     32850   1.2923593     -0.69375679     0             -0.04757712     0.03490608   
     32900   1.3328492     -0.71973137     0             -0.053306775    0.031419634  
     32950   1.3067606     -0.73481949     0             -0.08143919     0.0078872685 
     33000   1.4381921     -0.7328919      0             -0.01379584     0.0016859154 
     33050   1.3634212     -0.71750926     0             -0.035798673   -0.011244111  
     33100   1.388152      -0.7052146      0             -0.011138609   -0.015000847  
     33150   1.4632992     -0.70579137     0              0.025858209    0.017224058  
     33200   1.4423499     -0.71124074     0              0.0099341881  -0.0050890941 
     33250   1.3515993     -0.69549232     0             -0.019692681    0.013100905  
     33300   1.2174008     -0.66713234     0             -0.058431922   -0.0070153346 
     33350   1.2031437     -0.64813867     0             -0.04656682     0.013930762  
     33400   1.3138118     -0.63862841     0              0.01827747     0.0021329629 
     33450   1.1856505     -0.63370602     0             -0.040880769   -0.019988472  
     33500   1.0996877     -0.63098834     0             -0.081144477   -0.0013911732 
     33550   1.0980346     -0.63048738     0             -0.081470069    0.0052195716 
     33600   1.1375921     -0.62945052     0             -0.060654492   -0.025520696  
     33650   1.1977936     -0.62936579     0             -0.030468985   -0.0082276638 
     33700   1.1989943     -0.6329723      0             -0.03347517     0.026395498  
     33750   1.2163217     -0.64011579     0             -0.031954923    0.039711029  
     33800   1.2102562     -0.65839467     0             -0.053266554    0.013891494  
     33850   1.2848053     -0.70612044     0             -0.063717781   -0.008036432  
     33900   1.2354303     -0.71389865     0             -0.096183519    0.0057860848 
     33950   1.2627488     -0.74396603     0             -0.11259161     0.01783752   
     34000   1.0809716     -0.71243993     0             -0.17195414    -0.044824376  
     34050   1.1305687     -0.72908477     0             -0.16380041    -0.037282107  
     34100   1.1564459     -0.72252155     0             -0.14429857    -0.007559692  
     34150   1.2143637     -0.74234721     0             -0.13516534     0.016876387  
     34200   1.1067502     -0.71947348     0             -0.16609837     0.032503406  
     34250   1.0149393     -0.69123678     0             -0.18376711     0.0015524939 
     34300   0.93444862    -0.68084935     0             -0.21362503     0.013573915  
     34350   0.9167838     -0.68441275     0             -0.22602085    -0.00087175192
     34400   0.90119557    -0.70469876     0             -0.25410097     0.010140951  
     34450   0.87579062    -0.7381484      0             -0.30025308     0.029545009  
     34500   0.80306357    -0.73820554     0             -0.33667376     0.02613205   
     34550   0.80974385    -0.7466716      0             -0.34179968    -0.0061947402 
     34600   0.74465091    -0.73472485     0             -0.3623994      0.010842345  
     34650   0.81460511    -0.72515225     0             -0.3178497      0.02037888   
     34700   0.86962442    -0.74652624     0             -0.31171403    -0.016994834  
     34750   0.81649549    -0.71107341     0             -0.30282567    -0.015423666  
     34800   0.86211307    -0.74987065     0             -0.31881411     0.0054171283 
     34850   0.85957918    -0.72642772     0             -0.29663812     0.0023006088 
     34900   0.74389077    -0.71269338     0             -0.340748      -0.0081701882 
     34950   0.82416124    -0.71861309     0             -0.30653247     0.022005954  
     35000   0.92607665    -0.74293007     0             -0.27989174    -0.0063259851 
     35050   0.9410513     -0.73910526     0             -0.26857961    -0.00086010234
     35100   0.77308465    -0.74870503     0             -0.3621627     -0.0092193927 
     35150   0.8420635     -0.74622817     0             -0.32519643    -0.0041861403 
     35200   0.82528802    -0.74897777     0             -0.33633376     0.0031813423 
     35250   0.88279368    -0.73343615     0             -0.29203931     0.040161483  
     35300   0.99101091    -0.74891002     0             -0.25340457    -0.010170755  
     35350   0.93273814    -0.74854308     0             -0.282174      -6.1508036e-05
     35400   0.78983857    -0.72016183     0             -0.32524255    -0.0088782869 
     35450   0.96937417    -0.74987847     0             -0.26519138     0.0092675647 
     35500   0.81856028    -0.73077475     0             -0.32149462     0.026912352  
     35550   0.85604937    -0.72071349     0             -0.29268881    -0.012345976  
     35600   0.94876551    -0.71947701     0             -0.24509426    -0.0026031442 
     35650   1.0232119     -0.73236127     0             -0.22075533    -0.024319407  
     35700   1.0388899     -0.74979046     0             -0.23034549     0.028989032  
     35750   0.99659075    -0.73627567     0             -0.2379803     -0.0099290423 
     35800   1.0224044     -0.74944192     0             -0.2382397     -0.02295011   
     35850   1.0430791     -0.7399847      0             -0.21844513     0.00052453171
     35900   1.0632312     -0.72684444     0             -0.19522882     0.0056280836 
     35950   1.1120822     -0.72924849     0             -0.17320737    -0.01235789   
     36000   1.1129627     -0.74615725     0             -0.1896759     -0.0011607225 
     36050   1.0061392     -0.71197406     0             -0.20890448     0.0071828821 
     36100   1.1090189     -0.72910624     0             -0.17459681    -0.015995594  
     36150   1.2382142     -0.68590595     0             -0.066798863    0.010111383  
     36200   1.2275585     -0.66443484     0             -0.050655568    0.024057963  
     36250   1.124161      -0.65283957     0             -0.09075907     0.018403437  
     36300   1.0979209     -0.64483686     0             -0.095876431    0.0074766102 
     36350   1.1492353     -0.64036741     0             -0.065749779    0.0018323107 
     36400   1.1884161     -0.63859722     0             -0.044389163    0.020319906  
     36450   1.1638958     -0.63805111     0             -0.056103187    0.0022655494 
     36500   1.2683641     -0.63727112     0             -0.0030890476  -0.0062624771 
     36550   1.2819638     -0.63605862     0              0.0049232978   0.017883155  
     36600   1.2830733     -0.63423345     0              0.007303204    0.013070953  
     36650   1.2385281     -0.63269126     0             -0.013427181   -0.0078010691 
     36700   1.1882512     -0.63162655     0             -0.037500979   -0.0034636988 
     36750   1.2503332     -0.63098534     0             -0.0058187235  -0.0078718883 
     36800   1.296277      -0.63172846     0              0.016410029   -0.00082221912
     36850   1.3445795     -0.63395482     0              0.038334925    0.006240088  
     36900   1.2607501     -0.6393594      0             -0.0089843501   0.0038777762 
     36950   1.0623403     -0.65131848     0             -0.12014832     0.003489809  
     37000   1.0307959     -0.67622808     0             -0.16083011    -0.016093473  
     37050   1.189646      -0.73409021     0             -0.13926719     0.012878278  
     37100   0.97312171    -0.58877974     0             -0.10221889     0.018510909  
     37150   1.2555696     -0.73950894     0             -0.11172412    -0.0019808454 
     37200   1.2248418     -0.68674635     0             -0.074325454   -0.0082133745 
     37250   1.2427741     -0.67389797     0             -0.052510932   -0.0030479308 
     37300   1.2944087     -0.67969335     0             -0.032488981   -0.0076124251 
     37350   1.3460536     -0.70878971     0             -0.035762928    0.019630325  
     37400   1.3615976     -0.74903221     0             -0.068233403    8.4010991e-05
     37450   1.2464312     -0.73150001     0             -0.10828443     0.0082037682 
     37500   1.3097378     -0.74742851     0             -0.092559599    0.0017574577 
     37550   1.2554012     -0.71598192     0             -0.088281302   -0.026832555  
     37600   1.1958764     -0.7037637      0             -0.10582551     0.0017209468 
     37650   1.2180788     -0.72150609     0             -0.11246668    -0.014331842  
     37700   1.1823968     -0.74885886     0             -0.15766045     0.017609569  
     37750   1.0671607     -0.64996216     0             -0.11638183    -0.0017331632 
     37800   1.1959585     -0.7499799      0             -0.15200067    -0.0086044225 
     37850   1.2310087     -0.7266888      0             -0.11118444     0.0027217106 
     37900   1.2906929     -0.71203677     0             -0.066690332    0.0029694708 
     37950   1.2673767     -0.72153331     0             -0.087844986   -0.0019634444 
     38000   1.3361215     -0.74184978     0             -0.073789019    0.0035818374 
     38050   1.4461856     -0.73833938     0             -0.015246591    0.0085892317 
     38100   1.3471452     -0.71783256     0             -0.044259977    0.017598321  
     38150   1.358642      -0.70914438     0             -0.0298234     -0.017017778  
     38200   1.3580706     -0.73304491     0             -0.054009618   -0.0007687801 
     38250   1.2093732     -0.69673526     0             -0.092048639    0.00054120571
     38300   1.1563388     -0.74794788     0             -0.16977848    -0.0028809645 
     38350   1.1283326     -0.71278729     0             -0.14862097    -0.008821229  
     38400   1.156578      -0.67647536     0             -0.098186369   -0.031659728  
     38450   1.099403      -0.65677695     0             -0.10707544    -0.00056894178
     38500   1.0331732     -0.64621455     0             -0.12962794     0.0026375207 
     38550   0.95969354    -0.63999748     0             -0.16015071     0.0075493078 
     38600   0.99854669    -0.63674651     0             -0.13747317    -0.0071156527 
     38650   1.0067008     -0.63504398     0             -0.13169357    -0.0028526163 
     38700   1.0088007     -0.63440993     0             -0.13000959     0.026199357  
     38750   1.0629496     -0.63456174     0             -0.10308696    -0.0069954383 
     38800   1.118547      -0.63530442     0             -0.0760309     -0.0057997776 
     38850   1.1424333     -0.63596068     0             -0.064744023    0.0032985007 
     38900   1.1010928     -0.63713656     0             -0.086590156   -0.023726668  
     38950   1.0192285     -0.63798283     0             -0.12836858     0.036606942  
     39000   1.116093      -0.63835496     0             -0.08030845    -0.00062587745
     39050   1.0829408     -0.64042622     0             -0.098955812   -0.0039542198 
     39100   1.1432144     -0.64655028     0             -0.074943063    0.004456865  
     39150   1.0356451     -0.66270294     0             -0.14488036    -0.032422815  
     39200   1.07264       -0.69884486     0             -0.16252486     0.0072416911 
     39250   1.1233282     -0.74977464     0             -0.18811053     0.0013823253 
     39300   1.3709294     -0.882522       0             -0.19705729    -0.034101394  
     39350   1.1733091     -1.2936423      0             -0.70698779    -0.0082687709 
     39400   0.96742192    -1.2029375      0             -0.71922656     0.026926198  
     39450   1.018324      -1.2522594      0             -0.74309741     0.047160119  
     39500   1.0269326     -1.2731369      0             -0.75967058     0.0020415177 
     39550   0.89109333    -1.2099284      0             -0.7643817      0.014247085  
     39600   1.0998741     -1.2717692      0             -0.72183209     0.0034244855 
     39650   0.95455012    -1.2165923      0             -0.73931723     0.0025416625 
     39700   1.0856516     -1.2689439      0             -0.72611815     0.030259657  
     39750   0.77901348    -1.1783501      0             -0.78884333     0.032180109  
     39800   0.97810608    -1.3100251      0             -0.8209721      0.0099265581 
     39850   0.66512833    -1.147865       0             -0.81530082     0.019872228  
     39900   0.98087004    -1.3215612      0             -0.83112622     0.012964981  
     39950   0.72306376    -1.1646882      0             -0.80315628     0.0099677345 
     40000   0.95121089    -1.3130936      0             -0.83748816     0.0029437926 
     40050   0.80598059    -1.238154       0             -0.83516369    -0.0094243258 
     40100   0.81384445    -1.2911005      0             -0.88417829    -0.0071761684 
     40150   0.84497854    -1.2656774      0             -0.8431881     -0.014945188  
     40200   0.87975523    -1.2820553      0             -0.84217767    -0.002327013  
     40250   0.83163441    -1.2780053      0             -0.86218813    -0.024509001  
     40300   0.8196511     -1.2758737      0             -0.86604814    -0.028386491  
     40350   0.94468205    -1.3219577      0             -0.84961671    -0.011149887  
     40400   0.80964059    -1.2558971      0             -0.8510768      0.0097201229 
     40450   0.9133647     -1.3173485      0             -0.86066614     0.0086024345 
     40500   0.73452941    -1.2944006      0             -0.92713592    -0.0023941031 
     40550   0.72352925    -1.3083205      0             -0.94655592     0.0095981714 
     40600   0.7739404     -1.3108635      0             -0.92389333     0.018460981  
     40650   0.88209497    -1.3011732      0             -0.86012575     0.011847016  
     40700   0.85257423    -1.3121044      0             -0.88581726    -0.0062031072 
     40750   0.72666094    -1.289819       0             -0.92648852    -0.024379089  
     40800   0.69030874    -1.3001633      0             -0.9550089     -0.042083545  
     40850   0.71688672    -1.3186715      0             -0.9602281     -0.026487008  
     40900   0.69046508    -1.2987281      0             -0.95349558     0.0040176154 
     40950   0.69922337    -1.3120238      0             -0.96241213     0.017954696  
     41000   0.73974983    -1.3182266      0             -0.94835173     0.023828347  
     41050   0.78548533    -1.3037971      0             -0.91105439    -0.0063386487 
     41100   0.8212635     -1.3234151      0             -0.91278336    -0.0092366793 
     41150   0.84937211    -1.3100581      0             -0.88537206     0.0024705314 
     41200   0.78045136    -1.312623       0             -0.92239737     0.0052349605 
     41250   0.74596799    -1.3224419      0             -0.94945793    -0.024121174  
     41300   0.66980657    -1.2695075      0             -0.93460422    -0.016767466  
     41350   0.69214262    -1.3188418      0             -0.97277046     0.002316519  
     41400   0.66226814    -1.3064513      0             -0.97531726    -0.034662037  
     41450   0.6123335     -1.2948004      0             -0.98863361     0.010840914  
     41500   0.50471806    -1.3108935      0             -1.0585345     -0.004595068  
     41550   0.43683973    -1.308439       0             -1.0900192      0.041451352  
     41600   0.47640101    -1.3075591      0             -1.0693586      0.0022357617 
     41650   0.58659385    -1.3089465      0             -1.0156496     -0.011001307  
     41700   0.63720994    -1.2885699      0             -0.96996492    -0.0027245262 
     41750   0.66506557    -1.3089411      0             -0.97640827     0.022512166  
     41800   0.61875609    -1.2833365      0             -0.97395846     0.0059756295 
     41850   0.59943173    -1.2908259      0             -0.99111008     0.0034736566 
     41900   0.63524968    -1.3156457      0             -0.9980209      0.023465086  
     41950   0.54117433    -1.2975984      0             -1.0270112     -0.015668928  
     42000   0.68163151    -1.3180764      0             -0.97726065     0.020866076  
     42050   0.74881043    -1.3153818      0             -0.94097659    -0.027705519  
     42100   0.68148358    -1.2855009      0             -0.94475914     0.010380529  
     42150   0.86789363    -1.3178358      0             -0.88388901     0.006535137  
     42200   0.93599546    -1.3211151      0             -0.85311733    -0.029174671  
     42250   0.98261096    -1.3008313      0             -0.80952578     0.0005755255 
     42300   1.0373537     -1.3176159      0             -0.79893906     0.0094476457 
     42350   1.0657159     -1.3151744      0             -0.78231646     0.015686813  
     42400   0.95160845    -1.2805775      0             -0.80477328     0.021464642  
     42450   1.0209161     -1.3267635      0             -0.81630547     0.0061731585 
     42500   1.0281142     -1.3074637      0             -0.79340657    -0.0038797408 
     42550   0.97688496    -1.298064       0             -0.80962149    -0.00013833544
     42600   0.9980596     -1.3289694      0             -0.82993957     0.036753709  
     42650   0.95195532    -1.289052       0             -0.81307433     0.0022628525 
     42700   0.94506227    -1.3021941      0             -0.82966292     0.00027546603
     42750   0.93541215    -1.3146362      0             -0.84693013     0.020136061  
     42800   1.040259      -1.3122868      0             -0.79215731     0.0060286038 
     42850   0.96723576    -1.3203349      0             -0.83671705    -0.011892082  
     42900   0.98719897    -1.3072848      0             -0.8136853     -0.046909521  
     42950   1.1862075     -1.3118726      0             -0.71876883     0.022621397  
     43000   1.1654753     -1.3120356      0             -0.72929792     0.0088757162 
     43050   1.0940735     -1.2794418      0             -0.732405      -0.019854997  
     43100   1.1297177     -1.3235744      0             -0.75871557     0.026405801  
     43150   1.0875834     -1.3083018      0             -0.76451012     0.0094435592 
     43200   1.1463649     -1.2843885      0             -0.71120605    -0.016686483  
     43250   1.0371983     -1.3248273      0             -0.80622816    -0.0043208926 
     43300   0.96197482    -1.3185649      0             -0.8375775     -0.00029594909
     43350   0.89948411    -1.3030489      0             -0.85330686    -0.0023836412 
     43400   0.88519478    -1.325044       0             -0.88244664    -0.018130855  
     43450   0.90462492    -1.3222059      0             -0.8698934      0.0064086741 
     43500   1.0233619     -1.3090387      0             -0.79735771     0.029341911  
     43550   1.1541856     -1.3199141      0             -0.74282132     0.01261339   
     43600   1.229005      -1.3179744      0             -0.70347191    -0.034322623  
     43650   1.1392909     -1.2933332      0             -0.72368774     0.028631851  
     43700   1.290032      -1.3121056      0             -0.66708956     0.038455196  
     43750   1.3428912     -1.3266846      0             -0.655239       0.019495278  
     43800   1.3175561     -1.2983871      0             -0.63960907     0.01398917   
     43850   1.3068304     -1.3201232      0             -0.66670797    -0.027868839  
     43900   1.2699084     -1.3208714      0             -0.68591719     0.01494521   
     43950   1.2302571     -1.3082         0             -0.6930714      0.024162186  
     44000   1.2554563     -1.3257634      0             -0.69803527    -0.019703033  
     44050   1.191603      -1.3235878      0             -0.72778632     0.027010401  
     44100   1.1811317     -1.3156536      0             -0.72508773     0.0069017492 
     44150   1.2573409     -1.32387        0             -0.69519958    -0.01195789   
     44200   1.2332713     -1.3015751      0             -0.68493947    -0.027068476  
     44250   1.2187243     -1.3109965      0             -0.70163434     0.027316607  
     44300   1.3774463     -1.3231713      0             -0.63444821     9.2543204e-05
     44350   1.2444885     -1.3018554      0             -0.67961118     0.0097431359 
     44400   1.3502215     -1.3238198      0             -0.64870911     0.0029850163 
     44450   1.3857453     -1.3196575      0             -0.62678482    -0.0094327569 
     44500   1.2500974     -1.3032888      0             -0.67824013    -0.022106846  
     44550   1.2121316     -1.3244023      0             -0.7183365      0.01468044   
     44600   1.2268639     -1.3269685      0             -0.71353656    -0.0049181266 
     44650   1.1402632     -1.3175561      0             -0.74742448     0.0041669973 
     44700   1.0327027     -1.3252947      0             -0.80894332     0.024348617  
     44750   0.87864009    -1.3184759      0             -0.87915586     0.010857018  
     44800   0.83800044    -1.3126548      0             -0.89365463    -0.012314286  
     44850   0.89982848    -1.322551       0             -0.87263673    -0.0016895113 
     44900   0.97855845    -1.327969       0             -0.83868973    -0.0063537133 
     44950   1.0110288     -1.3149038      0             -0.80938942    -0.014661034  
     45000   1.0008385     -1.3026333      0             -0.80221399    -0.01678397   
     45050   1.0734031     -1.3193209      0             -0.78261936     0.0087485206 
     45100   1.0201928     -1.3146155      0             -0.80451906     0.0092216663 
     45150   0.96360948    -1.3133379      0             -0.8315332      0.0074629374 
     45200   0.9558035     -1.328724       0             -0.85082223    -0.032358317  
     45250   1.03008       -1.3130478      0             -0.79800774    -0.006069821  
     45300   0.95387686    -1.2985495      0             -0.82161106     0.0062586442 
     45350   0.94541452    -1.3241351      0             -0.85142779    -0.0077725341 
     45400   0.95950686    -1.317993       0             -0.83823955     0.010056628  
     45450   0.89441007    -1.2945119      0             -0.84730685     0.017467873  
     45500   1.0368557     -1.3224147      0             -0.80398685     0.04338049   
     45550   1.035378      -1.3209858      0             -0.8032968     -0.0024045716 
     45600   0.93562677    -1.3167781      0             -0.84896468    -0.0051091375 
     45650   0.82194278    -1.3278291      0             -0.91685769    -0.0055983653 
     45700   0.76713488    -1.3264788      0             -0.94291137     0.0042580072 
     45750   0.74610136    -1.3228484      0             -0.94979771    -0.011692596  
     45800   0.80359603    -1.3168444      0             -0.91504641     0.015099807  
     45850   0.76755721    -1.3202416      0             -0.93646303     0.0026656538 
     45900   0.82026592    -1.3200172      0             -0.90988429    -0.031374924  
     45950   0.81199697    -1.3216516      0             -0.91565309    -0.025499722  
     46000   0.75831109    -1.3220965      0             -0.94294091    -0.0020517098 
     46050   0.7393838     -1.3201461      0             -0.95045424     0.012906357  
     46100   0.76912076    -1.3227358      0             -0.93817546     0.024974372  
     46150   0.77256213    -1.3234686      0             -0.93718757     0.010038752  
     46200   0.66573833    -1.320927       0             -0.98805788    -0.015857598  
     46250   0.84266381    -1.3276738      0             -0.9063419     -0.0099130677 
     46300   0.72317811    -1.3259099      0             -0.96432086     0.0052853865 
     46350   0.73038486    -1.3221366      0             -0.95694419    -1.5938259e-05
     46400   0.76067643    -1.3269177      0             -0.94657947    -0.01257837   
     46450   0.64285886    -1.3207396      0             -0.99931016     0.0089846171 
     46500   0.75756741    -1.3218415      0             -0.94305776    -0.020688398  
     46550   0.66789574    -1.3272903      0             -0.99334242    -0.0044410931 
     46600   0.74775393    -1.3258252      0             -0.95194826    -0.0044794694 
     46650   0.72655101    -1.3225483      0             -0.95927284     0.030717456  
     46700   0.7228916     -1.3219167      0             -0.96047088    -0.012385343  
     46750   0.78964004    -1.3191423      0             -0.92432223    -0.003202508  
     46800   0.79727903    -1.3279086      0             -0.92926905    -0.016978749  
     46850   0.79976022    -1.3274407      0             -0.92756056     0.0030266614 
     46900   0.81003329    -1.3278052      0             -0.92278853    -0.0064949462 
     46950   0.95990933    -1.3272926      0             -0.84733794    -0.0091950018 
     47000   1.002898      -1.3226974      0             -0.82124837     0.0031706258 
     47050   1.0500671     -1.3252635      0             -0.80022995     0.0099421315 
     47100   0.97972826    -1.3279551      0             -0.838091       0.010276704  
     47150   1.0745877     -1.3264558      0             -0.78916193    -0.016083524  
     47200   0.94167839    -1.3242317      0             -0.85339249    -0.023029715  
     47250   0.92377395    -1.3288797      0             -0.86699268    -0.0046025758 
     47300   0.87226666    -1.3181098      0             -0.88197645     0.03856769   
     47350   0.94973892    -1.3161303      0             -0.84126086    -0.020412967  
     47400   1.0508305     -1.3289717      0             -0.80355646     0.0074946114 
     47450   1.0412529     -1.318836       0             -0.79820953    -0.0079266362 
     47500   1.1052242     -1.3225784      0             -0.76996626    -0.01866472   
     47550   1.0594169     -1.3250267      0             -0.79531826     0.025314394  
     47600   0.90146996    -1.3003325      0             -0.84959754     0.025557902  
     47650   1.0794888     -1.3157455      0             -0.77600112     0.0062996058 
     47700   1.1468465     -1.3125303      0             -0.73910704    -0.038222798  
     47750   1.1236468     -1.312099       0             -0.75027561    -0.011875011  
     47800   1.0941532     -1.3260177      0             -0.7789411     -0.046921591  
     47850   1.0413845     -1.298128       0             -0.77743576     0.010734206  
     47900   0.98114461    -1.3194089      0             -0.82883656     0.020732542  
     47950   0.94358257    -1.3004882      0             -0.82869691     0.023317553  
     48000   1.0187781     -1.3154449      0             -0.8060558      0.021718875  
     48050   1.1059108     -1.314287       0             -0.7613316      0.022662726  
     48100   1.1567559     -1.2924243      0             -0.71404637    -0.0094148538 
     48150   1.3351286     -1.3198453      0             -0.65228097    -0.033346152  
     48200   1.2998596     -1.2985718      0             -0.64864194    -0.0055448499 
     48250   1.187711      -1.3089098      0             -0.71505425    -0.02337277   
     48300   1.2748727     -1.3255074      0             -0.68807101    -0.016933687  
     48350   1.2001709     -1.2828152      0             -0.68272974    -0.01730953   
     48400   1.3252059     -1.3101818      0             -0.64757886     0.024028147  
     48450   1.2934094     -1.3155646      0             -0.66885983     0.011066929  
     48500   1.3143345     -1.3044538      0             -0.64728652     0.0092109885 
     48550   1.3281141     -1.3177669      0             -0.65370986     0.0020993913 
     48600   1.2586345     -1.3099666      0             -0.68064935     0.0049572435 
     48650   1.2755264     -1.3009819      0             -0.66321871     0.0047401301 
     48700   1.2699456     -1.3140351      0             -0.67906229     0.019536492  
     48750   1.4476245     -1.3144122      0             -0.59059996     0.031378565  
     48800   1.4107512     -1.2838226      0             -0.57844698     0.0072725215 
     48850   1.3636863     -1.2757491      0             -0.59390597    -0.023826609  
     48900   1.4301919     -1.3064268      0             -0.5913309      0.0066225544 
     48950   1.4514276     -1.2799262      0             -0.5542124      0.0058591783 
     49000   1.4549931     -1.2995537      0             -0.57205712     0.015919464  
     49050   1.5664835     -1.3111377      0             -0.52789595    -0.021848923  
     49100   1.3248654     -1.2219962      0             -0.55956346     0.0069422562 
     49150   1.6092123     -1.3129223      0             -0.50831615    -0.029955708  
     49200   1.5256023     -1.3058733      0             -0.54307218     0.00706567   
     49250   1.4724426     -1.2675876      0             -0.53136633    -0.0069961779 
     49300   1.5306854     -1.3171186      0             -0.55177586     0.024967485  
     49350   1.5357536     -1.2929666      0             -0.5250898      0.00054586329
     49400   1.5289528     -1.283058       0             -0.51858157    -0.013075719  
     49450   1.5228731     -1.3119771      0             -0.55054051    -0.042693061  
     49500   1.4882653     -1.28391        0             -0.53977738     0.0079552414 
     49550   1.6135785     -1.3015146      0             -0.49472535     0.014394198  
     49600   1.5009819     -1.3019172      0             -0.55142625     0.023358919  
     49650   1.4548242     -1.3189788      0             -0.59156672    -0.0086819336 
     49700   1.4834705     -1.3054321      0             -0.56369689     0.013854313  
     49750   1.3961605     -1.2990256      0             -0.60094534    -0.015585592  
     49800   1.2690517     -1.3111773      0             -0.67665149    -0.011584561  
     49850   1.1721633     -1.3015153      0             -0.71543363     0.0044764083 
     49900   1.2220597     -1.3186284      0             -0.70759853    -0.01267148   
     49950   1.1410035     -1.3219356      0             -0.75143384     0.015208991  
     50000   1.0332846     -1.3031958      0             -0.78655353    -0.0020324566 
     50050   1.0922041     -1.3218508      0             -0.77574871     0.001800147  
     50100   1.2285905     -1.3210037      0             -0.70670846    -0.014344854  
     50150   1.2306009     -1.3044579      0             -0.68915749    -0.0071962359 
     50200   1.1521057     -1.3153778      0             -0.73932497     0.0094051039 
     50250   1.126388      -1.3224441      0             -0.75925005     0.0025522318 
     50300   1.0587765     -1.3263296      0             -0.79694135     0.00044592653
     50350   1.0401307     -1.3213815      0             -0.80131614    -0.0034542128 
     50400   0.97330429    -1.315573       0             -0.82892084     0.0011422668 
     50450   1.0235787     -1.3271195      0             -0.81533012    -0.0066833245 
     50500   1.0102658     -1.3213734      0             -0.81624055    -0.0070047601 
     50550   1.0043194     -1.3082361      0             -0.80607639     0.0055921239 
     50600   1.0671237     -1.3248068      0             -0.79124492     0.00034436094
     50650   1.0975261     -1.3188312      0             -0.77006818     0.013643141  
     50700   1.0795648     -1.3042327      0             -0.76445027    -0.0047730456 
     50750   1.2070795     -1.3271524      0             -0.72361261     0.0045202166 
     50800   1.0443016     -1.2861397      0             -0.7639889      0.0081396769 
     50850   1.061143      -1.2995001      0             -0.76892861    -0.0061027472 
     50900   1.0779315     -1.3188547      0             -0.77988892    -0.0023610517 
     50950   1.0120203     -1.2992947      0             -0.79328452    -0.00039952067
     51000   0.98328073    -1.3115926      0             -0.81995218    -0.0063632218 
     51050   0.97669364    -1.3148444      0             -0.82649755    -0.0060049573 
     51100   1.0128688     -1.3108018      0             -0.80436738    -0.0158738    
     51150   0.94623571    -1.315355       0             -0.84223714    -0.0040836437 
     51200   0.99271925    -1.3224037      0             -0.82604412    -0.0074474696 
     51250   1.0129136     -1.311011       0             -0.80455419     0.0030627166 
     51300   0.93606649    -1.3210722      0             -0.85303899     0.0042560896 
     51350   1.0074168     -1.3137674      0             -0.81005897    -0.010834248  
     51400   1.0550769     -1.2988697      0             -0.77133122     0.008770574  
     51450   1.0819787     -1.3194728      0             -0.77848349    -0.011459412  
     51500   1.0969956     -1.3226064      0             -0.77410859     0.0077678942 
     51550   1.1032766     -1.3179         0             -0.76626169     0.0035396057 
     51600   1.0746038     -1.3120385      0             -0.77473661     0.021039015  
     51650   1.1923781     -1.3221654      0             -0.72597635     0.0021810057 
     51700   1.1870366     -1.3171352      0             -0.72361692    -1.3565951e-05
     51750   1.1722775     -1.3047098      0             -0.71857112    -0.0016354326 
     51800   1.1729536     -1.3229577      0             -0.7364809     -0.016158141  
     51850   1.2648631     -1.3273054      0             -0.69487389     0.0091972269 
     51900   1.2896581     -1.319582       0             -0.67475299     0.014727417  
     51950   1.1821009     -1.3279265      0             -0.73687601     0.03221077   
     52000   1.1778282     -1.3158365      0             -0.72692241    -0.0032951046 
     52050   1.2019407     -1.3114203      0             -0.71044994     0.0010182669 
     52100   1.2462143     -1.3289538      0             -0.7058467      0.035671637  
     52150   1.2506333     -1.3132642      0             -0.68794755     0.0023120678 
     52200   1.2532915     -1.324934       0             -0.6982883     -0.030829334  
     52250   1.3574716     -1.3261421      0             -0.6474063      0.0035300607 
     52300   1.4918236     -1.3151399      0             -0.56922807     0.015919292  
     52350   1.5516398     -1.3224582      0             -0.54663828    -0.010085157  
     52400   1.4621271     -1.3216423      0             -0.59057876     0.015897883  
     52450   1.4690405     -1.317682       0             -0.58316172    -0.0045817545 
     52500   1.4482158     -1.3264724      0             -0.6023645      0.0087880767 
     52550   1.42477       -1.3232718      0             -0.61088678     0.0048288402 
     52600   1.4902072     -1.3240132      0             -0.5789096     -0.0067405867 
     52650   1.4649777     -1.3209524      0             -0.58846354     0.016355392  
     52700   1.3735726     -1.3111414      0             -0.62435509    -0.022724243  
     52750   1.3091886     -1.323326       0             -0.66873173     0.0024850503 
     52800   1.2325861     -1.3164906      0             -0.7001975      0.0067258753 
     52850   1.2997788     -1.3095577      0             -0.65966836     0.025244477  
     52900   1.4245235     -1.3274658      0             -0.61520409     6.7653122e-06
     52950   1.2663534     -1.3080154      0             -0.67483867     0.028575659  
     53000   1.361209      -1.3244537      0             -0.64384921    -0.013557332  
     53050   1.2242585     -1.3157828      0             -0.7036536      0.0072497014 
     53100   1.2838956     -1.3120552      0             -0.67010739    -0.011483411  
     53150   1.263079      -1.3263486      0             -0.69480911     0.0010296567 
     53200   1.148642      -1.3082025      0             -0.73388146     0.0012294584 
     53250   1.1117557     -1.3166957      0             -0.76081787    -0.00386502   
     53300   1.1357084     -1.3236027      0             -0.75574853    -0.022021568  
     53350   1.1163312     -1.3163354      0             -0.75816986     0.0067747039 
     53400   1.1241902     -1.3223516      0             -0.76025649    -0.0076810446 
     53450   1.0336985     -1.300687       0             -0.7838378     -0.0081496218 
     53500   0.90054265    -1.3084443      0             -0.85817299    -0.0021636779 
     53550   0.9920876     -1.3283355      0             -0.83229167    -0.0054300823 
     53600   0.90217282    -1.3147257      0             -0.8636393      0.0016932752 
     53650   1.0644868     -1.3223618      0             -0.79011845     0.017915123  
     53700   1.039006      -1.3234219      0             -0.80391895    -0.014839676  
     53750   0.87951215    -1.2986977      0             -0.85894159    -0.0051989478 
     53800   0.95386499    -1.3262481      0             -0.84931565     0.011272623  
     53850   0.82593633    -1.3157109      0             -0.90274277     0.0091792888 
     53900   0.86466216    -1.3180997      0             -0.88576858     0.0119346    
     53950   0.92717492    -1.3269491      0             -0.86336166    -0.0021867303 
     54000   0.97622567    -1.3148305      0             -0.82671767    -0.0013805615 
     54050   0.99453391    -1.3180514      0             -0.82078439    -0.0046690166 
     54100   0.96042009    -1.3171847      0             -0.83697465     0.029419096  
     54150   0.96323195    -1.3196231      0             -0.83800711     0.025358717  
     54200   0.98932721    -1.3189627      0             -0.82429913     0.0022520986 
     54250   0.95388654    -1.3094972      0             -0.83255395     0.0025421102 
     54300   0.91619097    -1.3243806      0             -0.86628515     0.007769032  
     54350   0.92365643    -1.3248484      0             -0.86302018    -0.028394268  
     54400   0.90087521    -1.3076373      0             -0.85719972    -0.024542557  
     54450   0.95282017    -1.3189683      0             -0.84255818    -0.0028255685 
     54500   0.91439801    -1.3175478      0             -0.86034876    -0.00090273019
     54550   1.0292164     -1.3042313      0             -0.78962311    -0.0016619587 
     54600   0.93580419    -1.3233519      0             -0.85544983    -0.010566487  
     54650   1.0025046     -1.3192475      0             -0.81799526     0.014564583  
     54700   0.97680981    -1.3015574      0             -0.81315247    -0.011876717  
     54750   1.0297234     -1.3271056      0             -0.81224394     0.0038019085 
     54800   0.96228183    -1.3131498      0             -0.83200885     0.010673853  
     54850   0.95606828    -1.3142702      0             -0.83623611    -0.025935014  
     54900   0.92525755    -1.3275802      0             -0.86495146     0.020679988  
     54950   0.78631016    -1.3057609      0             -0.91260584     0.00025429056
     55000   0.84267408    -1.3173443      0             -0.8960073     -0.0084025687 
     55050   0.82374806    -1.3213786      0             -0.90950459    -0.0058658248 
     55100   0.78378808    -1.3177035      0             -0.92580944     0.012958296  
     55150   0.82053097    -1.3176039      0             -0.90733843    -0.0099436969 
     55200   0.67068815    -1.3181849      0             -0.98284082     0.016558449  
     55250   0.65693546    -1.3270637      0             -0.99859594     0.002600273  
     55300   0.68605264    -1.327494       0             -0.98446765    -0.01204317   
     55350   0.67982986    -1.3216665      0             -0.98175155    -0.013233065  
     55400   0.6092559     -1.3229257      0             -1.0182977     -0.014727894  
     55450   0.60908412    -1.3280579      0             -1.0235158      0.0036499098 
     55500   0.68444557    -1.3170847      0             -0.97486194     0.0037572035 
     55550   0.75021628    -1.3071234      0             -0.93201521    -0.0082791869 
     55600   0.86365606    -1.3178299      0             -0.88600182     0.028576802  
     55650   0.89959586    -1.3206145      0             -0.87081657     0.0068069509 
     55700   0.94075203    -1.312127       0             -0.84175103    -0.0088007864 
     55750   0.87806797    -1.3060761      0             -0.86704211     0.002193831  
     55800   0.81695235    -1.317895       0             -0.90941885     0.00083825567
     55850   0.71451785    -1.3150201      0             -0.95776121     0.0011833595 
     55900   0.78836031    -1.2991827      0             -0.90500256     0.001436316  
     55950   0.87255596    -1.324161       0             -0.88788304    -0.010801614  
     56000   0.89988111    -1.3085098      0             -0.85856923    -0.012933542  
     56050   0.83386134    -1.2726025      0             -0.85567187    -0.0052630462 
     56100   0.96368221    -1.328149       0             -0.84630785    -0.011706859  
     56150   0.88411523    -1.2949615      0             -0.85290387     0.0020646944 
     56200   1.0088254     -1.2980746      0             -0.7936619     -0.00014107778
     56250   1.0930296     -1.3185099      0             -0.77199512     0.001125883  
     56300   0.9827095     -1.275909       0             -0.78455426     0.015084445  
     56350   1.0608773     -1.3172143      0             -0.78677562     0.0004186508 
     56400   1.0129648     -1.3074671      0             -0.80098464    -0.0024206737 
     56450   0.98909702    -1.2852182      0             -0.79066974     0.021956837  
     56500   0.95514725    -1.3114708      0             -0.8338972     -0.028454764  
     56550   0.89107816    -1.2969124      0             -0.85137333    -0.0094517918 
     56600   0.87056642    -1.2955177      0             -0.86023447    -0.02533778   
     56650   0.90693276    -1.3079894      0             -0.85452298    -0.00031889295
     56700   0.86576411    -1.2884253      0             -0.85554323     0.0022236656 
     56750   0.84621646    -1.2878658      0             -0.86475758     0.00539921   
     56800   0.83248388    -1.3014679      0             -0.88522598     0.0053905961 
     56850   0.93422079    -1.3074411      0             -0.84033069    -0.0073445446 
     56900   0.85025724    -1.2787145      0             -0.85358588    -0.0059575034 
     56950   0.97178696    -1.321734       0             -0.83584057    -0.015047127  
     57000   0.83375526    -1.2759195      0             -0.85904187     0.00096681399
     57050   0.96324884    -1.3008617      0             -0.81923724    -0.046479666  
     57100   1.059078      -1.3201611      0             -0.79062209     0.023371171  
     57150   0.9252216     -1.2627947      0             -0.80018393    -0.0035136846 
     57200   0.9800748     -1.3060711      0             -0.81603375    -0.0047596486 
     57250   0.89293277    -1.3082015      0             -0.86173516    -0.018886301  
     57300   0.83390918    -1.2937038      0             -0.87674923    -0.036785056  
     57350   0.95126306    -1.3069886      0             -0.83135703    -0.010463804  
     57400   0.89946094    -1.2996477      0             -0.84991727    -0.0045018533 
     57450   0.92313152    -1.3170834      0             -0.85551767    -0.025833417  
     57500   0.84877833    -1.3108668      0             -0.8864776      0.0011754376 
     57550   0.83588577    -1.3083475      0             -0.89040463     0.0017031138 
     57600   0.90539276    -1.3100262      0             -0.85732978     0.021310015  
     57650   0.93728946    -1.3095979      0             -0.84095316    -0.013174926  
     57700   0.92168256    -1.3039965      0             -0.84315524     0.0010578255 
     57750   0.88573041    -1.2995537      0             -0.85668854    -0.0054687811 
     57800   0.84942998    -1.317595       0             -0.89287996     0.020015453  
     57850   0.78694619    -1.3196112      0             -0.92613807    -0.024884526  
     57900   0.7701214     -1.2907073      0             -0.90564662    -0.0033172238 
     57950   0.81672872    -1.3245016      0             -0.91613723    -0.011175466  
     58000   0.78970067    -1.3196145      0             -0.92476416    -0.0040954951 
     58050   0.81692592    -1.3217395      0             -0.91327653     0.012196023  
     58100   0.86589837    -1.3269115      0             -0.8939623      0.016712594  
     58150   0.89504044    -1.3228711      0             -0.87535092    -0.00081848149
     58200   0.93615578    -1.3186713      0             -0.85059341     0.0013339578 
     58250   0.8642234     -1.3207214      0             -0.88860972    -0.0022233008 
     58300   0.95528915    -1.314301       0             -0.83665642     0.0022790125 
     58350   0.87560934    -1.3238639      0             -0.88605922     0.0099247269 
     58400   0.8478205     -1.3131556      0             -0.8892453      0.0065404841 
     58450   0.84837335    -1.3122102      0             -0.88802354     0.0024028222 
     58500   0.77371492    -1.3280442      0             -0.94118678    -0.0012970848 
     58550   0.61706769    -1.3138211      0             -1.0052872     -0.0004798272 
     58600   0.64379411    -1.3278709      0             -1.0059739      0.0073440749 
     58650   0.69137278    -1.3159145      0             -0.97022809    -0.0020192337 
     58700   0.70848851    -1.3019693      0             -0.94772505    -0.012409017  
     58750   0.79496936    -1.3162116      0             -0.9187269     -0.013083912  
     58800   0.83943723    -1.3082433      0             -0.88852468    -0.0022210029 
     58850   0.80850439    -1.3204511      0             -0.9161989      0.0023793351 
     58900   0.82724216    -1.3141455      0             -0.90052442    -0.020637806  
     58950   0.83579123    -1.3124784      0             -0.89458282     0.0063908582 
     59000   0.77323132    -1.2961379      0             -0.90952227     0.0073317787 
     59050   0.77285114    -1.3086155      0             -0.92218997    -0.0039056837 
     59100   0.79466907    -1.3155817      0             -0.91824714     0.010234452  
     59150   0.76939765    -1.2892962      0             -0.90459741    -0.0039522655 
     59200   0.83109004    -1.3170338      0             -0.90148878    -0.0055662482 
     59250   0.77965163    -1.2823987      0             -0.89257284     3.6491744e-05
     59300   0.80121705    -1.2903468      0             -0.88973827     0.011702137  
     59350   0.87482035    -1.318976       0             -0.88156579    -0.00094830899
     59400   0.73243224    -1.2410593      0             -0.87484322    -0.00072808333
     59450   0.96732634    -1.3251585      0             -0.84149528     0.01259896   
     59500   0.87155271    -1.2645247      0             -0.82874829    -0.0018050911 
     59550   0.889055      -1.3079623      0             -0.86343483     0.019647246  
     59600   0.89563841    -1.2944151      0             -0.84659594    -0.0015165616 
     59650   0.8807966     -1.2650302      0             -0.82463186     0.0090527676 
     59700   0.95532482    -1.3174312      0             -0.83976875    -0.0097944306 
     59750   0.87186612    -1.2673912      0             -0.83145813     0.024199264  
     59800   0.98319025    -1.3194777      0             -0.82788259     0.0033631974 
     59850   0.92173292    -1.2764483      0             -0.81558182     0.018293189  
     59900   0.93361858    -1.2889607      0             -0.82215142     0.0070544943 
     59950   0.84972548    -1.3038085      0             -0.8789458     -0.010709296  
     60000   0.77814155    -1.2524901      0             -0.86341928    -0.011538688  
     60050   0.89856816    -1.3071058      0             -0.85782174     0.0011707646 
     60100   0.93736175    -1.2696066      0             -0.80092571    -0.018071268  
     60150   0.98921267    -1.3096984      0             -0.81509206     0.0032882125 
     60200   1.0557028     -1.2711215      0             -0.74327009    -0.010656969  
     60250   1.2623198     -1.3212251      0             -0.69006519     0.0001995146 
     60300   0.98804198    -1.2835194      0             -0.7894984      0.0097353092 
     60350   1.020536      -1.3029702      0             -0.79270218    -0.0027405996 
     60400   1.0538205     -1.3236088      0             -0.7966985      0.0083923498 
     60450   1.0016341     -1.2966319      0             -0.79581482    -0.012911483  
     60500   0.9789764     -1.3198753      0             -0.83038705    -0.013756003  
     60550   0.98502836    -1.3149381      0             -0.82242388    -0.0094879468 
     60600   1.0272107     -1.3094493      0             -0.79584392     0.017000107  
     60650   1.01029       -1.3174143      0             -0.81226925    -0.0085112996 
     60700   1.0395941     -1.3074028      0             -0.78760573     0.015305296  
     60750   1.0643417     -1.3137566      0             -0.78158572    -0.0063113119 
     60800   1.1099407     -1.3184834      0             -0.7635131     -0.027625955  
     60850   1.0988538     -1.3146527      0             -0.76522581     0.0056329928 
     60900   1.1224333     -1.3209695      0             -0.75975287     0.0079837754 
     60950   1.0802888     -1.3093516      0             -0.76920717    -0.02226514   
     61000   1.0994295     -1.2994733      0             -0.7497586      0.0085319825 
     61050   1.0353933     -1.3271966      0             -0.8094999     -0.0095868211 
     61100   1.0039862     -1.3175271      0             -0.81553406     0.00052714013
     61150   0.88848351    -1.2893479      0             -0.84510614     0.042982948  
     61200   0.96948504    -1.3203632      0             -0.83562068    -0.015075207  
     61250   0.9665786     -1.3130669      0             -0.82977756    -0.051469797  
     61300   0.93703362    -1.2789617      0             -0.81044489     0.0063372281 
     61350   1.0237282     -1.3112641      0             -0.79940006     0.032140563  
     61400   1.0717669     -1.3178031      0             -0.78191971    -0.0049322598 
     61450   1.0180535     -1.2816231      0             -0.77259639    -0.025921495  
     61500   1.1037406     -1.3114315      0             -0.75956121    -0.00024490841
     61550   1.1965027     -1.3269432      0             -0.72869183    -0.025552456  
     61600   1.092308      -1.301134       0             -0.75498001    -0.029036425  
     61650   1.0253822     -1.3152064      0             -0.80251529    -0.016176155  
     61700   1.0671673     -1.3260657      0             -0.79248204    -0.0073242791 
     61750   1.0158859     -1.3139869      0             -0.80604392     0.01508093   
     61800   1.0650452     -1.3196891      0             -0.78716651     0.011522475  
     61850   0.96960086    -1.3279001      0             -0.84309962     0.014605963  
     61900   1.0249194     -1.3163171      0             -0.80385733    -0.028835417  
     61950   1.0390835     -1.3095575      0             -0.79001572    -0.027404055  
     62000   1.0841057     -1.3178334      0             -0.77578055     0.014479818  
     62050   1.0741418     -1.3133524      0             -0.77628153    -0.012783592  
     62100   1.143063      -1.3038029      0             -0.73227141    -0.024241239  
     62150   1.1669226     -1.3073265      0             -0.72386517     0.012803159  
     62200   1.1856759     -1.2982363      0             -0.70539838     0.015453496  
     62250   1.2344117     -1.3004238      0             -0.68321793    -0.0025521325 
     62300   1.2479357     -1.3113453      0             -0.68737748     0.0033554215 
     62350   1.2870895     -1.3156497      0             -0.67210492    -0.0015020704 
     62400   1.144427      -1.3100324      0             -0.73781895     0.010279769  
     62450   1.0148329     -1.3190226      0             -0.81160613     0.021252642  
     62500   0.80002341    -1.2833522      0             -0.88334046     0.0023789726 
     62550   0.96680576    -1.3193255      0             -0.83592264    -0.010589795  
     62600   0.86579981    -1.3190766      0             -0.88617666     0.0075614221 
     62650   0.86382489    -1.3028775      0             -0.8709651     -0.0018903905 
     62700   0.917261      -1.3283078      0             -0.86967731     0.043146117  
     62750   1.0290575     -1.3054443      0             -0.79091556    -0.0062363222 
     62800   0.97537945    -1.286464       0             -0.79877433    -0.027876625  
     62850   0.91446837    -1.3182563      0             -0.86102214    -0.0044875509 
     62900   0.90244787    -1.3107226      0             -0.85949864    -0.0067960376 
     62950   0.85252537    -1.2946172      0             -0.86835449    -0.01098513   
     63000   0.94251466    -1.3174292      0             -0.8461719     -0.013047996  
     63050   0.91595991    -1.3183974      0             -0.86041742    -0.0061727699 
     63100   0.78216242    -1.2811591      0             -0.89007784     0.0051426222 
     63150   0.92533937    -1.3031615      0             -0.84049181     0.00078083595
     63200   0.96353341    -1.3166209      0             -0.83485416     0.037364968  
     63250   0.94289933    -1.3090717      0             -0.83762202    -0.0214184    
     63300   0.89760447    -1.3115337      0             -0.86273143     0.0095162577 
     63350   0.94217468    -1.3216097      0             -0.85052233     0.0054236191 
     63400   0.97279582    -1.3113953      0             -0.8249974      0.0095433412 
     63450   1.0643392     -1.3079483      0             -0.77577873     0.043453491  
     63500   1.1351641     -1.317119       0             -0.74953695     0.020278255  
     63550   1.1508267     -1.3056401      0             -0.73022673     0.0088366434 
     63600   1.1268826     -1.3209206      0             -0.75747927     0.005505947  
     63650   1.1276207     -1.3263346      0             -0.76252421    -0.0055479797 
     63700   1.2335191     -1.307955       0             -0.69119547     0.0012227196 
     63750   1.0854304     -1.3133669      0             -0.77065166     0.00083002452
     63800   1.2238273     -1.3292735      0             -0.71735982    -0.015331536  
     63850   1.2023153     -1.2986981      0             -0.69754048    -0.02540673   
     63900   1.2012924     -1.289784       0             -0.68913779     0.00012647198
     63950   1.3241225     -1.3163662      0             -0.65430496     0.0016344417 
     64000   1.2745478     -1.3133981      0             -0.67612423    -0.024005407  
     64050   1.3812273     -1.3126169      0             -0.62200326     0.0035931678 
     64100   1.415378      -1.3149401      0             -0.60725112     0.0060670509 
     64150   1.4677646     -1.3128656      0             -0.57898324    -0.011625322  
     64200   1.5364343     -1.3076394      0             -0.53942226     0.007802097  
     64250   1.5396271     -1.3083889      0             -0.53857539    -0.0087143086 
     64300   1.5833319     -1.3230367      0             -0.53137077    -0.019740793  
     64350   1.4199445     -1.314429       0             -0.60445678     0.018586122  
     64400   1.614088      -1.3099774      0             -0.50293339     0.01030755   
     64450   1.7904048     -1.3233661      0             -0.42816367     0.0014766302 
     64500   1.7540598     -1.28958        0             -0.41255017    -0.014895346  
     64550   1.8291672     -1.3180769      0             -0.40349329     0.0071262236 
     64600   1.9143243     -1.3177692      0             -0.36060702     0.019324808  
     64650   1.7904228     -1.2836784      0             -0.38846704     0.0026514557 
     64700   1.8721568     -1.3221051      0             -0.38602676    -0.021718682  
     64750   1.7541905     -1.3066297      0             -0.42953439    -0.0073588603 
     64800   1.701718      -1.3014957      0             -0.45063675     0.0093028221 
     64850   1.8134282     -1.3181575      0             -0.41144347     0.0089303406 
     64900   1.8514469     -1.3198458      0             -0.39412235    -0.01467286   
     64950   1.8540693     -1.2987995      0             -0.37176488     0.019844994  
     65000   1.9254831     -1.3032297      0             -0.34048814     0.012471772  
     65050   2.1515399     -1.3278024      0             -0.2520325     -0.021173291  
     65100   2.1349862     -1.3119558      0             -0.24446266     0.022153949  
     65150   2.0224093     -1.2997217      0             -0.28851701     0.025123204  
     65200   2.0289211     -1.3245259      0             -0.31006532    -0.0196891    
     65250   1.9393758     -1.3136965      0             -0.34400861     0.014342263  
     65300   1.8227845     -1.309968       0             -0.39857577    -0.0034698021 
     65350   1.7437859     -1.3285919      0             -0.45669897     0.0066312686 
     65400   1.8345396     -1.2940952      0             -0.37682543    -0.0036191079 
     65450   1.8196309     -1.2956503      0             -0.38583482     0.011774217  
     65500   1.7930938     -1.3231424      0             -0.42659552     0.012790576  
     65550   1.6867991     -1.310733       0             -0.46733347    -0.0089117323 
     65600   1.6437847     -1.3111857      0             -0.48929339     0.0014699236 
     65650   1.5614239     -1.3227471      0             -0.5420351      0.018504463  
     65700   1.5539603     -1.3208815      0             -0.54390136     0.017499943  
     65750   1.5029858     -1.3129843      0             -0.56149135     0.019647625  
     65800   1.4362933     -1.32516        0             -0.60701336     0.0060555886 
     65850   1.3209836     -1.3148462      0             -0.65435436     0.020283156  
     65900   1.1834877     -1.2870024      0             -0.6952585      0.010997318  
     65950   1.1480969     -1.3129598      0             -0.73891134     0.019447316  
     66000   1.2214739     -1.3222879      0             -0.71155094     0.011700644  
     66050   1.2277151     -1.3125066      0             -0.69864905     0.027176191  
     66100   1.2386811     -1.3223164      0             -0.70297585     0.01866628   
     66150   1.135808      -1.3265901      0             -0.75868607    -0.00068148284
     66200   1.1295636     -1.2944859      0             -0.72970413    -0.0077022615 
     66250   1.0858795     -1.32172        0             -0.77878027     0.0010019925 
     66300   1.0269056     -1.3180144      0             -0.80456165    -0.015823272  
     66350   0.97222427    -1.2924841      0             -0.80637197    -0.022722686  
     66400   1.0013565     -1.3278961      0             -0.82721787    -0.0025807053 
     66450   0.99894899    -1.3012646      0             -0.80179015    -0.011366468  
     66500   0.87368968    -1.2975909      0             -0.86074604     0.024967368  
     66550   0.90845349    -1.3242903      0             -0.87006357    -0.0080826983 
     66600   0.7773201     -1.2924991      0             -0.90383901    -0.0099898661 
     66650   0.80307265    -1.3129509      0             -0.91141455    -0.018949276  
     66700   0.76088885    -1.3061086      0             -0.92566414    -0.028016065  
     66750   0.78061742    -1.3163628      0             -0.92605413     0.021847857  
     66800   0.75275475    -1.3221687      0             -0.94579136     0.029549303  
     66850   0.70434121    -1.317462       0             -0.96529142     0.024237224  
     66900   0.73637635    -1.327552       0             -0.95936384     0.010678348  
     66950   0.64520797    -1.3194124      0             -0.99680845     0.0019550185 
     67000   0.68467593    -1.3115839      0             -0.96924598    -0.018417242  
     67050   0.69277324    -1.3244913      0             -0.97810466    -0.0135126    
     67100   0.72949372    -1.3201171      0             -0.95537027     0.0099218751 
     67150   0.86570821    -1.3238569      0             -0.89100282    -0.0028124813 
     67200   0.89556049    -1.3248127      0             -0.87703249     0.021267208  
     67250   0.87204557    -1.3275795      0             -0.89155673     0.024497976  
     67300   0.87135519    -1.3261527      0             -0.8904751     -0.0024390674 
     67350   0.8670457     -1.3235274      0             -0.89000458     0.00079423545
     67400   0.92155041    -1.3273254      0             -0.86655015    -0.0018434808 
     67450   0.92569438    -1.3285692      0             -0.865722      -0.0075722054 
     67500   0.96557682    -1.3251203      0             -0.84233188    -0.007309358  
     67550   0.92940765    -1.3244019      0             -0.85969812     0.013846393  
     67600   1.0047895     -1.3239022      0             -0.82150751    -0.01291253   
     67650   0.88764242    -1.3066719      0             -0.8628507      0.014116744  
     67700   0.98516335    -1.3128605      0             -0.82027885    -0.011640585  
     67750   0.97347994    -1.3285949      0             -0.84185494    -0.026360936  
     67800   0.88624848    -1.3149674      0             -0.87184314     0.00099376969
     67850   0.85312854    -1.3133624      0             -0.88679816     0.01313674   
     67900   0.91247232    -1.3286102      0             -0.87237403    -0.0057962764 
     67950   0.77794142    -1.3045698      0             -0.91559911    -0.001765772  
     68000   0.88568027    -1.3046669      0             -0.86182674    -0.0044501089 
     68050   0.90407659    -1.3275912      0             -0.87555286     0.0037663322 
     68100   0.8835815     -1.3044003      0             -0.86260954    -0.010014725  
     68150   0.78991957    -1.3092707      0             -0.91431089    -0.012509413  
     68200   0.82428836    -1.3290982      0             -0.91695406    -0.023456799  
     68250   0.78564823    -1.309615       0             -0.91679088    -0.0068447915 
     68300   0.88564296    -1.3037332      0             -0.86091176    -0.0011520815 
     68350   0.9155762     -1.3270237      0             -0.8692356      0.0026111948 
     68400   1.0226031     -1.3081685      0             -0.79686696     0.029243583  
     68450   1.1019785     -1.3147945      0             -0.7638052      0.0028605627 
     68500   1.2730121     -1.3282948      0             -0.69178878     0.010535492  
     68550   1.121835      -1.3028889      0             -0.74197136    -0.016676594  
     68600   1.1962822     -1.3069844      0             -0.70884328     0.0013968051 
     68650   1.2719143     -1.3284517      0             -0.69249454    -0.0056076594 
     68700   1.1820553     -1.3141438      0             -0.72311616    -0.019508131  
     68750   1.1783513     -1.3088691      0             -0.71969351     0.0055239142 
     68800   1.1216545     -1.327282       0             -0.7664547      0.012241795  
     68850   1.0180147     -1.3137897      0             -0.80478235     0.0096432678 
     68900   0.89393568    -1.3147161      0             -0.8677483     -0.013936434  
     68950   0.88801454    -1.3211337      0             -0.87712641     0.01800994   
     69000   0.94751499    -1.3265924      0             -0.85283494    -0.0073375559 
     69050   0.88479408    -1.319726       0             -0.87732898    -0.0046977895 
     69100   0.89579791    -1.3228115      0             -0.87491253     0.0038501118 
     69150   0.96131857    -1.3275544      0             -0.84689516     0.0069713363 
     69200   0.9460975     -1.3074256      0             -0.83437687    -0.01729878   
     69250   0.95128245    -1.323873       0             -0.84823173     0.0010142179 
     69300   1.0296138     -1.3185195      0             -0.80371264    -0.0057575239 
     69350   1.1511293     -1.3098348      0             -0.73427008     0.0019091074 
     69400   1.3073373     -1.3215143      0             -0.66784563    -0.00062504994
     69450   1.4687847     -1.3113277      0             -0.57693531    -4.7456419e-05
     69500   1.5165635     -1.3075163      0             -0.54923454     0.010829256  
     69550   1.3470089     -1.3254412      0             -0.65193671    -0.019986273  
     69600   1.3083604     -1.3170612      0             -0.662881      -0.010813601  
     69650   1.2883654     -1.3069881      0             -0.66280543     0.012660214  
     69700   1.3444172     -1.3218533      0             -0.64964472     0.017346712  
     69750   1.2851729     -1.3266203      0             -0.6840338      0.013806252  
     69800   1.4148678     -1.3130628      0             -0.60562885    -0.020337149  
     69850   1.3657015     -1.3215978      0             -0.63874706    -0.0056661198 
     69900   1.3145951     -1.3066854      0             -0.64938791     0.023646702  
     69950   1.3179427     -1.3004941      0             -0.64152268    -0.0051185677 
     70000   1.3387229     -1.3267189      0             -0.65735738     0.032572363  
     70050   1.3106735     -1.3157665      0             -0.66042979    -0.039442879  
     70100   1.2153508     -1.309154       0             -0.70147858     0.01191419   
     70150   1.3307491     -1.3203006      0             -0.65492606    -0.014077474  
     70200   1.1473667     -1.3193056      0             -0.74562225     0.029540024  
     70250   1.0361102     -1.3140596      0             -0.79600456    -0.020330526  
     70300   1.0127387     -1.3122022      0             -0.80583291     0.0038914785 
     70350   1.0051346     -1.3055087      0             -0.80294145    -0.0018002395 
     70400   1.0851981     -1.3162694      0             -0.77367032    -0.017033704  
     70450   1.2148707     -1.315617       0             -0.70818167     0.0063283002 
     70500   1.1957466     -1.3119517      0             -0.71407838     0.021297787  
     70550   1.2230076     -1.3211317      0             -0.70962787     0.0056268838 
     70600   1.1964565     -1.3085316      0             -0.71030339     0.011174549  
     70650   1.2206517     -1.3097452      0             -0.69941933     0.021148764  
     70700   1.2362852     -1.3105843      0             -0.69244172    -0.0063108275 
     70750   1.2804379     -1.3187404      0             -0.67852141     0.022304561  
     70800   1.3429477     -1.3263218      0             -0.654848      -0.040175325  
     70850   1.215049      -1.3108998      0             -0.70337526     0.013508193  
     70900   1.4004623     -1.3173678      0             -0.61713664    -0.015083573  
     70950   1.3388079     -1.3211449      0             -0.65174091    -0.032168996  
     71000   1.313628      -1.3031843      0             -0.64637027    -0.011290966  
     71050   1.3042186     -1.3186244      0             -0.66651507     0.034763816  
     71100   1.2906405     -1.3233261      0             -0.67800583     0.016898381  
     71150   1.3169065     -1.3067242      0             -0.64827097     0.010657546  
     71200   1.262647      -1.3147635      0             -0.68344003    -0.00095997285
     71250   1.1941763     -1.3115086      0             -0.71442045     0.0010152315 
     71300   1.1634362     -1.2991371      0             -0.71741894     0.0092276568 
     71350   1.1672791     -1.3122513      0             -0.72861178     0.01130295   
     71400   1.0506883     -1.2992946      0             -0.77395041    -0.0083117106 
     71450   1.1228256     -1.3255662      0             -0.76415337     0.0021693325 
     71500   1.071494      -1.3067403      0             -0.7709933      0.010729933  
     71550   1.0917083     -1.2906417      0             -0.74478753     0.015591377  
     71600   1.318682      -1.325157       0             -0.66581602     0.0040487667 
     71650   1.4539749     -1.3114678      0             -0.58448035     0.001617333  
     71700   1.4481907     -1.3071872      0             -0.58309185    -0.017995425  
     71750   1.5553705     -1.3150526      0             -0.53736733    -0.010066619  
     71800   1.5503554     -1.3103447      0             -0.53516704    -0.0032858585 
     71850   1.4479073     -1.3137884      0             -0.58983477    -0.017880875  
     71900   1.4163892     -1.3193044      0             -0.61110985     0.0054383706 
     71950   1.4459126     -1.3162384      0             -0.59328204    -0.018538426  
     72000   1.4917864     -1.2989462      0             -0.55305301     0.014086547  
     72050   1.5651761     -1.3157946      0             -0.53320654    -0.0087312103 
     72100   1.7104493     -1.3207901      0             -0.46556542    -0.0059857315 
     72150   1.5064965     -1.3080465      0             -0.55479821    -0.002353584  
     72200   1.6405636     -1.3206937      0             -0.50041192    -0.0044435281 
     72250   1.7271438     -1.2963788      0             -0.4328069      0.0090852111 
     72300   1.666007      -1.308401       0             -0.4753975     -0.017484183  
     72350   1.7137067     -1.3269026      0             -0.47004926    -0.0047774388 
     72400   1.7703465     -1.3176073      0             -0.43243407    -0.010319947  
     72450   1.744574      -1.3175545      0             -0.44526754    -0.0039205973 
     72500   1.8641876     -1.3077408      0             -0.37564697    -0.028789843  
     72550   1.9255475     -1.2918331      0             -0.32905937     0.020760804  
     72600   1.9554833     -1.3244533      0             -0.3467116      0.043948035  
     72650   2.000468      -1.3155922      0             -0.31535817     0.0044789968 
     72700   2.1419317     -1.3045699      0             -0.23360407     0.0073813863 
     72750   2.3092668     -1.3133218      0             -0.1586884     -0.0043745977 
     72800   2.1210325     -1.29278        0             -0.23226368     0.0036432044 
     72850   2.193639      -1.3189932      0             -0.22217369    -0.0053770737 
     72900   2.1192337     -1.310064       0             -0.25044711    -0.0042060528 
     72950   2.3080657     -1.307796       0             -0.15376317     0.016331326  
     73000   2.2444834     -1.2843247      0             -0.16208303    -0.0081470508 
     73050   2.24709       -1.30465        0             -0.18110506     0.04051139   
     73100   2.0779471     -1.3260621      0             -0.28708861    -0.035319503  
     73150   2.0605211     -1.3094135      0             -0.27915295     0.0047330586 
     73200   1.9197075     -1.3274069      0             -0.36755314     0.029430089  
     73250   1.8613941     -1.3183294      0             -0.38763236     0.012470689  
     73300   1.7629378     -1.3068265      0             -0.42535766     0.0026475301 
     73350   1.7177292     -1.3235747      0             -0.46471013     0.0079230825 
     73400   1.7766323     -1.3153482      0             -0.42703209    -0.034250605  
     73450   1.6778301     -1.3251131      0             -0.48619802    -0.015850147  
     73500   1.761568      -1.3237445      0             -0.44296051     0.010159868  
     73550   1.6964277     -1.3192409      0             -0.47102703     0.010220404  
     73600   1.7803462     -1.3269279      0             -0.43675477    -0.0097946283 
     73650   1.8984708     -1.3194414      0             -0.37020598     0.037734728  
     73700   1.88024       -1.3113987      0             -0.37127873    -0.0030489622 
     73750   1.7928241     -1.3126794      0             -0.41626738    -0.0079899988 
     73800   1.8998868     -1.315985       0             -0.36604165     0.0058945867 
     73850   1.9732609     -1.2981177      0             -0.31148723     0.008863531  
     73900   1.864154      -1.3232882      0             -0.39121118     0.017553722  
     73950   1.8208895     -1.319823       0             -0.4093783     -0.0026292048 
     74000   1.6589677     -1.3184081      0             -0.48892422     0.011112372  
     74050   1.6418767     -1.3258771      0             -0.50493881    -0.018271445  
     74100   1.722176      -1.3101417      0             -0.44905368    -0.027844147  
     74150   1.9185775     -1.3105141      0             -0.35122537    -0.0080400635 
     74200   2.0286182     -1.3155718      0             -0.30126268     0.053843962  
     74250   1.9850357     -1.311647       0             -0.31912915    -0.0038269564 
     74300   1.9500668     -1.3183336      0             -0.34330021    -0.0068598204 
     74350   1.6702161     -1.3262469      0             -0.49113884    -0.025485301  
     74400   1.7002122     -1.3142062      0             -0.46410008     0.019180749  
     74450   1.6119112     -1.3161822      0             -0.51022661    -0.0025149225 
     74500   1.7714278     -1.3250123      0             -0.43929834    -0.016667297  
     74550   1.8343349     -1.3178287      0             -0.40066123     0.013614932  
     74600   1.8822315     -1.315481       0             -0.37436523    -0.030903783  
     74650   1.9218897     -1.3245336      0             -0.36358876    -0.0042642646 
     74700   2.0120382     -1.327084       0             -0.32106487    -0.0080485966 
     74750   1.9113863     -1.3201474      0             -0.36445425     0.0082856592 
     74800   1.9558942     -1.317663       0             -0.33971589     2.9934202e-05
     74850   2.0582988     -1.3242407      0             -0.29509127    -0.00083849204
     74900   1.9199905     -1.3193301      0             -0.35933488    -0.02057869   
     74950   1.9267691     -1.3164343      0             -0.35304981     0.01492085   
     75000   1.9063938     -1.3143319      0             -0.36113504     0.00085919541
     75050   2.07391       -1.3212996      0             -0.28434458    -0.017500013  
     75100   2.2589929     -1.3284215      0             -0.19892506    -0.013815838  
     75150   2.1798612     -1.3143777      0             -0.22444707     0.025828469  
     75200   2.193817      -1.3179107      0             -0.22100219    -0.0024467828 
     75250   2.1512403     -1.3128109      0             -0.23719078    -0.0052100407 
     75300   2.0883076     -1.3141387      0             -0.26998496     0.016561134  
     75350   1.9478155     -1.3123474      0             -0.33843967    -0.0056651998 
     75400   1.9191867     -1.3201226      0             -0.36052926     0.026767248  
     75450   1.9822514     -1.3240478      0             -0.33292211    -0.028704476  
     75500   1.7521578     -1.3099769      0             -0.43389798    -0.00097616811
     75550   1.7621266     -1.3013302      0             -0.42026688     0.015041634  
     75600   1.9633563     -1.2974755      0             -0.31579735    -0.035334342  
     75650   2.0234125     -1.2892309      0             -0.27752465     0.015868202  
     75700   1.8228226     -1.3074288      0             -0.39601755     0.022306907  
     75750   1.9464899     -1.3006708      0             -0.32742583    -0.02111438   
     75800   2.0094354     -1.303862       0             -0.29914433    -0.02129816   
     75850   1.957095      -1.3222233      0             -0.34367577     0.024580833  
     75900   1.8785923     -1.3210556      0             -0.38175944     0.0048419153 
     75950   1.8203803     -1.2995597      0             -0.38936957     0.013903304  
     76000   1.7514661     -1.3034165      0             -0.42768347    -0.031852936  
     76050   1.8163407     -1.3129916      0             -0.40482131    -0.015861435  
     76100   1.7086211     -1.3172353      0             -0.46292474    -0.017981544  
     76150   1.7029726     -1.3166181      0             -0.46513174     0.043149066  
     76200   1.5972962     -1.3244085      0             -0.52576046     0.0039388525 
     76250   1.4721362     -1.3258857      0             -0.5898176      0.024375735  
     76300   1.5107222     -1.3087324      0             -0.55337133     0.015131215  
     76350   1.3415234     -1.3146877      0             -0.64392601    -0.009014013  
     76400   1.2481099     -1.3268291      0             -0.70277416     0.011328706  
     76450   1.2648994     -1.3235171      0             -0.69106738     0.018128961  
     76500   1.2548671     -1.3199732      0             -0.69253963    -0.011300173  
     76550   1.2703179     -1.325949       0             -0.69079011     0.0024072879 
     76600   1.4091016     -1.3260184      0             -0.62146761     0.0089186265 
     76650   1.3102812     -1.32231        0             -0.66716937    -0.027922762  
     76700   1.3511964     -1.32819        0             -0.65259177    -0.039992711  
     76750   1.4201335     -1.3171229      0             -0.60705619    -0.020102284  
     76800   1.4509731     -1.3134358      0             -0.58794919    -0.016420841  
     76850   1.3981402     -1.3203044      0             -0.62123428    -0.0072903495 
     76900   1.3411772     -1.3238193      0             -0.65323072     0.033907091  
     76950   1.2736921     -1.3159358      0             -0.67908973     0.00087658985
     77000   1.3188704     -1.3176399      0             -0.65820464    -0.016339094  
     77050   1.2966049     -1.3270078      0             -0.67870534     0.0011128213 
     77100   1.2074662     -1.3106432      0             -0.70691017     0.026496523  
     77150   1.2536521     -1.3079277      0             -0.68110166    -0.0056865514 
     77200   1.2567111     -1.3253825      0             -0.69702698    -0.016981093  
     77250   1.2589724     -1.30912        0             -0.6796338     -0.0079515578 
     77300   1.2132124     -1.3155733      0             -0.70896714     0.0066666429 
     77350   1.0544801     -1.31663        0             -0.78938998    -0.010943053  
     77400   1.1209923     -1.3082647      0             -0.74776855    -0.0034154241 
     77450   1.0476342     -1.3144787      0             -0.79066161     0.017089603  
     77500   1.0561638     -1.3266676      0             -0.79858568    -0.021793055  
     77550   1.080147      -1.3249381      0             -0.78486461     0.037480264  
     77600   1.0925388     -1.324435       0             -0.77816559     0.0057328037 
     77650   1.0068174     -1.3290203      0             -0.82561158    -0.0020755183 
     77700   0.97342278    -1.3112793      0             -0.82456793    -0.00031421812
     77750   0.92516166    -1.2989394      0             -0.83635853    -0.011396153  
     77800   1.0296305     -1.3226389      0             -0.80782363    -0.015787659  
     77850   0.96430188    -1.3235111      0             -0.84136021     0.031534294  
     77900   1.0427884     -1.3045498      0             -0.78315557     0.026702499  
     77950   1.0798334     -1.316023       0             -0.77610631    -0.01808748   
     78000   0.94608826    -1.317124       0             -0.84407988     0.011780657  
     78050   0.93526962    -1.3166193      0             -0.84898452     0.016537349  
     78100   0.89275907    -1.3062035      0             -0.859824       0.00048344956
     78150   0.93970712    -1.3073691      0             -0.83751551     0.0084975997 
     78200   0.9997991     -1.3258341      0             -0.82593451    -0.02952656   
     78250   1.0119747     -1.3097019      0             -0.80371455    -0.010642787  
     78300   1.1157938     -1.3132393      0             -0.75534237    -0.014990612  
     78350   1.1313648     -1.3279103      0             -0.76222791    -0.004868855  
     78400   1.1977856     -1.3086709      0             -0.70977807    -0.0006344064 
     78450   1.2033647     -1.3146084      0             -0.71292603    -0.0085035712 
     78500   1.1177803     -1.3239851      0             -0.76509492     0.022132288  
     78550   0.99296173    -1.2919004      0             -0.7954195     -0.026741164  
     78600   1.1482336     -1.310852       0             -0.73673519     0.013696006  
     78650   1.1529641     -1.3274683      0             -0.7509863     -0.0056401346 
     78700   1.1533885     -1.3096597      0             -0.73296539     0.0025548835 
     78750   0.97102245    -1.3179599      0             -0.83244871    -0.005117977  
     78800   1.017479      -1.3237458      0             -0.81500628    -0.022355571  
     78850   1.0379322     -1.2990886      0             -0.78012248     0.011147136  
     78900   1.1065996     -1.3038914      0             -0.75059158    -0.0024362535 
     78950   1.094722      -1.3174043      0             -0.77004324     0.0185315    
     79000   1.1068346     -1.3051153      0             -0.75169805     0.00045939134
     79050   0.94775819    -1.3138354      0             -0.83995629     0.018384024  
     79100   0.94587136    -1.3219457      0             -0.84901       -0.0076330002 
     79150   0.99915859    -1.3175364      0             -0.81795708     0.020080109  
     79200   0.99008033    -1.3055582      0             -0.810518      -0.011665335  
     79250   1.1088864     -1.3143068      0             -0.75986364    -0.0068998363 
     79300   1.0731993     -1.3249034      0             -0.78830378     0.0027484463 
     79350   0.99342535    -1.3228858      0             -0.82617315    -0.01176871   
     79400   1.0196583     -1.3238823      0             -0.81405312    -0.012473954  
     79450   0.9526086     -1.3249454      0             -0.84864113    -0.0017069953 
     79500   0.90059971    -1.3091646      0             -0.85886472    -0.0044583041 
     79550   0.88402188    -1.3132531      0             -0.87124211    -0.013367762  
     79600   0.88738337    -1.3266662      0             -0.88297453     0.0029936447 
     79650   0.68590915    -1.3238618      0             -0.98090722     0.00047003907
     79700   0.7342296     -1.3231717      0             -0.95605687     0.0051026196 
     79750   0.72365602    -1.3290647      0             -0.96723667    -0.0075454729 
     79800   0.74598459    -1.3164321      0             -0.94343979    -0.01297764   
     79850   0.72335769    -1.3140482      0             -0.95236936    -0.010021039  
     79900   0.78443145    -1.326278       0             -0.9340623      0.0024433568 
     79950   0.71317025    -1.3208844      0             -0.9642993      0.011205123  
     80000   0.75276504    -1.3125212      0             -0.93613868    -0.0090449684 
     80050   0.74043206    -1.3213969      0             -0.9511809     -0.0092945422 
     80100   0.76499994    -1.3156433      0             -0.93314333    -0.0021732666 
     80150   0.74421522    -1.3203012      0             -0.94819354     0.011328134  
     80200   0.8346397     -1.3212185      0             -0.90389868     0.0065430849 
     80250   0.7561052     -1.3251681      0             -0.94711553     0.013296515  
     80300   0.69944499    -1.3109595      0             -0.96123703    -0.0059151696 
     80350   0.58974665    -1.2999723      0             -1.005099      -0.023533844  
     80400   0.58490101    -1.3238731      0             -1.0314226      0.017046985  
     80450   0.55879377    -1.3248644      0             -1.0454675     -0.00076929891
     80500   0.47016554    -1.3177479      0             -1.0826651      0.0013691588 
     80550   0.48753588    -1.3259575      0             -1.0821895     -0.0044492172 
     80600   0.41220301    -1.317978       0             -1.1118765      0.0064528799 
     80650   0.42406933    -1.3188593      0             -1.1068247     -0.00057884107
     80700   0.38735624    -1.3268393      0             -1.1331611     -0.0070218253 
     80750   0.29361948    -1.3194154      0             -1.1726057     -0.010925844  
     80800   0.25693113    -1.3263335      0             -1.1978679     -0.0024969595 
     80850   0.28104707    -1.3280311      0             -1.1875076      0.013660227  
     80900   0.225818      -1.3240221      0             -1.2111131      0.014357397  
     80950   0.25138928    -1.3267179      0             -1.2010232     -0.0017522653 
     81000   0.26903443    -1.3256838      0             -1.1911666      0.0016830322 
     81050   0.30704514    -1.3231429      0             -1.1696203     -0.011869674  
     81100   0.28656677    -1.3232341      0             -1.1799507     -0.021131071  
     81150   0.23357325    -1.3205323      0             -1.2037457     -0.0060954591 
     81200   0.24016314    -1.3180953      0             -1.1980138      0.0092826896 
     81250   0.17143358    -1.3152668      0             -1.22955       -0.015101234  
     81300   0.22980433    -1.3266054      0             -1.2117033      0.0010888115 
     81350   0.27109438    -1.3206141      0             -1.1850669     -0.012259677  
     81400   0.18645413    -1.3092759      0             -1.2160489     -0.020869661  
     81450   0.23997742    -1.3260008      0             -1.206012       0.0010145383 
     81500   0.2361135     -1.3214585      0             -1.2034017     -0.0087421167 
     81550   0.25217626    -1.3130069      0             -1.1869187      0.0020808037 
     81600   0.32593279    -1.3198977      0             -1.1569313      0.0092225044 
     81650   0.38887664    -1.3149845      0             -1.1205462     -0.0045332169 
     81700   0.38682284    -1.3141908      0             -1.1207793      0.020916673  
     81750   0.38662798    -1.3093452      0             -1.1160312     -0.0043220508 
     81800   0.3949363     -1.3034546      0             -1.1059865     -0.0036613356 
     81850   0.36210273    -1.3251686      0             -1.1441173     -0.006697611  
     81900   0.34806983    -1.311694       0             -1.1376591     -0.019424429  
     81950   0.31566548    -1.2951886      0             -1.1373559     -0.027132764  
     82000   0.36901491    -1.3224174      0             -1.13791        0.00048119157
     82050   0.36098801    -1.3097561      0             -1.1292621      0.0045874484 
     82100   0.40269856    -1.2876022      0             -1.0862529     -0.011556298  
     82150   0.49392926    -1.3233158      0             -1.0763511     -0.027349266  
     82200   0.40240131    -1.2958675      0             -1.0946668     -0.0067050148 
     82250   0.36339022    -1.2894445      0             -1.1077494      0.01376598   
     82300   0.40698939    -1.3227402      0             -1.1192455      0.029747564  
     82350   0.40001203    -1.2886911      0             -1.0886851      0.00015400541
     82400   0.42540925    -1.3110914      0             -1.0983868     -0.013034324  
     82450   0.44876097    -1.3240599      0             -1.0996794      0.022464461  
     82500   0.29313298    -1.2689986      0             -1.1224321     -0.0099647999 
     82550   0.41271681    -1.3210417      0             -1.1146833      0.01625977   
     82600   0.37281234    -1.3114001      0             -1.1249939     -0.018638648  
     82650   0.27956193    -1.2884503      0             -1.1486694      0.024953103  
     82700   0.37869557    -1.329337       0             -1.1399893     -0.028239233  
     82750   0.32945693    -1.2966791      0             -1.1319507      0.033020498  
     82800   0.38162949    -1.3011228      0             -1.110308      -0.0056388776 
     82850   0.45420792    -1.3244699      0             -1.097366       0.0093851501 
     82900   0.41084615    -1.3100398      0             -1.1046167      0.0032208588 
     82950   0.39080517    -1.3073935      0             -1.111991       0.036873423  
     83000   0.50743956    -1.3268031      0             -1.0730833     -0.026803009  
     83050   0.52528482    -1.3085184      0             -1.045876      -0.0089440682 
     83100   0.56042712    -1.2935551      0             -1.0133416      0.0078864382 
     83150   0.71023507    -1.3271531      0             -0.97203557    -0.012288442  
     83200   0.57911934    -1.314862       0             -1.0253024     -0.029476518  
     83250   0.51106842    -1.2912553      0             -1.0357211      0.0051339923 
     83300   0.51434221    -1.3207308      0             -1.0635597      0.010263803  
     83350   0.5523393     -1.3192912      0             -1.0431216     -0.029289718  
     83400   0.53004023    -1.3008916      0             -1.0358715     -0.0094529292 
     83450   0.49943203    -1.2781923      0             -1.0284763     -0.04506219   
     83500   0.48417076    -1.3215323      0             -1.079447      -0.036472542  
     83550   0.54776999    -1.3091406      0             -1.0352556     -0.051662946  
     83600   0.3990618     -1.2804323      0             -1.0809014      0.023028266  
     83650   0.49571803    -1.3281153      0             -1.0802562     -0.020241748  
     83700   0.4500322     -1.2951303      0             -1.0701142     -0.010056112  
     83750   0.38448357    -1.2856312      0             -1.0933894     -0.0055862114 
     83800   0.48881832    -1.3263177      0             -1.0819086     -0.0028078104 
     83850   0.46159097    -1.2884859      0             -1.0576904     -0.017769136  
     83900   0.49004038    -1.3026244      0             -1.0576042     -0.0089199597 
     83950   0.52593818    -1.3176098      0             -1.0546407     -0.035715945  
     84000   0.44445904    -1.3056964      0             -1.0834669     -0.049431037  
     84050   0.43763881    -1.3105044      0             -1.091685      -0.0023342705 
     84100   0.43755929    -1.3150002      0             -1.0962206      0.0096309358 
     84150   0.40851757    -1.2993962      0             -1.0951374      0.016794322  
     84200   0.49433337    -1.3195818      0             -1.0724151     -0.0072415326 
     84250   0.45779984    -1.3120544      0             -1.0831544     -0.027980499  
     84300   0.4266196     -1.2981936      0             -1.0848838      0.009565809  
     84350   0.53980888    -1.3166262      0             -1.0467217     -0.0077507857 
     84400   0.52083084    -1.3235995      0             -1.0631841     -0.015850282  
     84450   0.42336565    -1.2972534      0             -1.0855706      0.020522643  
     84500   0.45037998    -1.3096618      0             -1.0844718      0.021867847  
     84550   0.57854543    -1.3288452      0             -1.0395725     -0.034035151  
     84600   0.57956517    -1.2905104      0             -1.0007278      0.024816581  
     84650   0.60745599    -1.3079457      0             -1.0042177      0.01184699   
     84700   0.57163359    -1.323754       0             -1.0379372      0.016752196  
     84750   0.45294951    -1.2790695      0             -1.0525948      0.0073856412 
     84800   0.55654723    -1.3153232      0             -1.0370496      0.017338414  
     84850   0.56114247    -1.3153047      0             -1.0347335     -0.016740601  
     84900   0.45604167    -1.284524       0             -1.0565032      0.025380439  
     84950   0.56774845    -1.3215896      0             -1.0377154     -0.023577626  
     85000   0.61910738    -1.3177349      0             -1.0081812     -0.017947099  
     85050   0.61465232    -1.2948051      0             -0.98747895     0.0027775599 
     85100   0.81035428    -1.3243818      0             -0.9192047     -0.017172739  
     85150   0.8339536     -1.3172915      0             -0.90031472    -0.0035804097 
     85200   0.91368575    -1.3074171      0             -0.85057426    -0.014366674  
     85250   0.89947408    -1.3198872      0             -0.8701502      0.020221669  
     85300   0.90152581    -1.3055123      0             -0.85474936    -0.015173682  
     85350   0.92387307    -1.3195365      0             -0.85759993     0.040533673  
     85400   0.88646556    -1.3104014      0             -0.86716863    -0.013555582  
     85450   0.90901239    -1.3058949      0             -0.85138866    -0.0085256117 
     85500   1.0338358     -1.3173046      0             -0.80038671     0.02320336   
     85550   1.0181923     -1.3086447      0             -0.79954855     0.0096426158 
     85600   1.0737598     -1.2950516      0             -0.75817168     0.0058792616 
     85650   1.1489815     -1.327125       0             -0.75263423    -0.042572242  
     85700   1.0379474     -1.2740687      0             -0.75509495    -0.0046681106 
     85750   1.0324934     -1.2974632      0             -0.78121644    -0.011883999  
     85800   1.0698142     -1.3217472      0             -0.78684009    -0.0029856346 
     85850   0.98396669    -1.2897079      0             -0.79772451    -0.0093953885 
     85900   0.98172827    -1.3101802      0             -0.81931609     0.0055326912 
     85950   1.0386809     -1.3120741      0             -0.79273359    -0.013287691  
     86000   1.0675121     -1.2943239      0             -0.76056782     0.024116597  
     86050   1.0951024     -1.3037395      0             -0.7561883      0.010779147  
     86100   1.112701      -1.3181932      0             -0.7618427     -0.011322581  
     86150   1.1189768     -1.2943884      0             -0.73490004     0.00069438747
     86200   1.0786923     -1.2988066      0             -0.7594605     -0.0014128798 
     86250   1.07165       -1.2866962      0             -0.75087119    -0.012313709  
     86300   1.0809791     -1.316092       0             -0.7756025      0.005278535  
     86350   1.0272782     -1.305722       0             -0.79208286     0.020616701  
     86400   1.0096784     -1.311717       0             -0.80687777     0.028937893  
     86450   1.0239913     -1.3169299      0             -0.80493428    -0.026022765  
     86500   1.0296366     -1.2991025      0             -0.78428423    -0.023574111  
     86550   1.0763803     -1.3215564      0             -0.78336621    -0.003893584  
     86600   1.0405362     -1.319058       0             -0.79878988    -0.021571133  
     86650   0.95577603    -1.2968434      0             -0.81895541     0.013273267  
     86700   1.0142971     -1.3233012      0             -0.81615266    -0.0062673277 
     86750   0.99851663    -1.3074349      0             -0.80817662     0.016977317  
     86800   1.0524272     -1.2941247      0             -0.76791109    -0.0082940107 
     86850   1.1897499     -1.3272864      0             -0.7324114      0.0034032223 
     86900   1.2187741     -1.2680546      0             -0.65866754    -0.0013678156 
     86950   1.3067529     -1.3171287      0             -0.66375223     0.019617359  
     87000   1.2833437     -1.2971898      0             -0.65551797     0.00059669539
     87050   1.2108887     -1.2976377      0             -0.69219331    -0.00067826965
     87100   1.1413299     -1.3096406      0             -0.73897571    -0.0070206463 
     87150   1.0989012     -1.2880164      0             -0.73856583     0.0025165683 
     87200   1.180625      -1.3195289      0             -0.72921645    -0.0069369526 
     87250   1.201783      -1.3037577      0             -0.70286616    -0.01840444   
     87300   1.0954576     -1.3209567      0             -0.77322793    -0.0035434824 
     87350   1.1310204     -1.309736       0             -0.74422584     0.02103522   
     87400   1.1202929     -1.2873239      0             -0.72717745    -0.017734035  
     87450   1.1688006     -1.3214231      0             -0.73702283    -0.011255894  
     87500   1.1548613     -1.3168496      0             -0.73941898     0.022483673  
     87550   1.0851038     -1.3230884      0             -0.78053653     0.014775915  
     87600   1.0827062     -1.315806       0             -0.77445292    -0.0099325725 
     87650   1.108624      -1.302381       0             -0.74806896    -0.0080555837 
     87700   1.0648713     -1.3227346      0             -0.79029891    -0.011560561  
     87750   0.96986517    -1.3207429      0             -0.83581032     0.0032351318 
     87800   0.90567931    -1.3002687      0             -0.84742907     0.010646921  
     87850   0.86381115    -1.3156954      0             -0.88378984    -0.015189001  
     87900   0.90980977    -1.3247172      0             -0.86981235     0.0050797024 
     87950   0.83018338    -1.3015875      0             -0.88649579    -0.015152505  
     88000   0.81672226    -1.3079951      0             -0.89963401     0.0092631144 
     88050   0.86261016    -1.3265931      0             -0.89528801     0.0042796983 
     88100   0.81049308    -1.3071456      0             -0.90189901     0.0010460726 
     88150   0.77293031    -1.3005988      0             -0.91413362     0.0051972395 
     88200   0.91817395    -1.325573       0             -0.86648598    -0.0010842365 
     88250   0.87839857    -1.3095228      0             -0.87032354     0.023430911  
     88300   0.89757316    -1.2980531      0             -0.84926653    -0.0071477956 
     88350   0.95678645    -1.3270675      0             -0.84867428     0.015833255  
     88400   0.99726829    -1.2927072      0             -0.79407305     0.011448346  
     88450   0.90063461    -1.2761031      0             -0.8257858     -0.0027403224 
     88500   1.0060457     -1.3031085      0             -0.80008564     0.0023038115 
     88550   0.96934134    -1.2833413      0             -0.79867061    -0.00030180317
     88600   0.83181669    -1.3037243      0             -0.88781599    -0.016541468  
     88650   0.82913262    -1.2874466      0             -0.87288033    -0.006077616  
     88700   0.79129558    -1.2891246      0             -0.89347686    -0.0030935597 
     88750   0.86756481    -1.3085777      0             -0.8747953     -0.032122115  
     88800   0.74585272    -1.2502749      0             -0.87734851     0.0058864339 
     88850   0.80791948    -1.3121541      0             -0.90819434    -0.019786474  
     88900   0.81715466    -1.2829451      0             -0.87436776    -0.034053199  
     88950   0.8401817     -1.2901291      0             -0.87003826    -0.049365027  
     89000   0.96968545    -1.3043113      0             -0.81946855     0.0097466257 
     89050   1.017513      -1.299485       0             -0.7907285     -0.013831437  
     89100   0.94448563    -1.2676246      0             -0.79538182     0.013728766  
     89150   0.98332246    -1.3064433      0             -0.81478204     0.0023056138 
     89200   1.0374178     -1.3153877      0             -0.79667876    -0.018284862  
     89250   0.96014968    -1.253943       0             -0.77386819    -0.01570908   
     89300   1.1525316     -1.3224622      0             -0.74619644    -0.02920242   
     89350   0.99991631    -1.2669081      0             -0.76694992     0.0094291328 
     89400   1.1866578     -1.297429       0             -0.70410011    -0.011145691  
     89450   1.1753847     -1.2877141      0             -0.70002174    -0.016163777  
     89500   1.0949789     -1.2919986      0             -0.74450914    -0.0023036852 
     89550   1.2079158     -1.307225       0             -0.70326707    -0.020440319  
     89600   1.1601543     -1.2565         0             -0.67642279    -0.067760231  
     89650   1.3199777     -1.3195711      0             -0.65958225     0.00077096585
     89700   1.2383378     -1.273893       0             -0.65472413     0.014313694  
     89750   1.1650356     -1.2922164      0             -0.70969863     0.012749245  
     89800   1.1895907     -1.3217564      0             -0.72696101     0.017580566  
     89850   1.2290997     -1.3132774      0             -0.69872751    -0.004896456  
     89900   1.2199117     -1.3132075      0             -0.70325171    -0.03802207   
     89950   1.263097      -1.3192045      0             -0.68765596     0.011435569  
     90000   1.2527523     -1.327121       0             -0.70074482    -0.0067031878 
     90050   1.1234078     -1.3226273      0             -0.76092341    -0.010668296  
     90100   1.0296017     -1.3268226      0             -0.81202176    -0.0084859925 
     90150   1.0535869     -1.3272135      0             -0.80042007     0.0082841491 
     90200   1.0263281     -1.3227573      0             -0.80959327    -0.0085633471 
     90250   0.97530226    -1.327735       0             -0.84008386    -0.024596139  
     90300   1.1452988     -1.3256019      0             -0.75295248    -0.0035991688 
     90350   1.1606874     -1.3192573      0             -0.73891363    -0.0083433087 
     90400   1.1671495     -1.3256524      0             -0.74207762    -0.052994898  
     90450   1.2796805     -1.3280106      0             -0.68817036    -0.016239369  
     90500   1.2491499     -1.3181634      0             -0.69358842     0.00057706803
     90550   1.2039558     -1.3236431      0             -0.72166521    -0.011142114  
     90600   1.2286849     -1.326304       0             -0.71196149    -0.04391812   
     90650   1.155909      -1.3195746      0             -0.7416201      0.010213238  
     90700   1.1816101     -1.3238118      0             -0.73300675     0.034059784  
     90750   1.1896136     -1.3246356      0             -0.72982883     0.033963932  
     90800   1.1982823     -1.3199398      0             -0.72079862     0.0013573829 
     90850   1.2236667     -1.3244013      0             -0.71256795     0.020962974  
     90900   1.1817183     -1.3269304      0             -0.73607131    -0.00062925898
     90950   1.1466301     -1.3205462      0             -0.74723118    -0.020072367  
     91000   1.089912      -1.3198507      0             -0.77489469    -0.00275811   
     91050   1.0862962     -1.3178338      0             -0.77468566     0.017326121  
     91100   1.0756417     -1.3150693      0             -0.77724847    -0.0068771536 
     91150   1.0695665     -1.3199645      0             -0.78518123    -0.01276832   
     91200   1.0348279     -1.3272845      0             -0.8098705      0.04329758   
     91250   1.0475706     -1.3211044      0             -0.7973191      0.018496136  
     91300   1.1927661     -1.321109       0             -0.72472597    -0.0048871652 
     91350   1.2093908     -1.3190352      0             -0.71433977    -0.010363487  
     91400   1.1889671     -1.3107         0             -0.7162164      0.0034921677 
     91450   1.1480904     -1.3096842      0             -0.73563897    -0.030530647  
     91500   1.1486695     -1.3192392      0             -0.74490445     0.020539728  
     91550   1.1362088     -1.3162606      0             -0.74815615     0.0043240255 
     91600   1.0888848     -1.3207296      0             -0.7762872      0.011748653  
     91650   1.1993865     -1.315898       0             -0.71620469    -0.013701571  
     91700   1.2393883     -1.3043748      0             -0.68468068    -0.029348902  
     91750   1.1673533     -1.2959899      0             -0.71231329     0.0051678783 
     91800   1.1601628     -1.3167174      0             -0.73663599     0.0014594921 
     91850   1.1397188     -1.3174454      0             -0.74758596     0.039500072  
     91900   1.1602579     -1.3017883      0             -0.72165938     0.016454025  
     91950   1.2240914     -1.3268285      0             -0.71478277    -0.016166315  
     92000   1.1518132     -1.2929484      0             -0.71704183     0.0060409095 
     92050   1.2539083     -1.2910677      0             -0.66411355    -0.029835546  
     92100   1.3483356     -1.3263163      0             -0.65214852     0.011334014  
     92150   1.3485871     -1.2921766      0             -0.61788306    -0.0080716517 
     92200   1.3191712     -1.308551       0             -0.64896544     0.033202462  
     92250   1.3511925     -1.3155262      0             -0.63992995     0.016094666  
     92300   1.1930009     -1.2673713      0             -0.67087083    -0.0057930438 
     92350   1.1312743     -1.3065785      0             -0.74094138    -0.015635155  
     92400   1.2177042     -1.3112701      0             -0.70241801     0.012279579  
     92450   1.2587253     -1.2654994      0             -0.63613679     0.022511967  
     92500   1.3249727     -1.3110397      0             -0.6485533     -0.047745791  
     92550   1.2178457     -1.2906942      0             -0.68177132     0.040006928  
     92600   1.2827759     -1.3022154      0             -0.66082743     0.0027761958 
     92650   1.2770409     -1.310843       0             -0.67232257     0.013939298  
     92700   1.3787522     -1.296163       0             -0.60678687     0.037655893  
     92750   1.4777463     -1.3154014      0             -0.5765282      0.0021870498 
     92800   1.346741      -1.3157325      0             -0.64236203     0.049909928  
     92850   1.419378      -1.315456       0             -0.60576694    -0.020531043  
     92900   1.2704208     -1.3273335      0             -0.69212307    -0.0082121362 
     92950   1.3010666     -1.3150974      0             -0.6645641      0.016127214  
     93000   1.2438782     -1.2988136      0             -0.67687445     0.014678834  
     93050   1.2444828     -1.3274827      0             -0.70524125     0.011464192  
     93100   1.2737136     -1.2987391      0             -0.66188229     0.0086110499 
     93150   1.1520705     -1.3101303      0             -0.73409509     0.017819044  
     93200   1.0612175     -1.3210994      0             -0.79049064    -0.002280127  
     93250   1.1015086     -1.3016389      0             -0.75088458    -0.046929532  
     93300   1.1184644     -1.3266742      0             -0.76744202     0.019868404  
     93350   1.1396967     -1.3175574      0             -0.74770901     0.0025488059 
     93400   1.0879619     -1.3040424      0             -0.76006145    -0.0039175946 
     93450   1.2262424     -1.3264607      0             -0.71333949    -0.0043357606 
     93500   1.128841      -1.3100746      0             -0.74565413    -0.0021944385 
     93550   1.0467829     -1.3077489      0             -0.78435748    -0.018361919  
     93600   1.1373226     -1.326962       0             -0.7583007     -0.0059262654 
     93650   1.1453884     -1.3236521      0             -0.75095788     0.0035241047 
     93700   1.1962034     -1.3219172      0             -0.72381545     0.023839537  
     93750   1.3760905     -1.3267078      0             -0.63866258     0.041607429  
     93800   1.2409376     -1.3255948      0             -0.70512599    -0.027817447  
     93850   1.3605292     -1.3217138      0             -0.64144917    -0.013202841  
     93900   1.2559229     -1.3283703      0             -0.70040883    -0.037177753  
     93950   1.1345241     -1.3256519      0             -0.75838986     0.0024532041 
     94000   0.98071069    -1.3093217      0             -0.81896636     0.018469219  
     94050   1.0407958     -1.314033       0             -0.79363511    -0.023478968  
     94100   1.0488227     -1.3266762      0             -0.80226483     0.017084826  
     94150   0.94404304    -1.3165775      0             -0.84455594    -0.015119952  
     94200   0.94791175    -1.3195027      0             -0.84554687     0.011055134  
     94250   0.8973041     -1.3283745      0             -0.87972248    -0.001259513  
     94300   0.90127093    -1.3251649      0             -0.87452947    -0.02528612   
     94350   0.70017742    -1.3163803      0             -0.96629164    -7.7883718e-06
     94400   0.71166411    -1.3224782      0             -0.96664614    -0.0065557609 
     94450   0.73939426    -1.328148       0             -0.95845083    -0.0015389634 
     94500   0.90621719    -1.316277       0             -0.8631684     -0.0027248351 
     94550   0.86001208    -1.3100876      0             -0.88008153     0.028176114  
     94600   0.93965849    -1.3242482      0             -0.85441896    -0.0059044811 
     94650   0.98980069    -1.3210822      0             -0.82618183    -0.012066088  
     94700   1.0216564     -1.3125708      0             -0.8017426     -0.0058124016 
     94750   1.0132612     -1.3272         0             -0.82056938     0.0016232992 
     94800   0.97902449    -1.317644       0             -0.82813173    -0.0011207312 
     94850   0.94947708    -1.3059938      0             -0.8312553      0.0036942923 
     94900   0.99758937    -1.3250773      0             -0.82628264     0.007493275  
     94950   1.0214586     -1.3272545      0             -0.81652524     0.0019988127 
     95000   0.97692466    -1.3187181      0             -0.83025577     0.00061515524
     95050   1.0144512     -1.3141697      0             -0.8069441      0.0018891644 
     95100   1.1713451     -1.3190352      0             -0.73336267     0.0049639139 
     95150   1.2015216     -1.3240762      0             -0.72331541     0.0089424928 
     95200   1.2547677     -1.3132615      0             -0.68587766     0.0038351007 
     95250   1.2167562     -1.3066702      0             -0.69829206     0.0051864392 
     95300   1.3334444     -1.3091111      0             -0.6423889     -0.0054879329 
     95350   1.3433017     -1.316501       0             -0.64485012    -0.0027166782 
     95400   1.5322414     -1.3133526      0             -0.54723188     0.0080348985 
     95450   1.5130169     -1.3113705      0             -0.55486207    -0.00072214562
     95500   1.581442      -1.3133275      0             -0.52260653     0.0095800358 
     95550   1.7026598     -1.3148158      0             -0.46348586     0.0016250789 
     95600   1.6403706     -1.2859982      0             -0.46581285    -0.0021172729 
     95650   1.6452989     -1.314669       0             -0.49201959    -0.005787314  
     95700   1.6744221     -1.3143839      0             -0.47717284    -0.0022508209 
     95750   1.6621633     -1.3057377      0             -0.4746561      0.0052960013 
     95800   1.8375413     -1.3268402      0             -0.40806957     0.0048070307 
     95850   1.7724471     -1.2888092      0             -0.40258567    -0.0011982122 
     95900   1.7661261     -1.2978448      0             -0.4147818      0.011274421  
     95950   1.7162368     -1.3208569      0             -0.46273854    -0.012734628  
     96000   1.6458318     -1.3106182      0             -0.48770228    -0.018235378  
     96050   1.7599087     -1.3163438      0             -0.43638947    -0.018756351  
     96100   1.6593823     -1.2994917      0             -0.46980049     0.019440291  
     96150   1.7503523     -1.3111098      0             -0.43593362     0.014590049  
     96200   1.6986114     -1.2736316      0             -0.42432583     0.0026683784 
     96250   1.6931095     -1.3111785      0             -0.46462369     0.0070284349 
     96300   1.5983434     -1.295759       0             -0.49658731     0.021705396  
     96350   1.5028321     -1.2779164      0             -0.52650032    -0.002976767  
     96400   1.6238005     -1.3117533      0             -0.49985308     0.02971024   
     96450   1.6055204     -1.2801986      0             -0.47743847    -0.0093139762 
     96500   1.7497569     -1.3220573      0             -0.44717886     0.010824734  
     96550   1.8127415     -1.2661424      0             -0.3597716     -0.0074409628 
     96600   1.9454045     -1.311403       0             -0.33870075     0.0011310334 
     96650   2.0578349     -1.2928679      0             -0.26395042     0.016164445  
     96700   1.9575049     -1.2789592      0             -0.30020675     0.024733583  
     96750   1.9522832     -1.3264069      0             -0.35026534     0.012117138  
     96800   1.7030387     -1.2598805      0             -0.40836116    -0.0031304319 
     96850   1.6776243     -1.3180325      0             -0.47922035    -0.02037789   
     96900   1.5277789     -1.2942697      0             -0.53038026     0.0093582224 
     96950   1.6023298     -1.2766288      0             -0.4754639      0.0071053976 
     97000   1.6787997     -1.3107071      0             -0.47130719     0.0085842746 
     97050   1.8249152     -1.3080009      0             -0.39554326    -0.0016143166 
     97100   1.7584227     -1.2844048      0             -0.40519344     0.0016584634 
     97150   1.8989715     -1.2960564      0             -0.34657066    -0.0031093583 
     97200   2.0770038     -1.2941847      0             -0.25568279     0.0094696789 
     97250   2.1890088     -1.2771382      0             -0.18263381     0.0044949989 
     97300   2.2591842     -1.3237739      0             -0.19418178    -0.011093664  
     97350   2.0661757     -1.2604755      0             -0.22738767     0.010480651  
     97400   2.2036184     -1.3263409      0             -0.22453165     0.012358001  
     97450   2.167801      -1.296157       0             -0.21225653    -0.010474491  
     97500   2.2309329     -1.3062932      0             -0.19082675     0.012321756  
     97550   2.1468901     -1.3046059      0             -0.23116083     0.00042808169
     97600   2.0918325     -1.2814116      0             -0.23549533    -0.013326968  
     97650   2.2098074     -1.3095015      0             -0.20459784     0.00044933945
     97700   2.3238305     -1.2970488      0             -0.13513354    -0.00054184504
     97750   2.3172324     -1.3124425      0             -0.15382634     0.017949339  
     97800   2.296349      -1.2780967      0             -0.12992223    -0.012481153  
     97850   2.2209688     -1.3168906      0             -0.20640622    -0.0019035602 
     97900   2.2566073     -1.2759658      0             -0.14766214    -0.0042460044 
     97950   2.4586577     -1.3051552      0             -0.075826324    0.011269388  
     98000   2.3769764     -1.304874       0             -0.11638577     0.0065183312 
     98050   2.4630683     -1.2911708      0             -0.05963662    -0.00086897079
     98100   2.7081978     -1.3182729      0              0.035825955   -0.00027829692
     98150   2.5914223     -1.2761242      0              0.019586951    0.0079834088 
     98200   2.589458      -1.2826811      0              0.012047906   -0.024603426  
     98250   2.7590392     -1.308536       0              0.070983575   -0.017499923  
     98300   2.7325237     -1.3100575      0              0.056204307    0.0092686003 
     98350   2.8292715     -1.3101645      0              0.10447124     0.027099704  
     98400   2.7913083     -1.3048298      0              0.090824375    0.0054778225 
     98450   2.6977414     -1.2534818      0              0.095388886    0.0014374041 
     98500   3.0500233     -1.3195562      0              0.20545547    -0.031452583  
     98550   2.7426121     -1.292408       0              0.07889806    -0.0084109911 
     98600   2.7749257     -1.2954749      0              0.09198794     0.0061839944 
     98650   2.7968337     -1.3190093      0              0.07940753    -0.0015583307 
     98700   2.4956741     -1.2566612      0             -0.0088241676   0.037439632  
     98750   2.5892099     -1.326079       0             -0.031474026   -0.031464742  
     98800   2.3906239     -1.2636051      0             -0.068293105    0.0030794807 
     98850   2.5264986     -1.3215216      0             -0.058272322   -0.016570845  
     98900   2.3382817     -1.2915894      0             -0.12244857    -0.0070290644 
     98950   2.1286398     -1.2971245      0             -0.23280458    -0.0051380472 
     99000   2.0806666     -1.3147615      0             -0.27442821     8.0702691e-05
     99050   1.9820021     -1.2949115      0             -0.3039104     -0.018686122  
     99100   1.8306563     -1.287117       0             -0.37178889     0.013072752  
     99150   1.8181545     -1.3185495      0             -0.4094722     -0.0087613813 
     99200   1.8523862     -1.307476       0             -0.38128287     0.035483214  
     99250   1.6530713     -1.2774756      0             -0.45093989    -0.0070664052 
     99300   1.6567187     -1.3264512      0             -0.49809185    -0.0068748763 
     99350   1.7087217     -1.2744082      0             -0.42004733    -0.0024235737 
     99400   1.6660516     -1.2877764      0             -0.45475059     0.012477667  
     99450   1.5957926     -1.3225712      0             -0.52467486    -0.00033739277
     99500   1.3743719     -1.2732769      0             -0.58609096    -0.01556484   
     99550   1.364443      -1.3138881      0             -0.63166663     0.019357091  
     99600   1.3574015     -1.2995585      0             -0.62085772    -0.0084476429 
     99650   1.3828144     -1.3052059      0             -0.61379871    -0.033229022  
     99700   1.3763301     -1.307567       0             -0.61940199     0.018184386  
     99750   1.4160943     -1.2940328      0             -0.58598567     0.00013789698
     99800   1.3910261     -1.3089111      0             -0.61339803    -0.0041633528 
     99850   1.2094766     -1.2819673      0             -0.677229       0.016537345  
     99900   1.3054216     -1.3221553      0             -0.66944454    -0.0048328469 
     99950   1.2526781     -1.3048119      0             -0.67847289    -0.0014476838 
    100000   1.2363145     -1.2878418      0             -0.66968453     0.020643195  
    100001   1.2419204     -1.2881417      0             -0.66718147    -0.012103213  
Loop time of 0.70869 on 1 procs for 100000 steps with 8 atoms

Performance: 60957541.379 tau/day, 141105.420 timesteps/s, 1.129 Matom-step/s
66.1% CPU use with 1 MPI tasks x 1 OpenMP threads

MPI task timing breakdown:
Section |  min time  |  avg time  |  max time  |%varavg| %total
---------------------------------------------------------------
Pair    | 0.047162   | 0.047162   | 0.047162   |   0.0 |  6.65
Bond    | 0.007483   | 0.007483   | 0.007483   |   0.0 |  1.06
Neigh   | 0.020958   | 0.020958   | 0.020958   |   0.0 |  2.96
Comm    | 0.028863   | 0.028863   | 0.028863   |   0.0 |  4.07
Output  | 0.39393    | 0.39393    | 0.39393    |   0.0 | 55.59
Modify  | 0.13815    | 0.13815    | 0.13815    |   0.0 | 19.49
Other   |            | 0.07214    |            |       | 10.18

Nlocal:              8 ave           8 max           8 min
Histogram: 1 0 0 0 0 0 0 0 0 0
Nghost:              8 ave           8 max           8 min
Histogram: 1 0 0 0 0 0 0 0 0 0
Neighs:              0 ave           0 max           0 min
Histogram: 1 0 0 0 0 0 0 0 0 0

Total # of neighbors = 0
Ave neighs/atom = 0
Ave special neighs/atom = 3.25
Neighbor list builds = 4935
Dangerous builds = 0
Total wall time: 0:00:00
