LAMMPS (2 Aug 2023 - Update 3)
OMP_NUM_THREADS environment is not set. Defaulting to 1 thread. (src/comm.cpp:98)
  using 1 OpenMP thread(s) per MPI task
Loaded 1 plugins from F:\LAMMPS\LAMMPS 64-bit 2Aug2023\plugins
# Script to create a Polymer using Patchy Particles (PP)
# Types of Particles:
#   Cross linker:   PPA
#   Monomer:        PPB

# Initialization
units lj
dimension 3
boundary p p p

# Types of atoms and that stuff
atom_style full
bond_style zero nocoeff
pair_style hybrid lj/cut 2.5 cosine/squared 2.5 zero 2.5

# Get data for box and particles
read_data data.patchyP1.lmp group CL1
Reading data file ...
  orthogonal box = (-5 -5 -5) to (5 5 5)
  1 by 1 by 1 MPI processor grid
  reading atoms ...
  4 atoms
  scanning bonds ...
  3 = max bonds/atom
  reading bonds ...
  3 bonds
Finding 1-2 1-3 1-4 neighbors ...
  special bond factors lj:    0        0        0       
  special bond factors coul:  0        0        0       
     3 = max # of 1-2 neighbors
     2 = max # of 1-3 neighbors
     2 = max # of 1-4 neighbors
     3 = max # of special neighbors
  special bonds CPU = 0.002 seconds
  read_data CPU = 0.008 seconds
read_data data.patchyP2.lmp add merge group Mo1
Reading data file ...
  orthogonal box = (-5 -5 -5) to (5 5 5)
  1 by 1 by 1 MPI processor grid
WARNING: Atom style in data file atom-ID molecule-ID atom-type q x y z differs from currently defined atom style full (src/read_data.cpp:621)
  reading atoms ...
  3 atoms
  scanning bonds ...
  2 = max bonds/atom
WARNING: Bond style ID parameters in data file differs from currently defined bond style zero (src/read_data.cpp:724)
  reading bonds ...
  2 bonds
Finding 1-2 1-3 1-4 neighbors ...
  special bond factors lj:    0        0        0       
  special bond factors coul:  0        0        0       
     3 = max # of 1-2 neighbors
     2 = max # of 1-3 neighbors
     2 = max # of 1-4 neighbors
     3 = max # of special neighbors
  special bonds CPU = 0.001 seconds
  read_data CPU = 0.005 seconds

displace_atoms Mo1 move 0.0 0.0 3.0 units box
Displacing atoms ...

# Set the patchy particle interaction
fix CLfix CL1 rigid single
  1 rigid bodies with 4 atoms
fix Mofix Mo1 rigid single
  1 rigid bodies with 3 atoms

pair_coeff 1 1 lj/cut 1.0 1.0 1.12 # i-type j-type eps sigma cutoff
pair_coeff 2 2 cosine/squared 10.0 0.5 0.56 wca # i-type j-type eps sigma cutoff wca
pair_coeff 1 2 zero 1.68

# Get data for box and particles
#read_data data.patchyP2.lmp add append shift 0.0 5.0 0.0

# Set the patchy particle interaction
#group Mo type 5 6 7
#fix Mofix Mo rigid single


# Neighbor list
neighbor 0.3 nsq
neigh_modify delay 5

minimize 1.0e-4 1.0e-6 1000 10000
Switching to 'neigh_modify every 1 delay 0 check yes' setting during minimization
Generated 0 of 1 mixed pair_coeff terms from geometric mixing rule
WARNING: More than one fix rigid (src/RIGID/fix_rigid.cpp:709)
WARNING: More than one fix rigid (src/RIGID/fix_rigid.cpp:709)
Neighbor list info ...
  update: every = 1 steps, delay = 0 steps, check = yes
  max neighbors/atom: 2000, page size: 100000
  master list distance cutoff = 1.98
  ghost atom cutoff = 1.98
  6 neighbor lists, perpetual/occasional/extra = 6 0 0
  (1) pair lj/cut, perpetual, skip from (4)
      attributes: half, newton on, cut 1.4200000000000002
      pair build: skip
      stencil: none
      bin: none
  (2) pair cosine/squared, perpetual, skip from (5)
      attributes: half, newton on, cut 0.8600000000000001
      pair build: skip
      stencil: none
      bin: none
  (3) pair zero, perpetual, skip from (6)
      attributes: half, newton on
      pair build: skip
      stencil: none
      bin: none
  (4) neighbor class addition, perpetual, trim from (6)
      attributes: half, newton on, cut 1.4200000000000002
      pair build: trim
      stencil: none
      bin: none
  (5) neighbor class addition, perpetual, trim from (4)
      attributes: half, newton on, cut 0.8600000000000001
      pair build: trim
      stencil: none
      bin: none
  (6) neighbor class addition, perpetual
      attributes: half, newton on
      pair build: half/nsq/newton
      stencil: none
      bin: none
Per MPI rank memory allocation (min/avg/max) = 13.28 | 13.28 | 13.28 Mbytes
   Step          Temp          E_pair         E_mol          TotEng         Press     
         0   0              0              0              0              0            
         1   0              0              0              0              0            
Loop time of 7.3e-05 on 1 procs for 1 steps with 7 atoms

0.0% CPU use with 1 MPI tasks x 1 OpenMP threads

Minimization stats:
  Stopping criterion = search direction is not downhill
  Energy initial, next-to-last, final = 
                     0                  0                  0
  Force two-norm initial, final = 0 0
  Force max component initial, final = 0 0
  Final line search alpha, max atom move = 0 0
  Iterations, force evaluations = 1 0

MPI task timing breakdown:
Section |  min time  |  avg time  |  max time  |%varavg| %total
---------------------------------------------------------------
Pair    | 2e-06      | 2e-06      | 2e-06      |   0.0 |  2.74
Bond    | 0          | 0          | 0          |   0.0 |  0.00
Neigh   | 0          | 0          | 0          |   0.0 |  0.00
Comm    | 0          | 0          | 0          |   0.0 |  0.00
Output  | 0          | 0          | 0          |   0.0 |  0.00
Modify  | 0          | 0          | 0          |   0.0 |  0.00
Other   |            | 7.1e-05    |            |       | 97.26

Nlocal:              7 ave           7 max           7 min
Histogram: 1 0 0 0 0 0 0 0 0 0
Nghost:              0 ave           0 max           0 min
Histogram: 1 0 0 0 0 0 0 0 0 0
Neighs:              0 ave           0 max           0 min
Histogram: 1 0 0 0 0 0 0 0 0 0

Total # of neighbors = 0
Ave neighs/atom = 0
Ave special neighs/atom = 2.5714286
Neighbor list builds = 0
Dangerous builds = 0

fix 1 all langevin 1.0 1.0 50.0 12345
fix 2 all nve

thermo 50
compute t all temp
compute ep all pe
compute ek all ke
compute tm all momentum

dump 1 all atom 50 dump.patchy_pairs1

timestep 0.005
run 100000
Generated 0 of 1 mixed pair_coeff terms from geometric mixing rule
WARNING: More than one fix rigid (src/RIGID/fix_rigid.cpp:709)
WARNING: More than one fix rigid (src/RIGID/fix_rigid.cpp:709)
WARNING: One or more atoms are time integrated more than once (src/modify.cpp:289)
Per MPI rank memory allocation (min/avg/max) = 12.15 | 12.15 | 12.15 Mbytes
   Step          Temp          E_pair         E_mol          TotEng         Press     
         1   0              0              0              0              0            
        50   0.020741398    0              0              0.011852227    0.0024708979 
       100   0.047204526    0              0              0.026974015   -0.0066288506 
       150   0.058030485    0              0              0.033160277    0.0068582093 
       200   0.043892184    0              0              0.025081248    0.0086222829 
       250   0.037878287    0              0              0.021644735   -0.001912376  
       300   0.034979976    0              0              0.019988557   -0.0052884452 
       350   0.061297026    0              0              0.035026872    0.0019708835 
       400   0.10346305     0              0              0.05912174    -0.02412162   
       450   0.12952414     0              0              0.074013793   -0.00071513209
       500   0.12182741     0              0              0.069615664    0.0025493569 
       550   0.11739613     0              0              0.067083504   -0.0056812906 
       600   0.15892675     0              0              0.090815285    0.0038213529 
       650   0.17884578     0              0              0.10219759    -0.0054342208 
       700   0.15602975     0              0              0.089159859    0.006726779  
       750   0.15253126     0              0              0.087160718    0.003271929  
       800   0.1923256      0              0              0.10990034    -0.015127482  
       850   0.13890139     0              0              0.079372221    0.0090525257 
       900   0.13010315     0              0              0.074344656    0.015925108  
       950   0.12134777     0              0              0.069341585    0.010622713  
      1000   0.16648854     0              0              0.095136308    0.0065932995 
      1050   0.16854927     0              0              0.096313871   -0.0016072903 
      1100   0.24589357     0              0              0.14051061    -0.0061201501 
      1150   0.33870259     0              0              0.19354434     0.022022947  
      1200   0.32353789     0              0              0.1848788     -0.00082724153
      1250   0.3042289      0              0              0.17384509    -0.0067127446 
      1300   0.29664708     0              0              0.16951262    -0.00073926246
      1350   0.31551159     0              0              0.18029234    -0.012019641  
      1400   0.29168893     0              0              0.16667939     0.020950097  
      1450   0.34111156     0              0              0.19492089    -0.0087186734 
      1500   0.41833826     0              0              0.23905043    -0.0065345742 
      1550   0.41683831     0              0              0.23819332    -0.0081243005 
      1600   0.43608941     0              0              0.24919395     0.0056716768 
      1650   0.36999691     0              0              0.21142681     0.0085368533 
      1700   0.40738639     0              0              0.23279222    -0.0088156523 
      1750   0.47465534     0              0              0.27123162     0.0070919663 
      1800   0.521859       0              0              0.29820515     0.0038715403 
      1850   0.49312842     0              0              0.28178767    -0.015423825  
      1900   0.58432524     0              0              0.33390014    -0.0090736306 
      1950   0.53250447     0              0              0.30428827    -0.0017656576 
      2000   0.5591238      0              0              0.31949931     0.0095931889 
      2050   0.54699464     0              0              0.31256837     0.0053472314 
      2100   0.55503995     0              0              0.31716568    -0.011247296  
      2150   0.50701277     0              0              0.28972158     0.019648384  
      2200   0.53588401     0              0              0.30621943    -0.002000534  
      2250   0.6275193      0              0              0.35858246     0.0011224641 
      2300   0.55399831     0              0              0.31657046     0.023409394  
      2350   0.50926042     0              0              0.29100595    -0.012006094  
      2400   0.55953717     0              0              0.31973553     0.0025180696 
      2450   0.56648369     0              0              0.32370496     0.0011630063 
      2500   0.55395969     0              0              0.31654839     0.005275405  
      2550   0.53426223     0              0              0.3052927      0.011986182  
      2600   0.61691589     0              0              0.35252337    -0.014999341  
      2650   0.56343628     0              0              0.32196359    -0.009538162  
      2700   0.53094908     0              0              0.30339947     0.0087382621 
      2750   0.48015572     0              0              0.2743747      0.0057233174 
      2800   0.46126273     0              0              0.2635787     -0.0093339453 
      2850   0.40179319     0              0              0.22959611     0.0077060972 
      2900   0.47517841     0              0              0.27153052    -0.028645093  
      2950   0.41279675     0              0              0.23588386     0.0082610244 
      3000   0.43226892     0              0              0.24701081     0.0042116559 
      3050   0.44796944     0              0              0.25598254     0.00069991555
      3100   0.41747399     0              0              0.23855657    -0.012672488  
      3150   0.43298551     0              0              0.24742029     0.015365787  
      3200   0.31799713     0              0              0.18171265    -0.0018230241 
      3250   0.30181194     0              0              0.17246396    -0.0055246634 
      3300   0.2446865      0              0              0.13982086    -0.02134715   
      3350   0.27370766     0              0              0.15640437    -0.017514323  
      3400   0.24215226     0              0              0.13837272    -0.00097261107
      3450   0.24780889     0              0              0.14160508    -0.035401065  
      3500   0.2619199      0              0              0.14966851     0.019085341  
      3550   0.24123162     0              0              0.13784664     0.038805433  
      3600   0.22706758     0              0              0.1297529      0.0078845689 
      3650   0.2274862      0              0              0.12999211    -0.0093828568 
      3700   0.26545289     0              0              0.15168736     0.0096683022 
      3750   0.31936334     0              0              0.18249334    -0.0022044044 
      3800   0.30765973     0              0              0.17580556    -0.0093235219 
      3850   0.38167432     0              0              0.21809961     0.0054941775 
      3900   0.41650122     0              0              0.2380007      0.006977001  
      3950   0.4369531      0              0              0.24968749     0.023821551  
      4000   0.45028561     0              0              0.25730606     0.039424004  
      4050   0.33262724     0              0              0.19007271    -0.00097713872
      4100   0.27905366     0              0              0.15945924     0.014948202  
      4150   0.24598992     0              0              0.14056567     0.0029277245 
      4200   0.26095801     0              0              0.14911886    -0.011446532  
      4250   0.21790079     0              0              0.12451474     0.010082603  
      4300   0.2137581      0              0              0.12214749    -0.013679034  
      4350   0.22726201     0              0              0.12986401     0.0046725166 
      4400   0.31803548     0              0              0.18173456     0.041013038  
      4450   0.37479365     0              0              0.2141678      0.00074605485
      4500   0.3479473      0              0              0.19882703    -0.0052644976 
      4550   0.34012099     0              0              0.19435485    -0.0090950643 
      4600   0.45591239     0              0              0.26052137    -0.017312155  
      4650   0.50816294     0              0              0.29037882     0.012086013  
      4700   0.59014612     0              0              0.33722635    -0.001320309  
      4750   0.63250583     0              0              0.3614319      0.020912989  
      4800   0.65063884     0              0              0.37179362     0.029307318  
      4850   0.6118405      0              0              0.34962314     0.0073092269 
      4900   0.53111845     0              0              0.30349626     0.008572196  
      4950   0.53772424     0              0              0.307271      -0.0014712537 
      5000   0.49032675     0              0              0.28018672    -0.013641936  
      5050   0.47043191     0              0              0.26881824     0.022548221  
      5100   0.60873862     0              0              0.34785064    -0.0064907784 
      5150   0.64769949     0              0              0.37011399     0.0090943381 
      5200   0.66068788     0              0              0.37753593    -0.0030573176 
      5250   0.69975993     0              0              0.39986282    -0.034727893  
      5300   0.68647352     0              0              0.39227058    -0.019040417  
      5350   0.75610041     0              0              0.43205738     0.0046745524 
      5400   0.75668342     0              0              0.43239052    -0.01038652   
      5450   0.77070678     0              0              0.44040387    -0.0091555639 
      5500   0.75341993     0              0              0.43052568    -0.018211653  
      5550   0.74949264     0              0              0.42828151    -0.0072740972 
      5600   0.65534059     0              0              0.37448033     0.018188686  
      5650   0.65959522     0              0              0.37691155    -0.0013999682 
      5700   0.63543735     0              0              0.36310706    -0.004950511  
      5750   0.56770466     0              0              0.32440266    -0.0080901337 
      5800   0.60655262     0              0              0.34660149     0.0053699588 
      5850   0.60871984     0              0              0.34783991    -0.0045601672 
      5900   0.54944845     0              0              0.31397054     0.0021833025 
      5950   0.59896577     0              0              0.34226616    -0.0055693574 
      6000   0.57035174     0              0              0.32591528    -0.002495552  
      6050   0.57268979     0              0              0.32725131     0.00027755829
      6100   0.58120172     0              0              0.33211527    -0.0066494896 
      6150   0.5082901      0              0              0.29045149    -0.013208113  
      6200   0.56378887     0              0              0.32216507     0.006833986  
      6250   0.53216064     0              0              0.30409179    -0.0048736655 
      6300   0.61662777     0              0              0.35235872    -0.017017038  
      6350   0.55598995     0              0              0.31770854     0.0062488103 
      6400   0.50490476     0              0              0.28851701    -0.017783562  
      6450   0.57468617     0              0              0.3283921     -0.0032675229 
      6500   0.66496287     0              0              0.37997878    -0.02134694   
      6550   0.64693036     0              0              0.36967449    -0.020586151  
      6600   0.57598738     0              0              0.32913564     0.011784762  
      6650   0.62779569     0              0              0.35874039    -0.0065233882 
      6700   0.64644961     0              0              0.36939978    -0.010566643  
      6750   0.6812075      0              0              0.38926143     0.0077824422 
      6800   0.71398517     0              0              0.40799152     0.0019512648 
      6850   0.6315319      0              0              0.36087537     0.0093976282 
      6900   0.58063522     0              0              0.33179155     0.0027256986 
      6950   0.53857262     0              0              0.30775578    -0.0064941864 
      7000   0.54357019     0              0              0.31061154     0.018536752  
      7050   0.60564729     0              0              0.34608417     0.022635976  
      7100   0.74607364     0              0              0.4263278      0.036292911  
      7150   0.77623147     0              0              0.44356084    -0.017144896  
      7200   0.81760129     0              0              0.46720074     0.023741357  
      7250   0.8423745      0              0              0.48135686    -0.017382743  
      7300   0.85814904     0              0              0.49037088     0.0093652157 
      7350   0.81788329     0              0              0.46736188    -0.0098019341 
      7400   0.86123474     0              0              0.49213414    -0.015006629  
      7450   0.8418812      0              0              0.48107497     0.020042695  
      7500   0.89213604     0              0              0.50979202     0.0030481777 
      7550   0.92414018     0              0              0.5280801      0.0047880892 
      7600   0.90209405     0              0              0.51548231     0.015187948  
      7650   0.86948412     0              0              0.49684807    -0.031769092  
      7700   0.79140416     0              0              0.45223095    -0.014864237  
      7750   0.73249642     0              0              0.41856938    -0.0043451313 
      7800   0.69506977     0              0              0.39718273     0.0038947871 
      7850   0.77439843     0              0              0.44251339     0.00348654   
      7900   0.80855657     0              0              0.46203232     0.011881456  
      7950   0.77816534     0              0              0.44466591     0.0017416533 
      8000   0.82225428     0              0              0.46985959    -0.026397989  
      8050   0.81818383     0              0              0.46753362    -0.00024573398
      8100   0.65586041     0              0              0.37477737    -0.0049285015 
      8150   0.67975096     0              0              0.38842912    -0.0041144547 
      8200   0.71971742     0              0              0.4112671      0.0070283131 
      8250   0.74263422     0              0              0.42436241     0.0097375282 
      8300   0.79818562     0              0              0.45610607    -0.0026581907 
      8350   0.8303783      0              0              0.47450189    -0.0047881017 
      8400   0.81687851     0              0              0.46678772     0.025044088  
      8450   0.88449381     0              0              0.50542503     0.0091384206 
      8500   0.86993771     0              0              0.49710726     0.0041179119 
      8550   0.83836709     0              0              0.47906691    -0.046059486  
      8600   0.69415068     0              0              0.39665753    -0.0032869483 
      8650   0.65395401     0              0              0.373688       0.0019189116 
      8700   0.63990341     0              0              0.36565909     0.019990801  
      8750   0.6042271      0              0              0.34527263     0.024865022  
      8800   0.66370533     0              0              0.37926019    -0.0025434842 
      8850   0.63009232     0              0              0.36005275     0.00016061068
      8900   0.73832593     0              0              0.42190053    -0.0080117657 
      8950   0.76340477     0              0              0.4362313      0.0051399202 
      9000   0.69233133     0              0              0.39561791    -0.0098454965 
      9050   0.67398374     0              0              0.38513357     0.0096511264 
      9100   0.70812241     0              0              0.40464138    -0.0060563551 
      9150   0.80154199     0              0              0.45802399    -0.010706312  
      9200   0.75375863     0              0              0.43071922     0.014025059  
      9250   0.82752517     0              0              0.47287153     0.0052034277 
      9300   0.8946838      0              0              0.51124788     0.00072854617
      9350   1.0069598      0              0              0.57540559     0.0059055634 
      9400   1.0395232      0              0              0.59401324    -0.00038020215
      9450   1.1208917      0              0              0.64050955     0.012473169  
      9500   1.0523747     -0.14258612     0              0.45877087     0.009772164  
      9550   0.99065514    -0.10133404     0              0.46475461     0.0064013801 
      9600   1.1551325     -1.42857        0             -0.7684943      0.0032080806 
      9650   1.1023347     -1.4283703      0             -0.7984648     -0.019833644  
      9700   0.98171586    -1.4284484      0             -0.86746786     0.0025478806 
      9750   0.91723388    -1.4285705      0             -0.90443681     0.003810224  
      9800   0.90152151    -1.4285588      0             -0.91340361     0.016532576  
      9850   0.71300713    -1.4285585      0             -1.0211259     -0.00076150571
      9900   0.8578065     -1.4284286      0             -0.93825349     0.021625584  
      9950   0.85522991    -1.4283828      0             -0.93967998     0.00098207365
     10000   0.8728606     -1.4285632      0             -0.92978567    -0.010840754  
     10050   0.89299212    -1.4285712      0             -0.91828999     0.0026587047 
     10100   0.90937781    -1.42839        0             -0.90874549    -0.00017330445
     10150   0.94654378    -1.4285495      0             -0.88766732    -0.01639248   
     10200   0.9741361     -1.4280722      0             -0.87142303     0.0069074516 
     10250   1.0222067     -1.4285714      0             -0.84445331     0.0012723962 
     10300   1.0240036     -1.428569       0             -0.84342412    -0.0027714895 
     10350   0.85140019    -1.4284775      0             -0.94196312     0.024920493  
     10400   0.72305139    -1.5545684      0             -1.1413962      0.015385333  
     10450   0.72701801    -1.5593067      0             -1.1438679      0.0078317418 
     10500   0.72928394    -1.428571       0             -1.0118374     -0.016569772  
     10550   0.74001181    -1.4284284      0             -1.0055645      0.012864601  
     10600   0.68594262    -1.4284163      0             -1.0364491      0.023031751  
     10650   0.73260709    -1.4284776      0             -1.0098449     -0.024298189  
     10700   0.65400561    -1.4285713      0             -1.0548538     -0.0011265856 
     10750   0.68581549    -1.4284862      0             -1.0365917      0.0029549713 
     10800   0.71974617    -1.4285629      0             -1.0172794      0.0022145523 
     10850   0.72793657    -1.4285699      0             -1.0126062      0.0026265174 
     10900   0.72579578    -1.4285524      0             -1.013812       0.0023023945 
     10950   0.66290915    -1.4285404      0             -1.0497351      0.015507019  
     11000   0.75562701    -1.4285617      0             -0.99677487    -0.023001973  
     11050   0.73463926    -1.4285593      0             -1.0087654     -0.012413725  
     11100   0.8673849     -1.4284063      0             -0.93275774    -0.016600205  
     11150   0.79160017    -1.4285335      0             -0.97619057    -0.014503865  
     11200   0.79892139    -1.4284227      0             -0.97189617     0.013419568  
     11250   0.73408637    -1.4284367      0             -1.0089587      0.0036966789 
     11300   0.80517277    -1.428057       0             -0.96795825    -0.025841221  
     11350   0.91111914    -1.4284302      0             -0.90779066     0.0036143441 
     11400   1.0131414     -1.4282016      0             -0.84926364     0.0049035108 
     11450   0.96586039    -1.4283776      0             -0.87645736     0.0185147    
     11500   0.99872749    -1.4285373      0             -0.85783591    -0.0060457974 
     11550   0.96395553    -1.4285361      0             -0.87770438    -0.0012721257 
     11600   0.96642024    -1.4285009      0             -0.87626076    -0.0019782846 
     11650   1.0250947     -1.4285655      0             -0.84279715    -0.0053615223 
     11700   0.99815969    -1.4285123      0             -0.85813535    -0.0087323486 
     11750   0.89402432    -1.4285708      0             -0.91769979    -0.0057211421 
     11800   1.0482082     -1.4285539      0             -0.82957776     0.00042954836
     11850   1.0691054     -1.4285714      0             -0.81765403    -0.012584214  
     11900   0.94061857    -1.428545       0             -0.89104867    -0.0013354242 
     11950   0.98441575    -1.4281698      0             -0.86564647    -0.028807753  
     12000   0.9123813     -1.4282329      0             -0.90687215     0.022205408  
     12050   0.8846433     -1.4285513      0             -0.92304081     0.0031525985 
     12100   0.85107398    -1.4285655      0             -0.94223746     0.023830747  
     12150   0.81852531    -1.4283366      0             -0.96060784     0.013897525  
     12200   0.75068137    -1.4281602      0             -0.99919939     0.016296608  
     12250   0.78334623    -1.4282754      0             -0.980649      -0.0001211807 
     12300   0.6596809     -1.4284478      0             -1.0514873     -0.0020533184 
     12350   0.71570168    -1.4281428      0             -1.0191704     -0.0018824177 
     12400   0.70059351    -1.4285506      0             -1.0282114     -0.011808416  
     12450   0.65697669    -1.4285114      0             -1.0530961      0.030283109  
     12500   0.63929951    -1.4283269      0             -1.0630128     -0.010140008  
     12550   0.59881605    -1.4285254      0             -1.0863448      0.0088703275 
     12600   0.66748329    -1.4285564      0             -1.0471374      0.0057801463 
     12650   0.70493365    -1.4285368      0             -1.0257175      0.01608078   
     12700   0.7143999     -1.4279182      0             -1.0196897     -0.00064224017
     12750   0.62992632    -1.4284512      0             -1.0684933     -0.0019968484 
     12800   0.58858369    -1.4285686      0             -1.092235       0.013280857  
     12850   0.57114213    -1.4284683      0             -1.1021013     -0.0095992986 
     12900   0.56635031    -1.5567703      0             -1.2331416     -0.017953381  
     12950   0.5586829     -1.5518601      0             -1.2326127     -0.001385609  
     13000   0.64002703    -1.4285483      0             -1.0628186      0.019542165  
     13050   0.67063293    -1.4283678      0             -1.045149       0.0099000634 
     13100   0.72959034    -1.428565       0             -1.0116562      0.001663706  
     13150   0.68910207    -1.4285667      0             -1.0347941      0.0011695341 
     13200   0.58938498    -1.4283745      0             -1.0915831     -0.0074390571 
     13250   0.57881132    -1.4284564      0             -1.0977071      0.0059437302 
     13300   0.52253172    -1.4285412      0             -1.1299517      0.0088509884 
     13350   0.51849836    -1.4285599      0             -1.1322751      0.0019144238 
     13400   0.6120417     -1.428544       0             -1.0788059      0.00015899557
     13450   0.61880701    -1.4282717      0             -1.0746677     -0.0013922254 
     13500   0.59675064    -1.4285473      0             -1.0875469     -0.0022026113 
     13550   0.55834272    -1.4285676      0             -1.1095146      0.0042813221 
     13600   0.52327302    -1.4285448      0             -1.1295316      0.0043502018 
     13650   0.59274207    -1.4284279      0             -1.0897181     -0.012488859  
     13700   0.59185769    -1.4285651      0             -1.0903607     -0.00578686   
     13750   0.61680361    -1.4285469      0             -1.0760877     -0.00027284195
     13800   0.64882247    -1.4285094      0             -1.0577537      0.012498831  
     13850   0.77177463    -1.4285571      0             -0.98754304    -9.6611346e-05
     13900   0.81796553    -1.4285601      0             -0.96115126     0.014233192  
     13950   0.53976285    -1.4279812      0             -1.1195453     -0.0055715328 
     14000   0.67577327    -1.4284434      0             -1.0422872      0.0026913316 
     14050   0.70232575    -1.4284721      0             -1.0271431     -0.0060175102 
     14100   0.79482921    -1.4285561      0             -0.97436797     0.015484906  
     14150   0.84788039    -1.428469       0             -0.9439659     -0.0080627708 
     14200   0.82104847    -1.4281576      0             -0.95898709    -0.009361121  
     14250   0.81709933    -1.4284863      0             -0.96157239     0.012440143  
     14300   0.79106412    -1.4282969      0             -0.9762603      0.0016998363 
     14350   0.85433555    -1.4282639      0             -0.94007214    -0.0049811643 
     14400   0.92014365    -1.4285614      0             -0.90276508     0.0050897127 
     14450   0.89279249    -1.4285373      0             -0.91837018    -0.00096414222
     14500   0.96807828    -1.428014       0             -0.87482643    -0.0032816295 
     14550   0.95951596    -1.4279084      0             -0.87961353    -0.015110506  
     14600   0.93894276    -1.4284845      0             -0.89194575    -0.0055653665 
     14650   0.92823745    -1.4285651      0             -0.89814367     0.0068874108 
     14700   0.96147223    -1.4284114      0             -0.87899872     0.006700954  
     14750   0.95656029    -1.4284656      0             -0.88185968    -0.0022647883 
     14800   1.0007921     -1.4285296      0             -0.85664843     0.0074202915 
     14850   0.92694035    -1.4285528      0             -0.89887264     0.0099108387 
     14900   0.78575578    -1.4285417      0             -0.97953842    -0.0030646933 
     14950   0.83545632    -1.4285713      0             -0.95116771     0.011767654  
     15000   0.60143346    -1.4407322      0             -1.0970559      0.014917586  
     15050   0.78651581    -1.4285208      0             -0.97908316     0.0094304786 
     15100   0.67122553    -1.4285671      0             -1.0450097      0.0026573939 
     15150   0.69231863    -1.4285656      0             -1.0329549     -0.0011493989 
     15200   0.7363766     -1.4285355      0             -1.0077489     -0.0025096679 
     15250   0.83399083    -1.4285114      0             -0.95194525     0.00087363421
     15300   0.84600476    -1.4285698      0             -0.94513848     0.0002074012 
     15350   0.81032839    -1.4285532      0             -0.96550844    -0.00095756358
     15400   0.79109448    -1.4284971      0             -0.97644311    -0.00052859335
     15450   0.77815991    -1.4285714      0             -0.98390858    -0.0039018721 
     15500   0.7459509     -1.4284054      0             -1.0021478      0.0024719587 
     15550   0.66207789    -1.4285693      0             -1.0502391     -0.00090207   
     15600   0.63095568    -1.4283836      0             -1.0678375      0.0091040051 
     15650   0.67306104    -1.4285698      0             -1.0439635      0.00063902187
     15700   0.65216424    -1.4285697      0             -1.0559044     -0.0055326345 
     15750   0.6460254     -1.428571       0             -1.0594136     -0.0026723523 
     15800   0.59230433    -1.4285417      0             -1.0900821      0.022944008  
     15850   0.61097229    -1.4285694      0             -1.0794424     -0.003018127  
     15900   0.60007748    -1.4285344      0             -1.085633       0.0059536071 
     15950   0.56436465    -1.4285596      0             -1.1060655     -0.006503908  
     16000   0.61511219    -1.4283534      0             -1.0768607     -0.0029984379 
     16050   0.66811401    -1.4285581      0             -1.0467787     -0.0082573117 
     16100   0.70763951    -1.4285604      0             -1.024195       0.0047456019 
     16150   0.62904617    -1.4283278      0             -1.0688729     -0.013124444  
     16200   0.52711073    -1.428554       0             -1.1273478      0.002858271  
     16250   0.47812351    -1.4285446      0             -1.1553312      0.0013190519 
     16300   0.4928349     -1.4285577      0             -1.1469378      0.00088960034
     16350   0.53916763    -1.4285449      0             -1.1204491     -0.0024313977 
     16400   0.5029097     -1.4285503      0             -1.1411733     -0.0046656734 
     16450   0.44804596    -1.4285335      0             -1.1725073      0.013585926  
     16500   0.44889072    -1.4283409      0             -1.1718319     -0.0070842643 
     16550   0.51960617    -1.4284497      0             -1.1315319      0.0084686281 
     16600   0.50319804    -1.4285411      0             -1.1409993      0.0086704121 
     16650   0.51795989    -1.4285362      0             -1.1325592     -0.00581165   
     16700   0.44963761    -1.4285215      0             -1.1715858     -0.014475298  
     16750   0.49187807    -1.4285296      0             -1.1474564     -0.010875855  
     16800   0.55616288    -1.4285373      0             -1.11073       -0.008573156  
     16850   0.69328688    -1.4285629      0             -1.032399       0.0093755083 
     16900   0.64344198    -1.4285372      0             -1.0608561      0.00236165   
     16950   0.69520202    -1.4283662      0             -1.0311079     -0.018491538  
     17000   0.78040838    -1.4284196      0             -0.9824719      0.0045727864 
     17050   0.77199106    -1.5710884      0             -1.1299506     -0.0042953863 
     17100   0.74874607    -1.5584554      0             -1.1306005     -0.026909754  
     17150   0.72644109    -1.4285395      0             -1.0134303     -0.0043605684 
     17200   0.65874198    -1.4285713      0             -1.0521473     -0.0076184365 
     17250   0.66138127    -1.4283829      0             -1.0504508     -0.0070738337 
     17300   0.6867997     -1.4285638      0             -1.0361068      0.012696511  
     17350   0.72952952    -1.4285695      0             -1.0116955      0.0095200924 
     17400   0.71915403    -1.42853        0             -1.0175848      0.00393805   
     17450   0.63411258    -1.4284885      0             -1.0661385     -0.021849852  
     17500   0.67648407    -1.4285278      0             -1.0419655     -0.00068070942
     17550   0.79318192    -1.4285513      0             -0.97530451    -0.0026287538 
     17600   0.72945347    -1.4285663      0             -1.0117357      0.011633547  
     17650   0.77275433    -1.4285157      0             -0.98694178     0.006351459  
     17700   0.76153734    -1.4285617      0             -0.9933975      0.019246367  
     17750   0.73645598    -1.4285559      0             -1.0077239     -0.01300874   
     17800   0.65172805    -1.4284812      0             -1.0560652     -0.035490021  
     17850   0.69306757    -1.4285688      0             -1.0325302     -0.010256838  
     17900   0.65552617    -1.4285513      0             -1.0539649     -0.0045751597 
     17950   0.79541437    -1.4282196      0             -0.97369711     0.00088931808
     18000   0.91526963    -1.4285699      0             -0.90555872     0.023974266  
     18050   0.92173963    -1.4285076      0             -0.90179929    -0.0077455109 
     18100   0.95693888    -1.4284035      0             -0.88158131     0.0013277123 
     18150   1.0713156     -1.4285654      0             -0.81638505    -0.0027943901 
     18200   1.0060516     -1.4284656      0             -0.85357892     0.020430038  
     18250   0.99868582    -1.428466       0             -0.85778844     0.011111488  
     18300   0.92627221    -1.4285392      0             -0.89924079    -0.0048135112 
     18350   0.89075911    -1.4285635      0             -0.9195583     -0.0057603634 
     18400   0.8641535     -1.4285515      0             -0.93474952     0.035053773  
     18450   0.82152185    -1.4285711      0             -0.95913001     0.028620645  
     18500   0.79008248    -1.428557       0             -0.97708129     0.00046316601
     18550   0.78671869    -1.4285547      0             -0.9790012      0.019871926  
     18600   0.77367407    -1.4284484      0             -0.98634891     0.0071700095 
     18650   0.79691225    -1.4285714      0             -0.97319299     0.00026991391
     18700   0.74793895    -1.4285682      0             -1.0011745      0.010926524  
     18750   0.66245055    -1.4285635      0             -1.0500204     -0.0079756629 
     18800   0.57292341    -1.4282506      0             -1.1008658     -0.0057505467 
     18850   0.62795252    -1.4285699      0             -1.0697399      0.018316743  
     18900   0.63862097    -1.4285708      0             -1.0636445      0.0081404666 
     18950   0.51052939    -1.4285164      0             -1.1367853     -0.00071597714
     19000   0.42586012    -1.4285676      0             -1.1852189      0.013003199  
     19050   0.41390813    -1.4285619      0             -1.192043       0.0091656261 
     19100   0.4931577     -1.4284776      0             -1.1466732      0.0020123967 
     19150   0.37723029    -1.4285412      0             -1.212981      -0.010710925  
     19200   0.41258364    -1.4283348      0             -1.1925728     -0.0044066809 
     19250   0.40587565    -1.4285619      0             -1.196633      -0.0090347195 
     19300   0.42629775    -1.4283552      0             -1.1847564     -0.0084905562 
     19350   0.40412331    -1.4283062      0             -1.1973786     -0.016221546  
     19400   0.40056806    -1.4285689      0             -1.1996729     -0.0065303073 
     19450   0.4847766     -1.428423       0             -1.1514078      0.027266352  
     19500   0.4201738     -1.4285709      0             -1.1884716      0.014126842  
     19550   0.46751798    -1.4285437      0             -1.1613906      0.012327066  
     19600   0.52596457    -1.4284768      0             -1.1279257      0.0035400778 
     19650   0.47579068    -1.4285418      0             -1.1566614     -0.0015323693 
     19700   0.55774556    -1.4285432      0             -1.1098315     -0.013116066  
     19750   0.56641668    -1.428527       0             -1.1048603      0.0079655695 
     19800   0.54095295    -1.4285672      0             -1.1194513     -0.017211361  
     19850   0.50827761    -1.4285697      0             -1.1381253     -0.011522731  
     19900   0.49531472    -1.4285655      0             -1.1455285      0.006635849  
     19950   0.50345334    -1.4285714      0             -1.1408837      0.016330558  
     20000   0.47166297    -1.4285714      0             -1.1590497     -0.0037129041 
     20050   0.52353567    -1.4285621      0             -1.1293989     -0.0020871342 
     20100   0.51577839    -1.4285639      0             -1.1338334      0.0025283215 
     20150   0.49733636    -1.4285589      0             -1.1443667     -0.018942935  
     20200   0.47247988    -1.428526       0             -1.1585375      0.0096468144 
     20250   0.52630459    -1.4285624      0             -1.1278169     -0.011463335  
     20300   0.46494818    -1.4285565      0             -1.1628718     -5.4604387e-05
     20350   0.491685      -1.4285096      0             -1.1475468      0.0043207998 
     20400   0.5319908     -1.4285485      0             -1.1245538      0.014298619  
     20450   0.63926809    -1.4284069      0             -1.0631108     -0.01662748   
     20500   0.62926751    -1.4284829      0             -1.0689014     -0.017638307  
     20550   0.54978197    -1.4283307      0             -1.1141696     -0.0031991826 
     20600   0.56610769    -1.4285674      0             -1.1050773      0.0051268042 
     20650   0.6013103     -1.4285565      0             -1.0849506      0.013698982  
     20700   0.56012371    -1.4284861      0             -1.1084155      0.017874681  
     20750   0.55620978    -1.4284723      0             -1.1106382     -0.0019784488 
     20800   0.55666057    -1.428546       0             -1.1104542     -0.012361932  
     20850   0.49956832    -1.4285686      0             -1.143101       0.003750033  
     20900   0.52601411    -1.4285714      0             -1.1279919      0.0079941804 
     20950   0.62351323    -1.428567       0             -1.0722738      0.0020572197 
     21000   0.58755501    -1.4285701      0             -1.0928243      0.00016341623
     21050   0.54412927    -1.4285633      0             -1.1176323     -0.00048599423
     21100   0.52094214    -1.4285691      0             -1.1308879     -0.020179056  
     21150   0.4550671     -1.4284704      0             -1.1684321     -0.021798068  
     21200   0.54140532    -1.4285516      0             -1.1191771      0.0040158451 
     21250   0.50177137    -1.428546       0             -1.1418195     -0.012248014  
     21300   0.40914296    -1.4285684      0             -1.1947724      0.0040301471 
     21350   0.41019344    -1.4283575      0             -1.1939613     -0.00088173677
     21400   0.40271679    -1.4285714      0             -1.1984475      0.014939457  
     21450   0.3992044     -1.428567       0             -1.2004502      0.00092747147
     21500   0.41617753    -1.4285714      0             -1.1907557      0.019547978  
     21550   0.46725561    -1.4285064      0             -1.1615032      0.0029062281 
     21600   0.46994424    -1.4285567      0             -1.1600171      0.0099913439 
     21650   0.51612709    -1.4283447      0             -1.133415       0.0073338204 
     21700   0.52877125    -1.4285656      0             -1.1264106      0.0010796647 
     21750   0.57576506    -1.4277818      0             -1.0987732     -0.013420638  
     21800   0.63029932    -1.4285676      0             -1.0683966     -0.0060599997 
     21850   0.5958472     -1.4283094      0             -1.0878252     -0.015566452  
     21900   0.60510562    -1.4285702      0             -1.0827956      0.0082548195 
     21950   0.48030623    -1.4285642      0             -1.1541035      0.00037700363
     22000   0.51567859    -1.4285703      0             -1.1338968     -0.0030365586 
     22050   0.53033671    -1.428571       0             -1.1255214     -0.0071170211 
     22100   0.58401334    -1.4285387      0             -1.0948168     -0.0075341935 
     22150   0.62628709    -1.4285707      0             -1.0706924     -0.014090497  
     22200   0.70843643    -1.4285662      0             -1.0237454      0.00099033318
     22250   0.67621429    -1.4285696      0             -1.0421615     -0.012326498  
     22300   0.74238192    -1.4284067      0             -1.0041884      0.0097582847 
     22350   0.78637127    -1.4285301      0             -0.97917511     0.00081823981
     22400   0.92652651    -1.4284577      0             -0.89901398    -0.00051869962
     22450   0.92345281    -1.4285691      0             -0.90088178     0.00046444734
     22500   0.84590367    -1.4285699      0             -0.94519636     0.0074298868 
     22550   0.88231631    -1.4285679      0             -0.92438714     0.0011207466 
     22600   0.89832208    -1.428545       0             -0.9152181      0.0022751093 
     22650   0.85608557    -1.4285704      0             -0.93937863     0.021402138  
     22700   0.81002394    -1.4285019      0             -0.96563104    -0.016373605  
     22750   0.8511826     -1.4285172      0             -0.94212712     0.0027165576 
     22800   0.84995043    -1.4284103      0             -0.94272438     0.000256688  
     22850   0.87977552    -1.4285713      0             -0.92584248    -0.014526523  
     22900   0.86880857    -1.4285702      0             -0.93210814    -0.0094366735 
     22950   0.73809513    -1.4285702      0             -1.0068016      0.0025379851 
     23000   0.75979033    -1.4285266      0             -0.99436074     0.0067147235 
     23050   0.6934339     -1.428453       0             -1.0322051      0.00099128828
     23100   0.62728387    -1.4285689      0             -1.0701209     -0.0062666499 
     23150   0.70517517    -1.4285714      0             -1.0256142      0.010052315  
     23200   0.72544518    -1.4285696      0             -1.0140295      0.012969892  
     23250   0.76572765    -1.4285         0             -0.99094139     0.0029515951 
     23300   0.8453275     -1.4281199      0             -0.94507558    -0.009152282  
     23350   0.94335688    -1.4283892      0             -0.8893281     -0.017040523  
     23400   0.92220381    -1.4284655      0             -0.90149185    -0.012494664  
     23450   0.93959944    -1.4285118      0             -0.89159785    -0.019365228  
     23500   0.89747764    -1.4284119      0             -0.91556754    -0.010635652  
     23550   0.99561332    -1.4284866      0             -0.85956469    -0.020067553  
     23600   0.96384081    -1.4284403      0             -0.87767415    -0.0059639527 
     23650   1.0324054     -1.4285138      0             -0.83856786     0.014942405  
     23700   1.093738      -1.4283681      0             -0.8033749      0.01617554   
     23750   1.1378893     -1.4284435      0             -0.77822104     0.0016444345 
     23800   1.1630653     -1.4285614      0             -0.76395268     0.0005956152 
     23850   1.1034165     -1.4285694      0             -0.79804574    -0.0076663198 
     23900   1.1675596     -1.428553       0             -0.76137609    -0.0072837582 
     23950   1.1819805     -1.4284705      0             -0.75305305    -0.0058723074 
     24000   1.1693255     -1.4283704      0             -0.76018442     0.011234715  
     24050   1.1323987     -1.4285215      0             -0.78143656    -0.012798901  
     24100   1.0588273     -1.4284256      0             -0.82338142    -0.00073544052
     24150   1.179155      -1.4284544      0             -0.75465157    -0.017223461  
     24200   1.183931      -1.4280856      0             -0.75155361    -0.009582662  
     24250   1.235034      -1.4279088      0             -0.72217509    -0.012575099  
     24300   1.1995166     -1.428519       0             -0.74308094    -0.0094543134 
     24350   1.1736422     -1.4285714      0             -0.75791871     0.0046482721 
     24400   1.3304174     -1.4285068      0             -0.66826826    -0.0023082737 
     24450   1.2895756     -1.4285615      0             -0.69166111     0.0059781775 
     24500   1.3010291     -1.4284914      0             -0.68504619    -0.019439491  
     24550   1.2987077     -1.4283475      0             -0.68622887    -0.0072550982 
     24600   1.470997      -1.4285704      0             -0.58800064    -0.01282763   
     24650   1.4115189     -1.4285713      0             -0.62198908     0.027428007  
     24700   1.2432179     -1.4277066      0             -0.71729639    -0.0014562533 
     24750   1.2118075     -1.427809       0             -0.73534758     0.0041812389 
     24800   1.0551486     -1.4285213      0             -0.82557921    -0.0054079408 
     24850   0.99655894    -1.4285694      0             -0.85910717     0.00059634579
     24900   0.86868377    -1.4285465      0             -0.93215573     0.015122017  
     24950   0.90292078    -1.4284952      0             -0.91254048     0.0056057169 
     25000   1.1101703     -1.428564       0             -0.79418101    -0.011321289  
     25050   1.0569619     -1.4281957      0             -0.82421748    -0.024880505  
     25100   1.002177      -1.4278447      0             -0.85517208    -0.039843095  
     25150   1.0491218     -1.4284524      0             -0.82895422    -0.027230079  
     25200   1.1137122     -1.4285609      0             -0.79215389    -0.0077892968 
     25250   1.0717743     -1.4285492      0             -0.8161067      0.025629762  
     25300   1.0611289     -1.4284966      0             -0.82213722    -0.0055803364 
     25350   1.1156565     -1.42857        0             -0.79105201     0.030734556  
     25400   1.0986574     -1.4284955      0             -0.80069126    -0.0041120844 
     25450   1.0423549     -1.4285654      0             -0.83293404    -0.010674649  
     25500   1.0792042     -1.4283557      0             -0.81166758    -0.026353413  
     25550   1.2020062     -1.4285206      0             -0.74165993    -0.0090605552 
     25600   1.0779707     -1.4285602      0             -0.81257696     0.022788121  
     25650   1.0480511     -1.4284572      0             -0.82957085     0.0063711888 
     25700   0.92956518    -1.428561       0             -0.89738088     0.037077967  
     25750   0.90945016    -1.4285711      0             -0.9088853      0.0081657111 
     25800   0.90930416    -1.4285532      0             -0.90895078     0.004963129  
     25850   0.81897314    -1.4285522      0             -0.96056751     0.0091872537 
     25900   0.8884599     -1.4285645      0             -0.92087309     0.028546967  
     25950   0.878479      -1.4283772      0             -0.92638923    -0.0010651176 
     26000   0.87400567    -1.4284559      0             -0.92902409    -0.022189891  
     26050   0.77684476    -1.4285169      0             -0.9846056     -0.0142077    
     26100   0.78924725    -1.428536       0             -0.97753755    -0.019903764  
     26150   0.77802039    -1.4285674      0             -0.98398427     0.0025701573 
     26200   0.82409856    -1.4285179      0             -0.95760445    -0.027288157  
     26250   0.84136567    -1.4285644      0             -0.94778403    -0.025256093  
     26300   0.8172815     -1.428417       0             -0.96139902     0.019303461  
     26350   0.82338581    -1.4285621      0             -0.95805595     0.014587909  
     26400   0.78422176    -1.4285293      0             -0.98040256    -0.020534063  
     26450   0.69056498    -1.4285634      0             -1.0339549     -0.0039216218 
     26500   0.73823975    -1.4283147      0             -1.0064635      0.026535113  
     26550   0.64230854    -1.4284646      0             -1.0614312      0.0055776355 
     26600   0.66353235    -1.428561       0             -1.0493997      0.0069224555 
     26650   0.72943633    -1.4285068      0             -1.011686      -0.027273616  
     26700   0.77687796    -1.4285617      0             -0.98463143     0.030805766  
     26750   0.81754824    -1.4285602      0             -0.96138975     0.010546433  
     26800   0.73929362    -1.4284404      0             -1.0059869      0.027565695  
     26850   0.64075911    -1.4285706      0             -1.0624226     -0.013693521  
     26900   0.66316042    -1.4285702      0             -1.0496214     -0.010707824  
     26950   0.68743426    -1.4285514      0             -1.0357319     -0.01532122   
     27000   0.69850494    -1.4284827      0             -1.0293371     -0.014307573  
     27050   0.59845336    -1.428398       0             -1.0864246      0.0061048936 
     27100   0.63640516    -1.428549       0             -1.0648889      0.0069746931 
     27150   0.61980039    -1.4285654      0             -1.0743938     -0.0012397671 
     27200   0.70642881    -1.4284931      0             -1.0248195      0.0085543291 
     27250   0.71800946    -1.5553536      0             -1.1450624      0.011492375  
     27300   0.6993682     -1.5608473      0             -1.1612084      0.010761195  
     27350   0.6969688     -1.4283696      0             -1.0301017      0.0019634156 
     27400   0.63874507    -1.4285669      0             -1.0635697      0.021475752  
     27450   0.6592602     -1.428542       0             -1.0518219      0.017435     
     27500   0.67422575    -1.5655077      0             -1.1802358      0.0066033201 
     27550   0.65931885    -1.5698902      0             -1.1931366      0.0017070656 
     27600   0.6173692     -1.4285282      0             -1.0757458     -0.0078540952 
     27650   0.65886037    -1.4285286      0             -1.0520369      0.021272565  
     27700   0.62023336    -1.4285677      0             -1.0741487      0.019646141  
     27750   0.65350181    -1.4285709      0             -1.0551413     -0.0054532521 
     27800   0.80376676    -1.428564       0             -0.96926873     0.0031288056 
     27850   0.83783276    -1.4284784      0             -0.94971678    -0.01204452   
     27900   0.91029713    -1.4285329      0             -0.90836313     0.011614428  
     27950   0.89874895    -1.4282024      0             -0.9146316     -0.010970909  
     28000   1.0135205     -1.4282735      0             -0.8491189     -0.040097503  
     28050   1.0615497     -1.4285706      0             -0.82197071    -0.013632333  
     28100   1.2549135     -1.4285528      0             -0.71145937    -0.012771561  
     28150   1.3688757     -1.428551       0             -0.64633627     0.016288062  
     28200   1.3354029     -1.4285633      0             -0.66547593     0.034252968  
     28250   1.3278091     -1.4285709      0             -0.66982278    -0.011489003  
     28300   1.1123206     -1.5066967      0             -0.87108489    -0.0011875713 
     28350   1.1833879     -1.4284377      0             -0.75221599    -0.022569612  
     28400   1.1795739     -1.4283727      0             -0.75433051     0.014721466  
     28450   1.2183678     -1.4285415      0             -0.73233131     0.0067540194 
     28500   1.1419786     -1.4285411      0             -0.77598186    -0.026048883  
     28550   1.1641569     -1.4285707      0             -0.76333816    -0.014265391  
     28600   1.2514069     -1.4283948      0             -0.71330515     0.01349597   
     28650   1.0562302     -1.5710686      0             -0.96750851    -0.0085749345 
     28700   1.0666831     -1.5680028      0             -0.95846963    -0.030363089  
     28750   1.0502178     -1.4282548      0             -0.82813035     0.0094940219 
     28800   1.0226888     -1.4285205      0             -0.84412688     0.0028826662 
     28850   0.94280732    -1.4285477      0             -0.88980063     0.016494143  
     28900   0.9646664     -1.4284725      0             -0.87723453    -0.0094890627 
     28950   0.90976859    -1.4284835      0             -0.90861577    -0.0090454079 
     29000   0.96282245    -1.4284052      0             -0.87822099     0.038448347  
     29050   0.88935531    -1.4285713      0             -0.92036827     0.013599609  
     29100   0.8740366     -1.4285231      0             -0.92907365     0.0039466324 
     29150   0.88296804    -1.4285595      0             -0.92400631    -0.025032526  
     29200   0.80901973    -1.4284446      0             -0.96614765    -0.0055375697 
     29250   0.87606603    -1.4285485      0             -0.92793938     0.033698548  
     29300   0.87111612    -1.428563       0             -0.93078237     0.019657826  
     29350   0.84714591    -1.4284226      0             -0.94433924     0.01566064   
     29400   0.78583775    -1.428569       0             -0.97951887     0.01264566   
     29450   0.74955576    -1.4285265      0             -1.0002089     -0.011117539  
     29500   0.64203585    -1.428571       0             -1.0616934      1.8716735e-05
     29550   0.55264317    -1.4284196      0             -1.1126235      0.01257398   
     29600   0.40592604    -1.428556       0             -1.1965983      0.016396084  
     29650   0.51194594    -1.4285246      0             -1.1359841     -0.012816527  
     29700   0.4776879     -1.4285696      0             -1.1556051      0.002455798  
     29750   0.44634696    -1.4285706      0             -1.1735152     -0.011534514  
     29800   0.39993432    -1.4285679      0             -1.200034      -0.014048715  
     29850   0.38619354    -1.4284915      0             -1.2078095     -0.00025784152
     29900   0.34432385    -1.4285497      0             -1.2317932     -0.011394915  
     29950   0.43830925    -1.4285713      0             -1.1781089     -0.011728542  
     30000   0.45686369    -1.4285672      0             -1.1675023      0.004987981  
     30050   0.40806452    -1.4285696      0             -1.1953898      0.0020737329 
     30100   0.44545593    -1.4285681      0             -1.1740218     -0.010752064  
     30150   0.38601062    -1.4285433      0             -1.2079658     -0.0015722369 
     30200   0.35633438    -1.4284824      0             -1.2248628      0.010720656  
     30250   0.40356568    -1.428337       0             -1.1977281     -0.0031585088 
     30300   0.43082477    -1.4283686      0             -1.182183      -0.01860232   
     30350   0.38158105    -1.4285712      0             -1.2105249      0.0092914683 
     30400   0.42825838    -1.4285644      0             -1.1838453     -0.0071916779 
     30450   0.37554286    -1.4285186      0             -1.2139227      0.0043812841 
     30500   0.37942936    -1.4285669      0             -1.2117501      0.02033688   
     30550   0.33083556    -1.4285031      0             -1.2394542      0.0048099737 
     30600   0.35383701    -1.4284821      0             -1.2262895     -0.0077985949 
     30650   0.43330919    -1.4285706      0             -1.1809653     -0.0060280569 
     30700   0.38158852    -1.4285067      0             -1.2104561     -0.018157411  
     30750   0.34742042    -1.4284994      0             -1.2299735     -0.0004534984 
     30800   0.28422433    -1.4285696      0             -1.2661557      0.00045583971
     30850   0.26560327    -1.4280837      0             -1.2763104     -0.0052417913 
     30900   0.31661643    -1.4284739      0             -1.2475502      0.0050544271 
     30950   0.38505956    -1.4285571      0             -1.2085231      0.016501571  
     31000   0.4362951     -1.4282487      0             -1.1789372     -0.014207132  
     31050   0.44708653    -1.4285618      0             -1.1730838     -0.0076212034 
     31100   0.45622988    -1.4284859      0             -1.1677831      0.0032761798 
     31150   0.45534186    -1.4285598      0             -1.1683645      0.0013430611 
     31200   0.40634992    -1.4285703      0             -1.1963704      0.014175208  
     31250   0.38211524    -1.4285703      0             -1.2102187      0.0045722413 
     31300   0.46896049    -1.4285684      0             -1.160591       0.020308037  
     31350   0.44043549    -1.4285358      0             -1.1768584     -0.011583841  
     31400   0.411678      -1.4285191      0             -1.1932745     -0.023995422  
     31450   0.34058466    -1.4285598      0             -1.23394        0.0012631186 
     31500   0.28000145    -1.4285286      0             -1.2685277     -0.0069277804 
     31550   0.3055432     -1.4285679      0             -1.2539718     -0.017308001  
     31600   0.3144103     -1.4285646      0             -1.2489016      0.019532729  
     31650   0.32513279    -1.4283833      0             -1.2425931     -0.003273766  
     31700   0.26714768    -1.4285689      0             -1.2759131     -0.021474496  
     31750   0.30369483    -1.4283943      0             -1.2548544     -0.0025352753 
     31800   0.40924148    -1.4284269      0             -1.1945746     -0.047197334  
     31850   0.43650174    -1.4284893      0             -1.1790597      0.021607177  
     31900   0.37012314    -1.4285649      0             -1.217066       0.0089184959 
     31950   0.41962505    -1.4285599      0             -1.1887742     -0.0041115951 
     32000   0.43957564    -1.4284788      0             -1.1772927     -0.0068068646 
     32050   0.49283391    -1.4285696      0             -1.1469502     -0.034682524  
     32100   0.51960189    -1.4285574      0             -1.131642      -0.0082400727 
     32150   0.61633279    -1.4284767      0             -1.0762866     -0.0021886447 
     32200   0.62361528    -1.4284567      0             -1.0721051     -0.022157351  
     32250   0.58110469    -1.42852        0             -1.0964601     -0.024475734  
     32300   0.52774378    -1.4284422      0             -1.1268743     -0.010899778  
     32350   0.59724049    -1.4284099      0             -1.0871296     -0.022290972  
     32400   0.57226707    -1.4285508      0             -1.1015411      0.012939729  
     32450   0.61730658    -1.4285545      0             -1.0758079      0.017586024  
     32500   0.5780852     -1.4283944      0             -1.09806       -0.011401702  
     32550   0.50274512    -1.4285686      0             -1.1412857     -0.0080445994 
     32600   0.49195044    -1.4285714      0             -1.1474569      0.03013415   
     32650   0.58458424    -1.4285606      0             -1.0945124      0.012935594  
     32700   0.65819638    -1.4284271      0             -1.0523149      0.019423904  
     32750   0.66390131    -1.4285182      0             -1.049146      -0.00013267452
     32800   0.65578187    -1.4285656      0             -1.0538331     -0.013183728  
     32850   0.61293036    -1.4285712      0             -1.0783253     -0.0012441016 
     32900   0.72567467    -1.4285012      0             -1.0138299     -0.0072683306 
     32950   0.76080526    -1.4284918      0             -0.99374598     0.019909336  
     33000   0.72584308    -1.4285315      0             -1.013764      -0.017482176  
     33050   0.76037237    -1.4284502      0             -0.99395171     0.011430386  
     33100   0.68877492    -1.4285425      0             -1.0349568      0.0056347989 
     33150   0.60838218    -1.4285467      0             -1.0808998     -0.0058438031 
     33200   0.51044689    -1.4285583      0             -1.1368743     -0.0048907158 
     33250   0.62503467    -1.428571       0             -1.0714084     -0.0021971594 
     33300   0.60176306    -1.4284849      0             -1.0846203      0.0063831544 
     33350   0.71037843    -1.4285693      0             -1.0226387      0.010565801  
     33400   0.66791002    -1.4285614      0             -1.0468986      0.014627617  
     33450   0.71004556    -1.4285714      0             -1.022831      -0.010343458  
     33500   0.71159712    -1.4281659      0             -1.021539      -0.0040089666 
     33550   0.679054      -1.428567       0             -1.0405361      0.0013099411 
     33600   0.72105759    -1.4284305      0             -1.0163976      0.0049107395 
     33650   0.77166309    -1.428416       0             -0.98746571     0.0030440488 
     33700   0.70108882    -1.4285714      0             -1.0279492     -0.014864467  
     33750   0.71703096    -1.4284569      0             -1.0187249     -0.0035562689 
     33800   0.71219751    -1.4285645      0             -1.0215945      0.0097212379 
     33850   0.79091113    -1.4285684      0             -0.97661918     0.0012709099 
     33900   0.73471352    -1.4285712      0             -1.0087349      0.0038626023 
     33950   0.71448329    -1.42821        0             -1.0199339     -0.0011904476 
     34000   0.66722355    -1.4283979      0             -1.0471273      0.0032231825 
     34050   0.70128961    -1.4282779      0             -1.027541       0.0078397254 
     34100   0.68857894    -1.4285362      0             -1.0350625     -6.7242908e-05
     34150   0.68272439    -1.4285024      0             -1.0383741     -0.0043073024 
     34200   0.71847744    -1.4284795      0             -1.017921       0.0018500181 
     34250   0.6807318     -1.4285707      0             -1.0395811     -0.0059434694 
     34300   0.77241344    -1.4284848      0             -0.98710568     0.0018095331 
     34350   0.83410422    -1.4284917      0             -0.95186073     0.0023126733 
     34400   0.79536377    -1.42851        0             -0.97401639     0.0069378462 
     34450   0.83889664    -1.4285711      0             -0.94920155    -0.0038131597 
     34500   0.86687825    -1.4285583      0             -0.93319931    -0.0029267057 
     34550   0.97216501    -1.4283675      0             -0.87284465     0.0020170593 
     34600   1.064527      -1.4285213      0             -0.82022011    -0.0041579734 
     34650   1.0636631     -1.4285703      0             -0.82076285    -0.0034203559 
     34700   1.0524044     -1.4277896      0             -0.8264157     -0.01803245   
     34750   0.90637125    -1.4285586      0             -0.91063219    -0.00021465598
     34800   0.77230235    -1.4285039      0             -0.9871883      0.0015844709 
     34850   0.74219157    -1.4285481      0             -1.0044386     -0.0091239296 
     34900   0.79680227    -1.4285652      0             -0.97324962    -0.003704414  
     34950   0.81208028    -1.4284784      0             -0.96443252    -0.0031466343 
     35000   0.88925397    -1.4285656      0             -0.92042045     0.0042388574 
     35050   0.88683279    -1.4285282      0             -0.92176661    -0.01003877   
     35100   0.79969691    -1.4284741      0             -0.97150446     0.023073013  
     35150   0.83457502    -1.428525       0             -0.95162502     0.010448953  
     35200   0.73076085    -1.4285277      0             -1.0109501      0.003531037  
     35250   0.61900248    -1.4285466      0             -1.0748309      0.0085466516 
     35300   0.66394618    -1.4285498      0             -1.0491519      0.0017281279 
     35350   0.61422013    -1.4285648      0             -1.0775819      0.0048683847 
     35400   0.67901467    -1.428546       0             -1.0405377     -0.013730456  
     35450   0.67108388    -1.4285472      0             -1.0450707      0.0063510667 
     35500   0.61575361    -1.4285532      0             -1.076694       0.0073048479 
     35550   0.66035144    -1.4285695      0             -1.0512259      0.01724274   
     35600   0.59953483    -1.4283344      0             -1.0857431      0.039384735  
     35650   0.60706928    -1.4285653      0             -1.0816686     -0.0010210958 
     35700   0.67994767    -1.4285639      0             -1.0400223     -0.0036033955 
     35750   0.64884272    -1.4285342      0             -1.057767       0.019496374  
     35800   0.6111854     -1.4285179      0             -1.0792691     -0.002290918  
     35850   0.60412562    -1.4284846      0             -1.0832699      0.0032030858 
     35900   0.54600349    -1.4285416      0             -1.1165396      0.0098674817 
     35950   0.5490409     -1.5710487      0             -1.257311       0.016590514  
     36000   0.63985671    -1.563682       0             -1.1980496      0.010716483  
     36050   0.58608496    -1.4283443      0             -1.0934386      0.0063851987 
     36100   0.60626644    -1.4285554      0             -1.0821174     -0.018592451  
     36150   0.6381097     -1.4285474      0             -1.0639133     -0.0024327335 
     36200   0.56821702    -1.4284956      0             -1.1038002     -0.0059716279 
     36250   0.50248333    -1.4285467      0             -1.1414134     -0.013340262  
     36300   0.44929332    -1.4284243      0             -1.1716853      0.0027712215 
     36350   0.46033601    -1.4285542      0             -1.165505       0.00040725017
     36400   0.52212888    -1.4285307      0             -1.1301714     -0.0077916097 
     36450   0.41603521    -1.4285708      0             -1.1908364      0.0011057327 
     36500   0.47259382    -1.4284978      0             -1.1584442     -0.010713517  
     36550   0.50558947    -1.4285714      0             -1.1396632     -0.0059698275 
     36600   0.4854437     -1.4284993      0             -1.1511029      0.0069326176 
     36650   0.53876475    -1.4285574      0             -1.1206918     -0.0064055439 
     36700   0.50829436    -1.4285642      0             -1.1381103      0.023328069  
     36750   0.49536338    -1.428549       0             -1.1454842      0.014888603  
     36800   0.42845118    -1.4285372      0             -1.183708       0.026888905  
     36850   0.46452695    -1.4285161      0             -1.1630721     -0.021088     
     36900   0.47865677    -1.4285371      0             -1.155019       0.0022945503 
     36950   0.47862678    -1.4285702      0             -1.1550692      0.017951385  
     37000   0.50546561    -1.4285706      0             -1.1397331     -0.0072918645 
     37050   0.52358777    -1.4284882      0             -1.1292952      0.015190303  
     37100   0.53369543    -1.4282946      0             -1.1233258     -0.022490779  
     37150   0.39444168    -1.4285305      0             -1.2031352     -0.00064464118
     37200   0.48563875    -1.4284952      0             -1.1509873      0.001201142  
     37250   0.48591712    -1.4285356      0             -1.1508687     -0.0015484423 
     37300   0.50827485    -1.428571       0             -1.1381283      0.0031862879 
     37350   0.50848901    -1.4285709      0             -1.1380058     -0.014668468  
     37400   0.44488966    -1.4284773      0             -1.1742546     -0.0077943745 
     37450   0.41373319    -1.4285405      0             -1.1921216      0.0096193874 
     37500   0.53515223    -1.4284251      0             -1.1226238      0.0021883856 
     37550   0.55150945    -1.5676102      0             -1.252462       0.008915071  
     37600   0.50790016    -1.5481145      0             -1.2578858     -0.016399104  
     37650   0.63961731    -1.4281495      0             -1.0626539     -0.018097706  
     37700   0.65722303    -1.4283156      0             -1.0527595      0.0080270036 
     37750   0.71330236    -1.4285057      0             -1.0209044      0.026020026  
     37800   0.59010075    -1.5481606      0             -1.2109601     -0.01712851   
     37850   0.6514355     -1.5703586      0             -1.1981098      0.022762918  
     37900   0.56989328    -1.4282926      0             -1.1026393      0.016881623  
     37950   0.59805319    -1.4285504      0             -1.0868057      0.027311732  
     38000   0.58655076    -1.4285711      0             -1.0933993      0.02453532   
     38050   0.46554833    -1.4285709      0             -1.1625433     -0.017703467  
     38100   0.4680196     -1.4284143      0             -1.1609745      0.0087269139 
     38150   0.53678409    -1.4284414      0             -1.1217076     -0.014698725  
     38200   0.55340768    -1.4284141      0             -1.1121812     -0.0056179519 
     38250   0.59920711    -1.4285213      0             -1.0861172      0.0024305671 
     38300   0.58897955    -1.4285654      0             -1.0920057      0.023881116  
     38350   0.72437496    -1.428484       0             -1.0145554      0.0053680982 
     38400   0.87792985    -1.428571       0             -0.92689685     0.008225984  
     38450   0.88489723    -1.4283985      0             -0.9227429     -0.027244871  
     38500   0.90062643    -1.4284829      0             -0.91383919     0.00034890227
     38550   0.87784237    -1.428469       0             -0.92684476     0.028799067  
     38600   0.94644087    -1.4285557      0             -0.88773239    -0.011214728  
     38650   1.034286      -1.4284529      0             -0.83743235    -0.030400063  
     38700   0.98370736    -1.4285298      0             -0.86641129    -0.0016264737 
     38750   1.0919585     -1.4279861      0             -0.80400979     0.017532911  
     38800   1.1094775     -1.4285237      0             -0.79453655    -0.00500309   
     38850   1.0446019     -1.4282462      0             -0.83133088     0.011222431  
     38900   1.0319314     -1.4280598      0             -0.83838468     0.022892418  
     38950   1.1222601     -1.4284952      0             -0.78720368     0.017235705  
     39000   1.1714754     -1.5470431      0             -0.8776286     -0.0061628119 
     39050   1.260031      -1.4285416      0             -0.70852389     0.0051648729 
     39100   1.244189      -1.428249       0             -0.71728387     0.0060680128 
     39150   1.2941193     -1.428249       0             -0.68875227    -0.015439977  
     39200   1.1987777     -1.4282614      0             -0.74324561    -0.016035536  
     39250   1.2062948     -1.4285684      0             -0.73925707    -0.042201304  
     39300   1.148966      -1.4285405      0             -0.77198846     0.014851647  
     39350   1.024562      -1.4285085      0             -0.84304448     0.033043351  
     39400   1.0928413     -1.4285714      0             -0.8040907      0.0061026691 
     39450   1.0805266     -1.4285627      0             -0.81111892    -0.019159304  
     39500   1.0294107     -1.4283717      0             -0.84013699     0.013205935  
     39550   0.97508648    -1.4281986      0             -0.87100632     0.022967485  
     39600   0.98631547    -1.4285098      0             -0.86490101    -0.026906734  
     39650   1.0112292     -1.4284603      0             -0.85061499    -0.021394733  
     39700   1.1355466     -1.4283549      0             -0.77947112     0.016056858  
     39750   0.87817573    -1.4360396      0             -0.93422486    -0.012999836  
     39800   0.93465386    -1.4285612      0             -0.8944733     -0.0097200586 
     39850   0.8465613     -1.4285711      0             -0.94482183     0.0040064769 
     39900   0.84824739    -1.4285709      0             -0.94385812     0.046814344  
     39950   0.89183785    -1.4285554      0             -0.91893376    -0.012253237  
     40000   0.93609363    -1.428155       0             -0.89324435    -0.019555638  
     40050   1.0307831     -1.4285175      0             -0.83949858     0.0040600933 
     40100   0.93663009    -1.4284525      0             -0.89323532    -0.020650598  
     40150   0.96121403    -1.4285597      0             -0.87929452     0.022146522  
     40200   0.96180682    -1.4285432      0             -0.87893931     0.0057020564 
     40250   1.0490232     -1.4283549      0             -0.82891306    -0.025182219  
     40300   1.16799       -1.428553       0             -0.76113014     0.0093219092 
     40350   1.1721349     -1.4285591      0             -0.7587677      0.036067071  
     40400   1.1393169     -1.4285664      0             -0.77752815     0.0052296998 
     40450   1.0430536     -1.4285689      0             -0.83253831    -0.0010689598 
     40500   1.109285      -1.4285197      0             -0.79464259     0.013730061  
     40550   1.0304653     -1.4285405      0             -0.83970323    -0.04532462   
     40600   1.0846081     -1.4285714      0             -0.80879533     0.01205562   
     40650   1.1589789     -1.4285431      0             -0.76626942    -0.0043097778 
     40700   1.1177284     -1.4285428      0             -0.78984089    -0.048192502  
     40750   1.1793896     -1.4284058      0             -0.75446886     0.01070523   
     40800   1.2154648     -1.4285008      0             -0.73394945    -0.023131     
     40850   1.1357545     -1.4283006      0             -0.77929799     0.0044665174 
     40900   1.1192166     -1.4285123      0             -0.78896002     0.016839712  
     40950   1.1141727     -1.428559       0             -0.79188889     0.0047360862 
     41000   1.0960032     -1.4284978      0             -0.80221027    -0.010929573  
     41050   1.0460937     -1.4285374      0             -0.83076956    -0.0074059018 
     41100   1.0559536     -1.4285707      0             -0.8251686      0.0060973049 
     41150   1.0056127     -1.4285709      0             -0.85393513     0.006403714  
     41200   1.0169086     -1.4283961      0             -0.84730548     0.0011238601 
     41250   1.0561863     -1.5705156      0             -0.96698054    -0.014019737  
     41300   1.2023425     -1.5700215      0             -0.88296864     0.027946008  
     41350   1.3322703     -1.428415       0             -0.66711776    -0.0029416533 
     41400   1.1862727     -1.4285712      0             -0.75070108     0.0028181735 
     41450   1.2555376     -1.4285709      0             -0.71112087     0.0037121729 
     41500   1.2202351     -1.4285713      0             -0.73129415     0.0001615306 
     41550   1.1210908     -1.4285283      0             -0.78790498    -0.00044271154
     41600   1.2307691     -1.4282671      0             -0.72497043     0.0031524803 
     41650   1.1993338     -1.4284958      0             -0.74316222    -0.0054334706 
     41700   1.2987199     -1.4285694      0             -0.68644373    -0.0063015825 
     41750   1.3192759     -1.428564       0             -0.67469203    -0.015217918  
     41800   1.3252946     -1.4284923      0             -0.67118111     0.0082888694 
     41850   1.2990774     -1.4282791      0             -0.68594922     0.029715825  
     41900   1.342704      -1.4285256      0             -0.66126617    -0.01174262   
     41950   1.3040458     -1.4285379      0             -0.68336893    -0.010168951  
     42000   1.2853924     -1.4285136      0             -0.69400367     0.0055839905 
     42050   1.2201213     -1.428429       0             -0.73121681     0.0029257657 
     42100   1.2363958     -1.4284713      0             -0.72195943    -0.013189499  
     42150   1.0707148     -1.4285691      0             -0.81673202    -0.0098761793 
     42200   0.97524757    -1.4283543      0             -0.87106998    -0.0052211907 
     42250   0.89765594    -1.4285632      0             -0.91561695     0.0017086314 
     42300   0.86220391    -1.4285645      0             -0.93587653    -0.0066542639 
     42350   0.83375493    -1.4285679      0             -0.95213654    -0.0033380524 
     42400   0.85099262    -1.4285588      0             -0.94227727    -0.0029817625 
     42450   0.96739764    -1.4285694      0             -0.87577077     0.025407592  
     42500   1.0754929     -1.4283463      0             -0.81377897    -0.010356956  
     42550   1.0548052     -1.4285504      0             -0.82580458     0.001361657  
     42600   1.0415605     -1.4284691      0             -0.83329169    -0.0080636512 
     42650   0.96369305    -1.4284455      0             -0.87776372     0.03775461   
     42700   0.98327654    -1.4281567      0             -0.86628437    -0.0033668922 
     42750   0.82867598    -1.4283428      0             -0.95481364    -0.0022904728 
     42800   0.81876221    -1.4285659      0             -0.96070179    -0.029439173  
     42850   0.83934889    -1.4285713      0             -0.94894334     0.028626591  
     42900   0.85926708    -1.4285241      0             -0.93751435    -0.023107673  
     42950   0.80639315    -1.4285472      0             -0.96775116    -0.0125039    
     43000   0.85351241    -1.4285183      0             -0.94079692     0.013993909  
     43050   0.85510373    -1.4284506      0             -0.93981989     0.0037858615 
     43100   0.78997466    -1.4284986      0             -0.97708447    -0.031034585  
     43150   0.77880435    -1.4285594      0             -0.98352835     0.02072829   
     43200   0.77434357    -1.4282763      0             -0.98579425    -0.0268165    
     43250   0.72330193    -1.4284719      0             -1.0151565     -0.01391254   
     43300   0.68757241    -1.4285034      0             -1.0356049     -0.040660488  
     43350   0.62976266    -1.4285713      0             -1.0687069     -0.020476869  
     43400   0.65135453    -1.4285701      0             -1.0563675     -0.0020125791 
     43450   0.69800102    -1.4285412      0             -1.0296834     -0.047050135  
     43500   0.74296527    -1.4284996      0             -1.003948       0.01880996   
     43550   0.71487342    -1.4285449      0             -1.0200458      0.025040889  
     43600   0.63429445    -1.4283187      0             -1.0658647     -0.011184436  
     43650   0.68385607    -1.4284005      0             -1.0376256      0.028697244  
     43700   0.67810699    -1.4285645      0             -1.0410748      0.012259995  
     43750   0.66056225    -1.4285714      0             -1.0511072      0.012393304  
     43800   0.59832615    -1.4285278      0             -1.0866272     -0.011722754  
     43850   0.6634949     -1.4285516      0             -1.0494117      0.033175935  
     43900   0.80205961    -1.4285654      0             -0.97024558    -0.0015150992 
     43950   0.81166735    -1.4285469      0             -0.96473701     0.033140211  
     44000   0.88672712    -1.4283615      0             -0.92166028    -0.022737668  
     44050   0.85469855    -1.4284575      0             -0.94005829    -0.028244934  
     44100   0.87164146    -1.4282123      0             -0.93013143     0.042800252  
     44150   0.89831673    -1.428571       0             -0.91524717    -0.0093765174 
     44200   0.90051458    -1.428564       0             -0.91398426     0.010591937  
     44250   0.93724071    -1.4285711      0             -0.89300498    -0.0079830609 
     44300   0.87789102    -1.4285496      0             -0.92689761    -0.0078069677 
     44350   0.89874659    -1.4285475      0             -0.91497797     0.013372963  
     44400   0.81243705    -1.4281821      0             -0.96393235    -0.04379355   
     44450   0.85165707    -1.4285352      0             -0.94187401    -0.01331504   
     44500   0.81814408    -1.4285685      0             -0.96105756    -0.005908673  
     44550   0.86863816    -1.4285714      0             -0.93220675    -0.00042782613
     44600   0.86579267    -1.4284754      0             -0.93373677     0.0085373626 
     44650   0.83623227    -1.428538       0             -0.95069095    -0.0099901907 
     44700   0.91121122    -1.4285004      0             -0.90780829     0.010408773  
     44750   0.76856008    -1.428569       0             -0.98939185    -0.017394923  
     44800   0.73842668    -1.4284906      0             -1.0065325     -0.0031823725 
     44850   0.73982882    -1.4283111      0             -1.0055518     -0.0074339317 
     44900   0.73751259    -1.4285334      0             -1.0070977      0.020519887  
     44950   0.87390272    -1.4285407      0             -0.92916776     0.028530238  
     45000   0.80824625    -1.4285666      0             -0.96671157    -0.0081926611 
     45050   0.93000356    -1.4285169      0             -0.89708631    -0.0097237578 
     45100   0.87264099    -1.4284718      0             -0.92981985     0.007814991  
     45150   0.86241275    -1.4285612      0             -0.9357539     -0.018107885  
     45200   0.85917098    -1.4285606      0             -0.9376058     -0.0045278432 
     45250   0.92282361    -1.42857        0             -0.90124219     0.022377581  
     45300   0.91468914    -1.4285643      0             -0.90588475    -0.0017166659 
     45350   0.87446647    -1.4285416      0             -0.92884651     0.0025699518 
     45400   0.84041488    -1.4285648      0             -0.94832769     0.014896685  
     45450   0.8079411     -1.4285556      0             -0.96687499    -0.015838919  
     45500   0.77846304    -1.4285582      0             -0.98372213     0.0022240691 
     45550   0.87063163    -1.4284583      0             -0.9309545      0.011080701  
     45600   0.83281078    -1.4285003      0             -0.95260848     0.0071591533 
     45650   0.83440914    -1.4283944      0             -0.95158913    -0.0008788613 
     45700   0.87619856    -1.4285592      0             -0.92787432     0.0010684188 
     45750   0.93707932    -1.4285477      0             -0.89307379     0.0063999053 
     45800   0.99313306    -1.4284991      0             -0.86099446    -0.015455409  
     45850   0.94883208    -1.4285485      0             -0.8863587      0.0052317324 
     45900   1.0316878     -1.4283451      0             -0.83880922     0.01652181   
     45950   1.000654      -1.4285604      0             -0.85675811     0.0028350713 
     46000   1.0283535     -1.4285699      0             -0.84093934     0.0068633275 
     46050   1.0016919     -1.4285692      0             -0.8561738      0.0016239555 
     46100   1.0277553     -1.4285667      0             -0.84127797     0.0046630374 
     46150   1.0699661     -1.4285622      0             -0.81715305    -0.0054572357 
     46200   1.0448305     -1.4284921      0             -0.83144609     0.014494425  
     46250   1.020755      -1.4285713      0             -0.84528267     0.010694482  
     46300   0.94213985    -1.4284424      0             -0.89007681    -0.0054864662 
     46350   0.93237291    -1.4284351      0             -0.8956506      0.001804812  
     46400   0.92285061    -1.4285077      0             -0.9011645     -0.0022269796 
     46450   1.0411274     -1.4285632      0             -0.83363321     0.0037983483 
     46500   1.0483276     -1.4285197      0             -0.82947539     0.0057194105 
     46550   1.0339119     -1.4285131      0             -0.83770626    -0.0038773957 
     46600   1.0005505     -1.4285139      0             -0.85677077     0.0053458815 
     46650   0.91424799    -1.4285504      0             -0.90612303    -0.016110875  
     46700   0.98579248    -1.4284657      0             -0.86515573    -0.0065040966 
     46750   0.87984904    -1.4285646      0             -0.92579369     4.874637e-07 
     46800   0.8766479     -1.4285556      0             -0.92761396     0.0098825994 
     46850   0.95046751    -1.4285189      0             -0.8853946     -0.0066020284 
     46900   0.95449894    -1.4285696      0             -0.88314164     0.011949393  
     46950   0.98375102    -1.428422       0             -0.86627854     0.0082786376 
     47000   0.86543983    -1.4285463      0             -0.93400928    -0.0058297393 
     47050   0.92130222    -1.4285556      0             -0.90209722    -0.0074593371 
     47100   0.85370295    -1.4282725      0             -0.94044227     0.01215127   
     47150   0.91065885    -1.4285691      0             -0.90819259    -0.012165037  
     47200   0.87037228    -1.4284263      0             -0.93107074     0.012355171  
     47250   0.86853272    -1.4284487      0             -0.93214425    -0.0073329635 
     47300   0.88961889    -1.4284881      0             -0.92013444    -0.025375505  
     47350   0.81422914    -1.4285696      0             -0.96329583     0.0023338764 
     47400   0.77050481    -1.4285476      0             -0.98825916     0.025373466  
     47450   0.7476927     -1.4284306      0             -1.0011776      0.017729341  
     47500   0.70078423    -1.4281862      0             -1.027738      -0.0038059134 
     47550   0.79842589    -1.4282859      0             -0.97204249     0.0087142356 
     47600   0.84558316    -1.4285122      0             -0.94532178     0.012151418  
     47650   0.87771281    -1.4282732      0             -0.92672298    -0.030042239  
     47700   0.92179174    -1.4282629      0             -0.90152474     0.036769006  
     47750   0.92285836    -1.4281604      0             -0.90081273     0.018016294  
     47800   0.91369016    -1.4285588      0             -0.9064501      0.029317311  
     47850   0.79591857    -1.4285712      0             -0.97376056     0.010436567  
     47900   0.70480297    -1.4284809      0             -1.0257364      0.0035064001 
     47950   0.65557941    -1.4285687      0             -1.0539519      0.0070605332 
     48000   0.62852576    -1.4284334      0             -1.0692759     -0.0029084759 
     48050   0.71205423    -1.4285712      0             -1.0216831      0.024840634  
     48100   0.65721914    -1.4285713      0             -1.0530175     -0.046430172  
     48150   0.68862163    -1.4284346      0             -1.0349365     -0.012670538  
     48200   0.84682123    -1.4284147      0             -0.94451688    -0.018084723  
     48250   0.89337152    -1.4285028      0             -0.91800482    -0.015139541  
     48300   0.88979378    -1.4285673      0             -0.92011367    -0.015779736  
     48350   0.89843388    -1.4285457      0             -0.91515487     0.012108158  
     48400   0.91309862    -1.4284168      0             -0.90664616    -0.0018978781 
     48450   0.89526739    -1.4284432      0             -0.91686186     0.027527507  
     48500   0.9101231     -1.4285688      0             -0.90849845    -0.0061005933 
     48550   0.81237126    -1.4285714      0             -0.96435927    -0.012819574  
     48600   0.81756029    -1.4285568      0             -0.96137947    -0.022240324  
     48650   0.7658835     -1.4285191      0             -0.99087141    -0.005701513  
     48700   0.69233868    -1.4284851      0             -1.032863      -0.0035640971 
     48750   0.68496764    -1.4285675      0             -1.0371574     -0.012132784  
     48800   0.69904477    -1.4285407      0             -1.0290866      0.0030928603 
     48850   0.69112769    -1.42848        0             -1.0335498      0.0026688873 
     48900   0.77974461    -1.4285478      0             -0.98297943     0.011221803  
     48950   0.87355492    -1.4285702      0             -0.92939598     0.010102331  
     49000   0.88645142    -1.4285601      0             -0.92201646     0.00088310361
     49050   0.85661943    -1.4285713      0             -0.9390745     -0.057672921  
     49100   0.87905791    -1.42857        0             -0.92625124    -0.0015332352 
     49150   0.8613886     -1.4285303      0             -0.93630822     0.024499019  
     49200   0.93794336    -1.4285424      0             -0.89257481    -0.009643375  
     49250   0.91870152    -1.4282944      0             -0.90332205     0.020397276  
     49300   0.88365055    -1.4285261      0             -0.92358295     0.0055681307 
     49350   0.90370914    -1.4285714      0             -0.9121662      0.0017010381 
     49400   0.86664719    -1.428561       0             -0.933334      -0.0086775627 
     49450   0.85805077    -1.428556       0             -0.93824126     0.01583855   
     49500   0.74400618    -1.4285676      0             -1.0034212      0.016587432  
     49550   0.74141418    -1.4285222      0             -1.0048569      0.0068442688 
     49600   0.83158499    -1.4284242      0             -0.95323279    -0.0056946876 
     49650   0.79786284    -1.4281054      0             -0.97218379    -0.0074638836 
     49700   0.93428579    -1.4285392      0             -0.89466158     0.013586982  
     49750   0.98329495    -1.4284688      0             -0.866586       0.012085416  
     49800   0.9789205     -1.4285668      0             -0.86918369     0.001761668  
     49850   1.1793404     -1.4285579      0             -0.75464912     0.00078830661
     49900   1.1853437     -1.4285368      0             -0.75119753     0.0094912949 
     49950   1.3032063     -1.4285685      0             -0.68387921    -0.0063126879 
     50000   1.3522495     -1.4285714      0             -0.65585735     0.004713716  
     50050   1.3694416     -1.428569       0             -0.64603097    -0.011294965  
     50100   1.370293      -1.428377       0             -0.64535248     0.0023812788 
     50150   1.4908846     -1.4277716      0             -0.57583751    -0.001608339  
     50200   1.5250419     -1.4284756      0             -0.55702313    -4.8648542e-05
     50250   1.38345       -1.4285711      0             -0.63802823     0.0026964645 
     50300   1.3505676     -1.4285298      0             -0.6567769      0.0021462765 
     50350   1.2845448     -1.4284604      0             -0.69443486     0.0020284766 
     50400   1.243466      -1.4285067      0             -0.71795473    -0.0067889722 
     50450   1.1956151     -1.4285254      0             -0.74531679     0.0022341542 
     50500   1.2150539     -1.428536       0             -0.73421949     0.0083912958 
     50550   1.1028189     -1.4284018      0             -0.79821955     0.0081288677 
     50600   1.1430421     -1.4285702      0             -0.77540333    -0.00053298066
     50650   1.1414706     -1.4285604      0             -0.77629149     0.012670259  
     50700   1.0719717     -1.4285504      0             -0.81599521    -0.0075214489 
     50750   1.1250156     -1.4285714      0             -0.78570531     0.0084365394 
     50800   1.1006067     -1.4285683      0             -0.79965021     0.010850545  
     50850   1.0560671     -1.4284836      0             -0.82501669     0.00100881   
     50900   0.99626367    -1.4285688      0             -0.85927525     0.010098211  
     50950   0.98237164    -1.4285712      0             -0.86721598    -0.0039490033 
     51000   0.95791777    -1.4285582      0             -0.88117658    -0.0026039085 
     51050   1.1108772     -1.4281402      0             -0.79335325     0.00086033559
     51100   1.0948109     -1.4283627      0             -0.8027565      0.014705419  
     51150   1.114816      -1.4285179      0             -0.79148014     0.019421806  
     51200   1.253149      -1.4283057      0             -0.71222053    -0.0037733644 
     51250   1.1587673     -1.4281707      0             -0.76601792    -0.0040107741 
     51300   1.3580349     -1.4284655      0             -0.65244562     0.010894048  
     51350   1.3578226     -1.427943       0             -0.65204434     0.0032885174 
     51400   1.2853415     -1.4285569      0             -0.69407604     0.0085780732 
     51450   1.2518565     -1.4282797      0             -0.71293312    -0.015025463  
     51500   1.137377      -1.4284414      0             -0.77851173     0.0033154419 
     51550   1.1667635     -1.4285312      0             -0.76180917    -0.0023009051 
     51600   1.1840204     -1.4281265      0             -0.75154336     0.01916912   
     51650   1.3419491     -1.4284609      0             -0.6616328      0.00018785833
     51700   1.2490308     -1.4285403      0             -0.71480845    -0.004020608  
     51750   1.2937056     -1.4282601      0             -0.6889998      0.014712535  
     51800   1.2193548     -1.4284375      0             -0.7316633     -0.021859642  
     51850   1.1670683     -1.4285673      0             -0.76167111     0.013720823  
     51900   1.107578      -1.4276733      0             -0.79477166    -7.1666899e-05
     51950   1.1285703     -1.4281856      0             -0.78328829    -0.0055747718 
     52000   1.1824134     -1.4282405      0             -0.75257571    -0.0036482127 
     52050   1.2634855     -1.4284129      0             -0.70642118    -0.026172531  
     52100   1.2496767     -1.4284191      0             -0.71431816     0.025086871  
     52150   1.138113      -1.428295       0             -0.77794473     0.0080577855 
     52200   1.0216738     -1.4284287      0             -0.84461508    -0.0063063357 
     52250   1.0270757     -1.4285176      0             -0.84161719     0.017339852  
     52300   1.1202943     -1.4281611      0             -0.7879929      0.02460226   
     52350   1.0834153     -1.4282198      0             -0.80912527     0.012462414  
     52400   0.98882905    -1.4282618      0             -0.86321663     0.017107702  
     52450   0.95810092    -1.4281518      0             -0.88066557     0.012042451  
     52500   1.0220809     -1.4285155      0             -0.8444693      0.035391006  
     52550   0.98645532    -1.4283359      0             -0.86464713     0.03414422   
     52600   0.96079445    -1.4282427      0             -0.87921726    -0.020428002  
     52650   1.0667944     -1.4284774      0             -0.81888055     0.023021915  
     52700   0.98920252    -1.4282986      0             -0.86304005     0.0069677473 
     52750   0.88105721    -1.4284484      0             -0.92498718     0.0079730667 
     52800   0.79795203    -1.4282306      0             -0.97225804    -0.01664357   
     52850   0.85472704    -1.4284962      0             -0.94008076     0.026306791  
     52900   0.89364388    -1.4283146      0             -0.91766098    -0.006947849  
     52950   0.82308106    -1.4285682      0             -0.95823617     0.0013960252 
     53000   0.81895356    -1.4285371      0             -0.9605636     -0.0052643585 
     53050   0.9716233     -1.4285604      0             -0.87334708    -0.013166155  
     53100   0.93635096    -1.428476       0             -0.89341828     0.017485915  
     53150   0.91924356    -1.4285714      0             -0.90328935     0.016010852  
     53200   0.85588736    -1.4285018      0             -0.93942327    -0.00020829859
     53250   0.99100355    -1.4284963      0             -0.86220855    -0.004055936  
     53300   0.93290743    -1.4285653      0             -0.89547533    -0.060293679  
     53350   0.84615162    -1.4285653      0             -0.94505012    -0.01153188   
     53400   0.83487134    -1.4285014      0             -0.95143208     1.7157054e-05
     53450   0.8779586     -1.4284745      0             -0.92678391    -0.022106322  
     53500   0.87352881    -1.4284621      0             -0.92930277    -0.046611406  
     53550   0.92995868    -1.4285072      0             -0.8971022     -0.014266018  
     53600   0.98987264    -1.4285572      0             -0.86291571     0.012025059  
     53650   1.0684852     -1.4285692      0             -0.81800627    -0.0086193016 
     53700   1.1391086     -1.4285542      0             -0.77763497     0.0035121923 
     53750   1.2413572     -1.4285225      0             -0.71917547     0.054304926  
     53800   1.3775617     -1.4285544      0             -0.64137627    -0.0087603606 
     53850   1.3702755     -1.4285184      0             -0.64550385    -0.019139838  
     53900   1.2665307     -1.4285424      0             -0.70481061     0.010967667  
     53950   1.3070668     -1.42857        0             -0.68167467     0.044875072  
     54000   1.3091656     -1.4285032      0             -0.6804086      0.0078081513 
     54050   1.2776176     -1.4285247      0             -0.69845747    -0.023649184  
     54100   1.1537691     -1.4284202      0             -0.76912352     0.022089615  
     54150   1.2889552     -1.4285646      0             -0.69201878    -0.0016249769 
     54200   1.0975242     -1.4285046      0             -0.80134789     0.022451137  
     54250   1.0339443     -1.4284979      0             -0.83767256     0.0074504323 
     54300   1.0313231     -1.4285671      0             -0.83923962    -0.0053122874 
     54350   1.107727      -1.4285508      0             -0.79556395     0.0091916704 
     54400   1.1528008     -1.4285713      0             -0.76982803     0.013674998  
     54450   1.2227074     -1.4285488      0             -0.7298589      0.043181785  
     54500   1.2583197     -1.4281855      0             -0.70914573    -0.026286424  
     54550   1.1983815     -1.4279214      0             -0.74313201    -0.0026864276 
     54600   1.1424826     -1.4285585      0             -0.77571132    -0.0082026061 
     54650   1.0938347     -1.4285593      0             -0.80351093    -0.001901043  
     54700   1.1375793     -1.4284903      0             -0.77844502     0.028321491  
     54750   1.1362885     -1.4285571      0             -0.77924936    -0.0082712329 
     54800   1.2453918     -1.4285706      0             -0.71691815    -0.010676094  
     54850   1.3318919     -1.4285394      0             -0.66745833    -0.01590231   
     54900   1.2755866     -1.4285259      0             -0.69961929    -0.050298208  
     54950   1.2395364     -1.4285574      0             -0.72025092    -0.019420289  
     55000   1.1064545     -1.4283954      0             -0.79613571    -0.017764165  
     55050   1.1785863     -1.4285584      0             -0.75508052     0.00059962434
     55100   1.1562582     -1.4283456      0             -0.76762667    -0.020145982  
     55150   1.1457388     -1.4285191      0             -0.77381119    -0.0061045487 
     55200   1.3020683     -1.4285524      0             -0.68451335     0.007141869  
     55250   1.2951333     -1.4285709      0             -0.68849467     0.022445494  
     55300   1.4220567     -1.4285098      0             -0.61590595    -0.0099864271 
     55350   1.4141687     -1.4284795      0             -0.62038307    -0.0094674062 
     55400   1.3821883     -1.428476       0             -0.6386541      0.016204991  
     55450   1.4775969     -1.4285488      0             -0.58420766     0.0051940819 
     55500   1.3840968     -1.4285455      0             -0.63763306     0.0063136119 
     55550   1.2465103     -1.4282684      0             -0.71597674    -0.0025926674 
     55600   1.264221      -1.4285021      0             -0.70609012     0.0091039689 
     55650   1.2132204     -1.4284995      0             -0.73523067     0.0045277353 
     55700   1.3171886     -1.4285595      0             -0.67588034     0.0062175153 
     55750   1.3761569     -1.4284885      0             -0.64211309     0.007671312  
     55800   1.4157593     -1.4285543      0             -0.61954904    -0.0061358632 
     55850   1.4088997     -1.4285699      0             -0.62348436    -0.00022889065
     55900   1.3290378     -1.4285353      0             -0.66908517    -0.0059647164 
     55950   1.3567559     -1.4285712      0             -0.65328208     0.0075167969 
     56000   1.3146094     -1.4285525      0             -0.67734718    -4.8726635e-05
     56050   1.4313527     -1.4285714      0             -0.61065554     0.010482324  
     56100   1.4425145     -1.4285651      0             -0.60427109     0.020524349  
     56150   1.3952614     -1.4285684      0             -0.6312762      0.004898908  
     56200   1.3792516     -1.4285603      0             -0.64041646    -0.0016802033 
     56250   1.4179113     -1.4285052      0             -0.61827018     0.021880831  
     56300   1.4484168     -1.4284917      0             -0.60082493    -0.01060256   
     56350   1.3416731     -1.42857        0             -0.66189965     0.017933846  
     56400   1.4940661     -1.4285248      0             -0.57477278     0.0025188197 
     56450   1.4987903     -1.4285183      0             -0.57206669    -0.0045761119 
     56500   1.5284096     -1.4285117      0             -0.55513476     0.012656466  
     56550   1.5169335     -1.4285621      0             -0.56174298    -0.016964036  
     56600   1.4470052     -1.4285588      0             -0.60169869     0.024178769  
     56650   1.3994397     -1.4283389      0             -0.62865906    -0.0053312668 
     56700   1.472839      -1.4285653      0             -0.58694305     0.010470686  
     56750   1.5448145     -1.4285219      0             -0.54577074     0.0099984644 
     56800   1.4359259     -1.4284467      0             -0.6079176     -0.006351252  
     56850   1.3879657     -1.4285714      0             -0.63544811    -0.026247688  
     56900   1.3041398     -1.4285679      0             -0.68334515    -0.0075291375 
     56950   1.2158698     -1.4281284      0             -0.73334563    -0.0090630166 
     57000   1.1886054     -1.4285704      0             -0.74936729     0.0093528876 
     57050   1.1354501     -1.4284633      0             -0.77963464    -0.00046749661
     57100   1.0849525     -1.4285698      0             -0.80859691     0.014839027  
     57150   1.015812      -1.4285647      0             -0.84810071     0.029124271  
     57200   0.98177441    -1.4285286      0             -0.86751469    -0.01173375   
     57250   1.0200664     -1.428508       0             -0.84561291    -0.020850868  
     57300   0.98446618    -1.4285449      0             -0.86599277    -0.024611315  
     57350   0.86317336    -1.4285616      0             -0.93531968     0.015851964  
     57400   0.93316722    -1.4285311      0             -0.89529267     0.018558908  
     57450   0.98073154    -1.4285665      0             -0.8681485      0.0079546057 
     57500   0.89661151    -1.4284717      0             -0.91612226     0.0038039373 
     57550   0.85796184    -1.4285623      0             -0.93829835    -0.0029692107 
     57600   0.82549721    -1.4285381      0             -0.95682543     0.0061548678 
     57650   0.68614017    -1.4284559      0             -1.0363758     -0.0079371274 
     57700   0.7657025     -1.4284541      0             -0.99090983     0.0012697667 
     57750   0.77631742    -1.428401       0             -0.98479102     0.0035091433 
     57800   0.78389046    -1.42856        0             -0.98062261    -0.0055316757 
     57850   0.76664716    -1.4285562      0             -0.9904721      0.0031918918 
     57900   0.82615126    -1.4285666      0             -0.95648017     0.017611509  
     57950   0.88318297    -1.4285038      0             -0.92382779     0.012698247  
     58000   0.8388248     -1.4285265      0             -0.94919808    -0.0063622431 
     58050   0.88026601    -1.4285325      0             -0.92552335    -0.0026194396 
     58100   0.88167658    -1.4285712      0             -0.92475602     0.0098511088 
     58150   0.96639815    -1.4285712      0             -0.87634371    -0.0069914154 
     58200   0.93881015    -1.4285714      0             -0.89210841    -0.0043211762 
     58250   0.9412842     -1.4285711      0             -0.89069439     0.007698745  
     58300   0.98028003    -1.4284465      0             -0.86828645     0.00049136071
     58350   0.9422371     -1.4283244      0             -0.88990323     0.004687948  
     58400   0.97724319    -1.4284884      0             -0.87006369    -0.012722877  
     58450   0.93937849    -1.428493       0             -0.89170534    -0.0015658014 
     58500   0.95951854    -1.4285649      0             -0.88026854    -0.00085787721
     58550   1.058183      -1.428558       0             -0.823882      -0.008740167  
     58600   1.0335417     -1.4285671      0             -0.83797181    -0.0019759411 
     58650   1.0648406     -1.4283639      0             -0.81988354    -0.00031201381
     58700   1.1092843     -1.4285065      0             -0.79462977    -0.0074940024 
     58750   1.2124451     -1.4284635      0             -0.73563778     0.013536023  
     58800   1.1670481     -1.428559       0             -0.76167436     0.0018350865 
     58850   1.1909827     -1.4284231      0             -0.74786155     0.013552285  
     58900   1.3125605     -1.5704127      0             -0.82037812    -0.0017188141 
     58950   1.2590399     -1.570718       0             -0.85126659     0.014418551  
     59000   1.4101682     -1.4284832      0             -0.62267278     0.0065552047 
     59050   1.3317897     -1.428571       0             -0.66754832     0.026085385  
     59100   1.3382371     -1.4285637      0             -0.66385684    -0.0055101279 
     59150   1.4426753     -1.4285598      0             -0.60417387    -0.014888338  
     59200   1.4095014     -1.4285648      0             -0.6231354     -0.019276946  
     59250   1.3992475     -1.4283265      0             -0.62875651    -0.014069861  
     59300   1.3813908     -1.4285368      0             -0.63917057     0.016994834  
     59350   1.4243729     -1.4284852      0             -0.61455786    -0.0084106545 
     59400   1.4173172     -1.4284221      0             -0.61852654    -0.017844242  
     59450   1.3541633     -1.4285515      0             -0.65474395     0.0318012    
     59500   1.3164785     -1.4285657      0             -0.67629234     0.016813705  
     59550   1.4757843     -1.4284529      0             -0.58514761     0.012777517  
     59600   1.4311757     -1.4284206      0             -0.61060596    -0.010483957  
     59650   1.3574557     -1.4285454      0             -0.65285637     0.006546301  
     59700   1.4875581     -1.4284212      0             -0.57838796    -0.0017154549 
     59750   1.542776      -1.428571       0             -0.5469847      0.020169121  
     59800   1.6040152     -1.4285517      0             -0.51197155    -0.014375712  
     59850   1.6213217     -1.4285606      0             -0.502091      -0.012696073  
     59900   1.4387495     -1.4967099      0             -0.67456736    -0.015448372  
     59950   1.5290454     -1.4285656      0             -0.55482536     0.015825542  
     60000   1.4999603     -1.4284626      0             -0.57134249    -0.0028060209 
     60050   1.5463579     -1.4285059      0             -0.54487284    -0.013124172  
     60100   1.5357024     -1.4283935      0             -0.55084932    -0.018056773  
     60150   1.6607256     -1.428126       0             -0.47913996    -0.0070397869 
     60200   1.625231      -1.4285693      0             -0.49986582     0.0097156153 
     60250   1.5708967     -1.4285682      0             -0.53091296    -0.0088993479 
     60300   1.5791648     -1.4285642      0             -0.52618426     0.007902675  
     60350   1.4698825     -1.4285613      0             -0.58862849    -0.0061612342 
     60400   1.5318522     -1.4285234      0             -0.55317932    -0.013552024  
     60450   1.5787476     -1.4285714      0             -0.52642986     0.005423905  
     60500   1.467343      -1.5634114      0             -0.7249297     -0.026955313  
     60550   1.3317149     -1.5155108      0             -0.75453089     0.019693931  
     60600   1.4696986     -1.4285618      0             -0.58873402    -0.026806222  
     60650   1.4659844     -1.4285708      0             -0.5908654     -0.015631387  
     60700   1.458068      -1.4285705      0             -0.59538881    -0.0037021144 
     60750   1.3938079     -1.4284504      0             -0.63198879     0.016812264  
     60800   1.3805905     -1.4285493      0             -0.63964046     0.0035101941 
     60850   1.3726856     -1.4285552      0             -0.64416347    -0.0037681052 
     60900   1.3346088     -1.4284138      0             -0.66578021    -0.0050640477 
     60950   1.3149907     -1.4282037      0             -0.67678039    -0.0027555087 
     61000   1.278949      -1.4285674      0             -0.69773939    -0.011838901  
     61050   1.3212711     -1.4285438      0             -0.67353179     0.0089725787 
     61100   1.2835019     -1.4284746      0             -0.69504502    -0.0033686572 
     61150   1.3328876     -1.4285381      0             -0.66688806    -0.0077909531 
     61200   1.419107      -1.4285248      0             -0.61760651     0.013984226  
     61250   1.4112371     -1.4285713      0             -0.62215009    -0.00082491268
     61300   1.4112268     -1.4284464      0             -0.62203109     0.018951774  
     61350   1.4922131     -1.4281242      0             -0.57543101    -0.0046558466 
     61400   1.4087492     -1.4285711      0             -0.62357156    -0.002727692  
     61450   1.2223676     -1.4285433      0             -0.73004749    -0.0089951403 
     61500   1.2536529     -1.4285656      0             -0.7121925      0.0054053993 
     61550   1.1556257     -1.4285679      0             -0.76821038     0.0040369169 
     61600   1.19716       -1.4284603      0             -0.74436886    -0.003387523  
     61650   1.2435666     -1.4285321      0             -0.71792264     0.03099307   
     61700   1.4083565     -1.4279686      0             -0.62319349    -0.0011660284 
     61750   1.3368079     -1.4285714      0             -0.66468117    -0.0026987501 
     61800   1.2414868     -1.4285602      0             -0.71913915     0.00099613635
     61850   1.3345814     -1.4285713      0             -0.66595339     0.0089569823 
     61900   1.3267407     -1.4284661      0             -0.67032858    -0.0042436423 
     61950   1.2570176     -1.4285335      0             -0.71023778     0.0053282515 
     62000   1.2373823     -1.4284982      0             -0.72142252     0.028475567  
     62050   1.2019012     -1.4285655      0             -0.74176481     0.003248978  
     62100   1.2088632     -1.4285464      0             -0.7377674      0.00099814697
     62150   1.1499905     -1.4284428      0             -0.77130537    -0.0051189954 
     62200   1.1888804     -1.4285701      0             -0.74920983     0.0010172985 
     62250   1.1662148     -1.4285694      0             -0.76216093     0.0069064384 
     62300   1.1836857     -1.4285686      0             -0.75217678    -0.0011989495 
     62350   1.3527864     -1.4283147      0             -0.65529395    -0.01093856   
     62400   1.251606      -1.428571       0             -0.71336751     0.014102072  
     62450   1.2104338     -1.4285638      0             -0.73688732    -0.008146845  
     62500   1.1992571     -1.4285706      0             -0.74328083    -0.001617334  
     62550   1.0161722     -1.4285145      0             -0.84784469     0.0067717028 
     62600   0.99388023    -1.4285542      0             -0.86062265    -0.033741648  
     62650   0.91150251    -1.4283001      0             -0.90744154    -0.025585823  
     62700   1.017335      -1.4285573      0             -0.84722298     0.020120953  
     62750   1.0776201     -1.4280656      0             -0.81228267     0.026374956  
     62800   0.96908989    -1.428561       0             -0.87479534     0.0099584257 
     62850   0.96165055    -1.4285207      0             -0.87900614     0.037492193  
     62900   0.94729797    -1.4285477      0             -0.88723461    -0.041326379  
     62950   1.0191063     -1.4285625      0             -0.84621606     0.019266254  
     63000   1.0216656     -1.4285223      0             -0.84471335    -0.0079082623 
     63050   0.96742887    -1.4285494      0             -0.87573286     0.0040311286 
     63100   0.94255494    -1.4285264      0             -0.88992359     0.020220976  
     63150   0.88193734    -1.4285471      0             -0.92458288     0.0087420183 
     63200   0.89051478    -1.4285712      0             -0.91970565     0.01623856   
     63250   0.83785769    -1.4285493      0             -0.94977349    -0.025239462  
     63300   0.79258594    -1.4285235      0             -0.97561722     0.016736377  
     63350   0.86382384    -1.4285711      0             -0.93495747    -0.020292391  
     63400   0.82793061    -1.4285598      0             -0.95545655    -0.0080625878 
     63450   0.93508489    -1.4285684      0             -0.89423416    -0.022631605  
     63500   1.0354402     -1.4285711      0             -0.83689101     0.0066720668 
     63550   1.0634545     -1.4285363      0             -0.82084804    -0.00074002038
     63600   1.0165095     -1.4285647      0             -0.8477022      0.001106915  
     63650   1.1166641     -1.4284532      0             -0.79035947    -0.0080207321 
     63700   1.068966      -1.4285707      0             -0.81773305     0.01867858   
     63750   0.89012205    -1.4285626      0             -0.9199214     -0.017708047  
     63800   0.79068284    -1.4285431      0             -0.97672433     0.0079592629 
     63850   0.75161929    -1.4283705      0             -0.99887372    -0.0016825746 
     63900   0.73901974    -1.4285521      0             -1.0062551      0.0045140706 
     63950   0.70041063    -1.4285113      0             -1.0282767      0.0065945402 
     64000   0.66650668    -1.4285708      0             -1.0477099     -0.0022990568 
     64050   0.71340065    -1.4285555      0             -1.020898       0.020984288  
     64100   0.59668407    -1.4280673      0             -1.0871049     -0.0087601816 
     64150   0.58762398    -1.4285649      0             -1.0927797      0.012357543  
     64200   0.61311115    -1.4285689      0             -1.0782196     -0.00085653335
     64250   0.61097174    -1.4284866      0             -1.0793599      0.0023840283 
     64300   0.54027209    -1.4285684      0             -1.1198415      0.0045743263 
     64350   0.5245592     -1.4285695      0             -1.1288214     -0.0017130906 
     64400   0.62892485    -1.4282845      0             -1.0688989     -0.0026615509 
     64450   0.62624405    -1.4285566      0             -1.0707029     -0.0004572871 
     64500   0.63732792    -1.4285696      0             -1.0643822      0.0058596269 
     64550   0.54512435    -1.428516       0             -1.1170164      0.0063992161 
     64600   0.59556629    -1.4285603      0             -1.0882367      0.0041523755 
     64650   0.59921423    -1.4285707      0             -1.0861625      0.013665896  
     64700   0.51388533    -1.4284331      0             -1.1347843      0.0031150045 
     64750   0.54643574    -1.4285661      0             -1.1163171      0.02162799   
     64800   0.51521766    -1.4285658      0             -1.1341557     -0.0074477054 
     64850   0.55087914    -1.4285702      0             -1.1137821     -0.0055912417 
     64900   0.53512589    -1.4283862      0             -1.1226        -0.010961317  
     64950   0.53414464    -1.4285705      0             -1.123345       0.012697672  
     65000   0.46300008    -1.4285297      0             -1.1639582     -0.0079956719 
     65050   0.50484313    -1.4285714      0             -1.1400896     -0.011494279  
     65100   0.55443015    -1.4285711      0             -1.1117539      0.00084335022
     65150   0.46123403    -1.4285333      0             -1.164971      -0.0060992426 
     65200   0.50847358    -1.4285142      0             -1.1379579      0.0057852169 
     65250   0.52690544    -1.4285642      0             -1.1274754     -0.013418993  
     65300   0.54732841    -1.4283997      0             -1.1156406     -0.0041857969 
     65350   0.66454896    -1.4285449      0             -1.0488026      0.0081858966 
     65400   0.62019234    -1.4284064      0             -1.0740108     -0.0015697119 
     65450   0.54664957    -1.4285392      0             -1.116168       0.0028636169 
     65500   0.54721812    -1.4285598      0             -1.1158637      0.0011624754 
     65550   0.63470753    -1.4285565      0             -1.0658665      0.007036314  
     65600   0.66387438    -1.4285064      0             -1.0491496     -0.00074948499
     65650   0.7686797     -1.4285657      0             -0.98932018    -0.00036485936
     65700   0.7059792     -1.4285641      0             -1.0251474     -0.0085151325 
     65750   0.67293607    -1.4285713      0             -1.0440364      0.0036057531 
     65800   0.71396457    -1.4285707      0             -1.020591       0.0049317072 
     65850   0.79330595    -1.4280341      0             -0.9747164     -0.011884878  
     65900   0.73610854    -1.4279528      0             -1.0073194     -0.0015233331 
     65950   0.7875868     -1.4284599      0             -0.97841026    -0.009580628  
     66000   0.63086177    -1.4285712      0             -1.0680788      0.0002725558 
     66050   0.62246347    -1.4285658      0             -1.0728724      0.0016179152 
     66100   0.67187403    -1.4285713      0             -1.0446433      0.0011722506 
     66150   0.7169912     -1.4285572      0             -1.0188479      0.007812416  
     66200   0.67031882    -1.4285019      0             -1.0454625      0.00022422226
     66250   0.7750021     -1.4285257      0             -0.98566739    -0.0065066994 
     66300   0.7364152     -1.5585166      0             -1.1377079      0.0061906313 
     66350   0.86286247    -1.4285616      0             -0.93549729     0.0050476449 
     66400   0.83957978    -1.4285511      0             -0.94879128    -0.0031366392 
     66450   0.83773601    -1.4285692      0             -0.94986296     0.0037952422 
     66500   0.89632909    -1.4282783      0             -0.91609028    -0.016788631  
     66550   0.7797313     -1.4285625      0             -0.98300179     0.0047767956 
     66600   0.78501903    -1.4284851      0             -0.97990279    -0.0064542795 
     66650   0.78964855    -1.4285545      0             -0.97732675    -0.0033321735 
     66700   0.76185317    -1.4284765      0             -0.99313187    -0.0060459972 
     66750   0.72965549    -1.4285368      0             -1.0115908     -0.012251401  
     66800   0.65998906    -1.4285713      0             -1.0514347      0.0075639224 
     66850   0.71280503    -1.4285302      0             -1.021213       0.0052635683 
     66900   0.6147092     -1.4283711      0             -1.0771087     -0.0089085199 
     66950   0.55238104    -1.4285597      0             -1.1129134      0.0031366886 
     67000   0.59081612    -1.4285159      0             -1.0909067      0.0025596642 
     67050   0.65833478    -1.4285547      0             -1.0523634     -0.012602822  
     67100   0.63539666    -1.4285443      0             -1.0654605     -0.019578152  
     67150   0.61937865    -1.4285698      0             -1.0746392      0.012882146  
     67200   0.64134254    -1.4285318      0             -1.0620503     -0.0079812801 
     67250   0.62451454    -1.4284874      0             -1.071622       0.0084752347 
     67300   0.66348369    -1.4285678      0             -1.0494343     -0.019530006  
     67350   0.6263236     -1.4285454      0             -1.0706462      0.017463445  
     67400   0.63985543    -1.4285691      0             -1.0629374     -0.017315273  
     67450   0.60288832    -1.4284439      0             -1.0839363     -0.027929301  
     67500   0.65311768    -1.4285692      0             -1.0553591      0.0089534222 
     67550   0.6225175     -1.4285614      0             -1.0728371      0.014975977  
     67600   0.5030318     -1.4285244      0             -1.1410777     -0.0095233375 
     67650   0.510571      -1.4285516      0             -1.1367968     -0.013012855  
     67700   0.50550691    -1.4285642      0             -1.1397032      0.012950051  
     67750   0.5424065     -1.4284426      0             -1.118496      -0.02363776   
     67800   0.56074072    -1.4285544      0             -1.1081311      0.020697224  
     67850   0.58559329    -1.4285714      0             -1.0939467     -0.024790857  
     67900   0.59619881    -1.4285681      0             -1.0878831      0.00096413723
     67950   0.61955884    -1.4285568      0             -1.0745232      0.0037886227 
     68000   0.63302271    -1.4281612      0             -1.066434       0.0026671381 
     68050   0.54146285    -1.4285709      0             -1.1191636      0.005381842  
     68100   0.54629347    -1.4285714      0             -1.1164037     -0.010917153  
     68150   0.52720431    -1.428351       0             -1.1270914     -0.025094678  
     68200   0.51158199    -1.4283818      0             -1.1360492     -0.00076348692
     68250   0.58612834    -1.4285714      0             -1.0936409      0.0066463999 
     68300   0.60657021    -1.4285714      0             -1.0819599     -0.0059625643 
     68350   0.59568055    -1.4285694      0             -1.0881806     -0.0056121778 
     68400   0.60638049    -1.4285243      0             -1.0820212      0.010752343  
     68450   0.58852098    -1.4285582      0             -1.0922605     -0.019044212  
     68500   0.61765308    -1.4285687      0             -1.0756241      0.015193586  
     68550   0.59755213    -1.4285657      0             -1.0871073      0.016539376  
     68600   0.47257915    -1.4285623      0             -1.1585171      0.0037431349 
     68650   0.52631233    -1.4285495      0             -1.1277996      0.0056382255 
     68700   0.64725605    -1.4285656      0             -1.058705       0.014722784  
     68750   0.76256288    -1.4285675      0             -0.99281733     0.0097502439 
     68800   0.87702484    -1.4285589      0             -0.92740182    -0.0032065583 
     68850   0.95458632    -1.4285642      0             -0.8830863      0.024961207  
     68900   0.84274259    -1.4285556      0             -0.9469884      0.0029148603 
     68950   0.92454975    -1.4284418      0             -0.90012765    -0.025055898  
     69000   0.88691257    -1.4285612      0             -0.92175398     0.018709914  
     69050   0.95393781    -1.4285699      0             -0.88346254    -0.0058485076 
     69100   0.88465127    -1.4285676      0             -0.92305257    -0.0089028619 
     69150   0.84122384    -1.428439       0             -0.94773971    -0.0068623768 
     69200   0.8667335     -1.4284692      0             -0.93319292    -0.0029631819 
     69250   0.91830552    -1.4285689      0             -0.90382285    -0.017402006  
     69300   0.81302851    -1.4285575      0             -0.96396977     0.027125942  
     69350   0.83082638    -1.4285677      0             -0.95380978    -0.041431353  
     69400   0.88581652    -1.4285694      0             -0.92238855    -0.013774198  
     69450   0.97230894    -1.4285697      0             -0.87296461     0.01087558   
     69500   1.0005303     -1.4285709      0             -0.85683934    -0.012568086  
     69550   0.99601529    -1.4285704      0             -0.8594188      0.013641792  
     69600   0.88139761    -1.4285556      0             -0.9248998      0.0090415591 
     69650   0.87713739    -1.4285119      0             -0.92729054     0.00069685192
     69700   0.95751818    -1.4285547      0             -0.88140145    -0.0099378008 
     69750   0.96520107    -1.4285712      0             -0.87702777    -0.036191092  
     69800   1.0183082     -1.428506       0             -0.84661562     0.0070185095 
     69850   0.94430343    -1.4285421      0             -0.88894015    -0.0048584816 
     69900   0.89911906    -1.4285013      0             -0.91471901    -0.0011520628 
     69950   0.9222315     -1.4285525      0             -0.90156306     0.01003875   
     70000   0.88997126    -1.4285442      0             -0.91998919    -0.026383575  
     70050   0.85276731    -1.4285385      0             -0.94124285     0.010222336  
     70100   0.86606906    -1.4285399      0             -0.93364333     0.004510795  
     70150   0.84495689    -1.4283987      0             -0.94556619    -0.01021021   
     70200   0.90133313    -1.4285546      0             -0.91350709     0.015361415  
     70250   0.97610346    -1.428563       0             -0.87078961    -0.001853498  
     70300   1.0503427     -1.4284827      0             -0.82828691     0.015302867  
     70350   1.2411914     -1.4284131      0             -0.71916084    -0.0064703206 
     70400   1.1911435     -1.428557       0             -0.74790361    -0.018624697  
     70450   1.1136106     -1.4285714      0             -0.79222251    -0.021257715  
     70500   1.2600569     -1.4285681      0             -0.7085356      0.0062308384 
     70550   1.2593074     -1.4284195      0             -0.70881532     0.0069071744 
     70600   1.2568173     -1.4283868      0             -0.71020551     0.013370454  
     70650   1.1116177     -1.4284521      0             -0.79324193    -0.024537064  
     70700   1.181859      -1.428326       0             -0.75297804     0.0015325721 
     70750   1.0837978     -1.428565       0             -0.80925191     0.0036295413 
     70800   1.1022889     -1.4280428      0             -0.79816341    -0.0072480447 
     70850   0.94656791    -1.4285657      0             -0.88766979     0.023338463  
     70900   0.83671313    -1.4284435      0             -0.95032171    -0.0012052641 
     70950   0.85017022    -1.428559       0             -0.94274749     0.0020692721 
     71000   0.90073475    -1.4285635      0             -0.91385793     0.017166644  
     71050   0.96895572    -1.4285568      0             -0.87486783     0.0019544181 
     71100   0.92580854    -1.4285685      0             -0.89953509     0.0064106905 
     71150   0.96732222    -1.4284441      0             -0.87568858     0.0023419241 
     71200   0.99658746    -1.4284137      0             -0.85893513     0.014046795  
     71250   0.92386714    -1.4284688      0             -0.90054471     0.025281075  
     71300   0.89421621    -1.4280728      0             -0.91709213     0.013349006  
     71350   0.8809901     -1.4284318      0             -0.9250089      0.01140445   
     71400   0.82306686    -1.4285699      0             -0.95824595     0.020103606  
     71450   0.87468807    -1.5686054      0             -1.0687836      0.016654152  
     71500   0.81508726    -1.5682046      0             -1.1024404      0.0016668888 
     71550   0.78968626    -1.4285631      0             -0.97731379     0.025549028  
     71600   0.86070959    -1.4285138      0             -0.93667976    -0.0014728216 
     71650   0.80976543    -1.4285658      0             -0.96584272     0.0061666476 
     71700   1.0318308     -1.4285708      0             -0.83895318     0.023824437  
     71750   0.92143125    -1.4284415      0             -0.90190931     0.025200179  
     71800   0.91963158    -1.4285288      0             -0.90302507    -0.00012759977
     71850   0.77630364    -1.4285714      0             -0.98496932     0.01362607   
     71900   0.80212229    -1.428569       0             -0.97021338     0.0051591651 
     71950   0.80107828    -1.4283777      0             -0.97061867    -0.030218307  
     72000   0.79798044    -1.4284211      0             -0.97243229    -0.019459988  
     72050   0.81425004    -1.4285524      0             -0.96326669    -0.016530756  
     72100   0.82054943    -1.4285618      0             -0.95967644    -0.013103438  
     72150   0.85622826    -1.428341       0             -0.93906767     0.00057825871
     72200   0.77393695    -1.4284864      0             -0.98623676     0.025278207  
     72250   0.87687042    -1.4284869      0             -0.92741812    -0.0055035248 
     72300   0.90228215    -1.4284806      0             -0.91289077    -0.023041466  
     72350   0.80729864    -1.4285689      0             -0.96725535    -0.0084204304 
     72400   0.80240144    -1.4285011      0             -0.96998596     0.028657885  
     72450   0.81438768    -1.4285594      0             -0.96319498     0.0074135003 
     72500   0.87381608    -1.4285685      0             -0.92924499     0.0070648666 
     72550   0.84059898    -1.5647773      0             -1.0844351      0.0040108947 
     72600   0.91748422    -1.4285622      0             -0.90428548     0.0090384825 
     72650   1.0166763     -1.4285559      0             -0.847598       0.027391638  
     72700   0.91609294    -1.428559       0             -0.9050773      0.0059259687 
     72750   0.90454729    -1.4285403      0             -0.91165616    -0.0046358187 
     72800   1.0711059     -1.428564       0             -0.8165035     -0.01152898   
     72850   0.96148155    -1.4285714      0             -0.8791534      0.03850448   
     72900   1.0197232     -1.4285693      0             -0.84587035     0.0058385988 
     72950   1.0608773     -1.4283752      0             -0.82215958    -0.001515542  
     73000   1.1679679     -1.4285468      0             -0.7611365     -0.0059392668 
     73050   1.1969937     -1.4285674      0             -0.74457096    -0.025405722  
     73100   1.1030439     -1.4285154      0             -0.7982046     -0.019908537  
     73150   1.0795749     -1.4285483      0             -0.81164835    -0.0097261771 
     73200   1.1152865     -1.4285692      0             -0.7912626      0.0030298841 
     73250   1.1087281     -1.4285595      0             -0.7950006     -0.0093278244 
     73300   1.1153043     -1.4285462      0             -0.7912295      0.010847203  
     73350   1.1214794     -1.4285714      0             -0.78772607    -0.0049702582 
     73400   1.1818048     -1.4285599      0             -0.75324292     0.022070519  
     73450   1.2176828     -1.5635074      0             -0.86768868     0.006598673  
     73500   1.1207066     -1.5707386      0             -0.93033487     0.014167228  
     73550   1.1416418     -1.4285382      0             -0.77617147    -0.0074022249 
     73600   1.309983      -1.4285582      0             -0.67999651    -0.0019219978 
     73650   1.4430427     -1.4285239      0             -0.60392803     0.0050837926 
     73700   1.5082686     -1.4285488      0             -0.56668101    -0.0083900181 
     73750   1.4382528     -1.4285676      0             -0.60670886    -0.015916514  
     73800   1.5088842     -1.4284754      0             -0.5662559      0.012739612  
     73850   1.540456      -1.4285663      0             -0.5483057      0.00015009466
     73900   1.5911539     -1.4284928      0             -0.51926196     0.0086722639 
     73950   1.5722515     -1.428571       0             -0.53014152    -0.0074703627 
     74000   1.5155341     -1.4285714      0             -0.56255188     0.0029795943 
     74050   1.4418009     -1.4285713      0             -0.60468507    -0.0054051908 
     74100   1.6446935     -1.4285482      0             -0.48872342     0.034291009  
     74150   1.7188369     -1.4285026      0             -0.4463101      0.021212013  
     74200   1.6781347     -1.428512       0             -0.46957786    -0.0077428913 
     74250   1.7763828     -1.4279559      0             -0.41288       -0.011159816  
     74300   1.8324533     -1.4284555      0             -0.3813393     -0.0004077602 
     74350   1.9157331     -1.4285688      0             -0.33386418     0.013258775  
     74400   2.0452125     -1.4285714      0             -0.25987853     0.0098310983 
     74450   1.9450428     -1.4285517      0             -0.31709871     0.0093401468 
     74500   1.8692159     -1.4285711      0             -0.36044776     0.0020990467 
     74550   1.7466513     -1.5525405      0             -0.55445407     0.0023290732 
     74600   1.751246      -1.5711693      0             -0.57045734     0.016714647  
     74650   1.6475209     -1.4285666      0             -0.48712606     0.0077290813 
     74700   1.7100172     -1.4285714      0             -0.45141874     0.025046014  
     74750   1.7430417     -1.4285614      0             -0.43253763    -0.010678081  
     74800   1.7706536     -1.4285689      0             -0.41676684     0.01332084   
     74850   1.650072      -1.4285712      0             -0.48567297    -0.00040402693
     74900   1.6448577     -1.4285679      0             -0.48864923     0.017960979  
     74950   1.5424797     -1.4282374      0             -0.54682049     0.0052938161 
     75000   1.3887923     -1.428288       0             -0.63469235    -0.011793074  
     75050   1.4852928     -1.4284907      0             -0.57975198     0.012027447  
     75100   1.3906107     -1.4285645      0             -0.63392983     0.0042355557 
     75150   1.4048854     -1.4285711      0             -0.62577945    -0.0027650147 
     75200   1.3808898     -1.4285199      0             -0.63944002     0.013947149  
     75250   1.361556      -1.4285584      0             -0.65052638     0.0090005397 
     75300   1.1682472     -1.4285642      0             -0.76099442     0.0095037446 
     75350   1.1559884     -1.4283772      0             -0.7678124     -0.0061849422 
     75400   1.1777192     -1.428564       0             -0.75558161     0.012068577  
     75450   1.2181774     -1.4285714      0             -0.73247006     0.023183184  
     75500   1.0792452     -1.4285682      0             -0.81185668     0.0047757323 
     75550   1.0828807     -1.4283947      0             -0.80960571    -0.020075308  
     75600   1.0533894     -1.4285622      0             -0.82662544     0.0082498897 
     75650   1.1177532     -1.4285546      0             -0.78983845    -0.011961214  
     75700   1.1261406     -1.4285513      0             -0.78504239    -0.012659952  
     75750   1.1424895     -1.4285123      0             -0.77566117    -0.00045913641
     75800   1.0134785     -1.4285621      0             -0.84943158     0.014197257  
     75850   1.0607618     -1.42849        0             -0.82234045    -0.0017099368 
     75900   1.0599245     -1.4285713      0             -0.82290013     0.031392972  
     75950   1.1134365     -1.4285252      0             -0.79227577    -0.011572565  
     76000   0.89968154    -1.4285463      0             -0.91444257    -0.020486044  
     76050   0.89722375    -1.4282726      0             -0.91557335     0.0080100216 
     76100   0.8928519     -1.4285345      0             -0.91833346    -0.0019004135 
     76150   0.85265914    -1.4284876      0             -0.94125384    -0.0084079531 
     76200   0.88730198    -1.4285468      0             -0.92151705     0.0026034952 
     76250   0.90597218    -1.4284293      0             -0.91073091    -0.020907503  
     76300   0.96259409    -1.4285672      0             -0.87851344     0.011423054  
     76350   0.93700336    -1.4285595      0             -0.893129       0.00012236703
     76400   0.99020389    -1.4285575      0             -0.86272669     0.012889081  
     76450   1.0012855     -1.4285692      0             -0.85640608     0.045401609  
     76500   0.88271926    -1.4285693      0             -0.92415834    -0.0017081305 
     76550   0.96300366    -1.4285347      0             -0.8782469      0.010741685  
     76600   0.95305879    -1.4284988      0             -0.88389378     0.0086792521 
     76650   0.97467911    -1.4285329      0             -0.87157339    -0.014373323  
     76700   0.94009834    -1.4284492      0             -0.89125012    -0.015182239  
     76750   0.86513981    -1.4285062      0             -0.93414056     0.0093754937 
     76800   0.97299926    -1.428288       0             -0.87228837    -0.0096555278 
     76850   1.0227448     -1.4285652      0             -0.84413965    -0.004028877  
     76900   0.92524245    -1.4284104      0             -0.89970041     0.0059649156 
     76950   0.91247004    -1.4285612      0             -0.90714973    -0.0053973541 
     77000   0.90688673    -1.4284732      0             -0.9102522      0.0094327689 
     77050   0.84454077    -1.5276893      0             -1.0450946      0.0128528    
     77100   0.90992496    -1.5424779      0             -1.0225208      0.029601534  
     77150   0.99271037    -1.4285686      0             -0.86130549    -0.0090946101 
     77200   0.96750845    -1.4285632      0             -0.87570123     0.006363453  
     77250   0.9554766     -1.4285533      0             -0.88256671    -0.0022605454 
     77300   0.91942669    -1.428571       0             -0.90318428     0.0061574823 
     77350   0.95440214    -1.4285713      0             -0.88319863     0.023461295  
     77400   0.9331714     -1.4284705      0             -0.89522968     0.0027316941 
     77450   0.9996077     -1.4285714      0             -0.85736698     0.0082120115 
     77500   0.90783751    -1.4285636      0             -0.90979933     0.004448032  
     77550   0.96736016    -1.4285643      0             -0.87578706    -0.011748167  
     77600   1.0048744     -1.428124       0             -0.85391009    -0.013426605  
     77650   1.045301      -1.4285238      0             -0.8312089     -0.0055439484 
     77700   1.1513037     -1.4285584      0             -0.77067057    -0.016599499  
     77750   1.21203       -1.4284853      0             -0.73589669     0.013599558  
     77800   1.1619515     -1.4285554      0             -0.7645831     -0.00056621537
     77850   1.2305938     -1.428519       0             -0.72532261     0.026114368  
     77900   1.1778483     -1.4284742      0             -0.75541804    -0.023260232  
     77950   1.120623      -1.5712149      0             -0.93085886     0.020121582  
     78000   1.0019652     -1.5267956      0             -0.95424408    -0.0041374255 
     78050   1.1074464     -1.4280504      0             -0.79522385     0.0052573206 
     78100   1.1602324     -1.4280779      0             -0.76508802    -0.014835068  
     78150   1.0844282     -1.4285288      0             -0.8088555      0.027895265  
     78200   1.1310215     -1.4284291      0             -0.78213105    -0.024510265  
     78250   1.2179267     -1.4284812      0             -0.73252306    -0.029797013  
     78300   1.2422656     -1.428564       0             -0.71869795     0.012529277  
     78350   1.1268208     -1.4285444      0             -0.78464685     0.020534534  
     78400   1.2639078     -1.4285286      0             -0.70629559     0.0082629465 
     78450   1.3823152     -1.4285707      0             -0.63867636     0.0074480739 
     78500   1.2914033     -1.4285496      0             -0.69060492     0.0050183072 
     78550   1.2304948     -1.4283878      0             -0.72524794    -0.0042382225 
     78600   1.1471432     -1.4283985      0             -0.77288807    -0.019999716  
     78650   1.1895041     -1.4285712      0             -0.74885454     0.0036774472 
     78700   0.94696556    -1.428478       0             -0.88735478    -7.5116458e-05
     78750   0.92257191    -1.4285274      0             -0.90134341     0.016184291  
     78800   0.94340149    -1.4285714      0             -0.88948482    -0.01424388   
     78850   1.0680088     -1.4285481      0             -0.81825734     0.022896969  
     78900   1.0333379     -1.4285518      0             -0.83807298    -0.011726782  
     78950   1.0613755     -1.4285168      0             -0.82201653     0.00021405272
     79000   1.030831      -1.4285583      0             -0.83951197     0.0044298936 
     79050   1.0371187     -1.4285326      0             -0.83589334     0.0095141752 
     79100   1.0220405     -1.4285684      0             -0.84454523    -0.011552768  
     79150   0.97240189    -1.4285363      0             -0.87287807    -0.012507424  
     79200   0.9416788     -1.428509       0             -0.89040684    -0.0096394528 
     79250   0.99413355    -1.4285575      0             -0.86048118     0.011801113  
     79300   1.0181709     -1.4283879      0             -0.84657598     0.037092923  
     79350   1.1470185     -1.4285665      0             -0.77312731     0.016087161  
     79400   1.1891457     -1.4285696      0             -0.74905778     0.0064597286 
     79450   1.1083627     -1.4285489      0             -0.79519878     0.023619024  
     79500   0.9420794     -1.4285655      0             -0.89023438    -0.0068809588 
     79550   0.94419824    -1.4281598      0             -0.88861799    -0.0054701863 
     79600   0.88302857    -1.4285694      0             -0.92398164     0.031985931  
     79650   0.88412168    -1.4285702      0             -0.92335782     0.0059502099 
     79700   0.86377799    -1.5260786      0             -1.0324912      0.027033995  
     79750   0.93976004    -1.5586313      0             -1.0216255     -0.029132719  
     79800   1.0168457     -1.4285599      0             -0.84750526     0.021124592  
     79850   1.0817598     -1.4285658      0             -0.81041733     0.013797768  
     79900   1.075534      -1.4285703      0             -0.81397947    -0.040513531  
     79950   1.0775624     -1.4285552      0             -0.81280525    -0.0010791533 
     80000   1.085831      -1.428448       0             -0.8079731     -0.010431954  
     80050   1.0261331     -1.428489       0             -0.84212725     0.0049163134 
     80100   1.0178087     -1.4285296      0             -0.8469246     -0.013823098  
     80150   0.91686863    -1.4285538      0             -0.90462885     0.02376633   
     80200   0.86396982    -1.428378       0             -0.93468093    -0.020337415  
     80250   0.78552043    -1.4283222      0             -0.97945339    -0.0052685802 
     80300   0.84130229    -1.4285713      0             -0.94782713     0.017669234  
     80350   0.78873806    -1.428553       0             -0.97784555     0.0030840349 
     80400   0.84992105    -1.4285125      0             -0.94284334     0.0053381765 
     80450   0.86937861    -1.4285657      0             -0.93177793     0.0025622374 
     80500   0.97624044    -1.4285342      0             -0.87068252    -0.00062404368
     80550   1.0644274     -1.4285432      0             -0.82029899    -0.00092373714
     80600   1.1724771     -1.4285518      0             -0.75856493    -0.010866142  
     80650   1.2088853     -1.4283788      0             -0.73758723    -0.0063641564 
     80700   1.2892629     -1.4285691      0             -0.69184747    -0.010920671  
     80750   1.0796607     -1.5055063      0             -0.88855736     0.0041229855 
     80800   1.1892969     -1.5705889      0             -0.89099065     0.0015624908 
     80850   1.1602151     -1.4284751      0             -0.76549505     0.014852164  
     80900   1.3061207     -1.4285709      0             -0.68221623     0.00058143485
     80950   1.3616198     -1.4283566      0             -0.65028808     0.0089164065 
     81000   1.5466346     -1.4279929      0             -0.54420176     0.0086945191 
     81050   1.5839857     -1.4285507      0             -0.52341602     0.023792456  
     81100   1.4920907     -1.4285016      0             -0.57587838     0.015908836  
     81150   1.363003      -1.4285568      0             -0.64969793     0.037485121  
     81200   1.3004415     -1.4285694      0             -0.68545998     0.00019881903
     81250   1.2817584     -1.4285308      0             -0.69609747    -0.0054290216 
     81300   1.3006652     -1.428558       0             -0.6853207     -0.022597256  
     81350   1.4299012     -1.4284981      0             -0.61141167     0.0097163318 
     81400   1.4078692     -1.428547       0             -0.62405034     0.015578922  
     81450   1.3789931     -1.4285114      0             -0.64051533     0.0063126484 
     81500   1.4196133     -1.4285711      0             -0.61736352     0.02123454   
     81550   1.5539216     -1.4285654      0             -0.54061019     0.039710936  
     81600   1.4360006     -1.4285714      0             -0.60799966     0.015478593  
     81650   1.3781672     -1.4285498      0             -0.64102567     0.011735457  
     81700   1.4302079     -1.4285244      0             -0.61126278     0.01372238   
     81750   1.4064288     -1.4285705      0             -0.6248969     -0.0073363724 
     81800   1.4355616     -1.428479       0             -0.60815805    -0.0013688621 
     81850   1.3706633     -1.4284289      0             -0.64519269    -0.0026048328 
     81900   1.4293964     -1.4285553      0             -0.61175737    -0.0028222399 
     81950   1.3493304     -1.4284814      0             -0.65743545     0.0093224046 
     82000   1.4745533     -1.4285636      0             -0.58596175     0.0016645273 
     82050   1.5299532     -1.4285639      0             -0.55430493     0.0028057517 
     82100   1.4308075     -1.4285387      0             -0.61093444    -0.016503685  
     82150   1.3922577     -1.4285548      0             -0.63297901     0.0093985733 
     82200   1.2858097     -1.4283237      0             -0.69357534     0.010337754  
     82250   1.2587071     -1.4285631      0             -0.70930195    -0.0063107534 
     82300   1.3646288     -1.4285378      0             -0.64874987    -0.0018878938 
     82350   1.4223359     -1.4285711      0             -0.61580768     0.029089588  
     82400   1.5611233     -1.4285545      0             -0.536484      -0.017789563  
     82450   1.3438981     -1.4285671      0             -0.66062537    -0.027367623  
     82500   1.4447832     -1.428565       0             -0.6029746      0.0043014926 
     82550   1.5165911     -1.4285539      0             -0.56193039    -0.0097058965 
     82600   1.457631      -1.4285713      0             -0.59563935     0.020463974  
     82650   1.537938      -1.4284786      0             -0.54965693    -0.014828807  
     82700   1.4344576     -1.4284284      0             -0.60873838    -0.00536139   
     82750   1.4687006     -1.4285673      0             -0.58930983    -0.01696093   
     82800   1.4851209     -1.4285642      0             -0.57992366    -0.010163885  
     82850   1.6595752     -1.4285477      0             -0.48021901     0.00042106434
     82900   1.6389339     -1.4282902      0             -0.49175656     0.010712997  
     82950   1.6186069     -1.4285366      0             -0.5036184     -0.011153846  
     83000   1.6335603     -1.4285651      0             -0.49510205     0.013943491  
     83050   1.7135064     -1.4285134      0             -0.44936692    -0.015186543  
     83100   1.8541374     -1.4285582      0             -0.36905107    -0.028500548  
     83150   1.8888809     -1.4285687      0             -0.34920821    -0.028409009  
     83200   1.8552644     -1.4285196      0             -0.36836854    -0.019230021  
     83250   1.9647543     -1.4283871      0             -0.30567034     0.027175506  
     83300   1.8572503     -1.4284829      0             -0.36719706     0.011782772  
     83350   1.847485      -1.4285007      0             -0.37279498    -0.027676907  
     83400   1.8758348     -1.428552       0             -0.35664644    -0.015724523  
     83450   1.729203      -1.4285671      0             -0.44045114    -0.045657066  
     83500   1.7133435     -1.4285306      0             -0.44947719     0.0053657882 
     83550   1.5970358     -1.4285687      0             -0.51597678     0.0042023696 
     83600   1.5198006     -1.4285614      0             -0.56010388     0.02889678   
     83650   1.454792      -1.4284758      0             -0.59716606    -0.0097702175 
     83700   1.469816      -1.4285714      0             -0.58867649    -0.002919003  
     83750   1.3209992     -1.4285592      0             -0.67370251     0.0056204009 
     83800   1.3766599     -1.428294       0             -0.64163113    -0.0070972369 
     83850   1.4021733     -1.4284959      0             -0.62725399    -0.040959285  
     83900   1.5127484     -1.428527       0             -0.56409934    -0.00051416965
     83950   1.510837      -1.4285626      0             -0.56522712     0.015721732  
     84000   1.5230888     -1.4285588      0             -0.55822232     0.0064495083 
     84050   1.5125917     -1.4285486      0             -0.56421044    -0.0077876519 
     84100   1.4584111     -1.428544       0             -0.59516623     0.0063360438 
     84150   1.4548804     -1.4283945      0             -0.5970343      0.011331459  
     84200   1.5848007     -1.4285377      0             -0.52293734    -0.012182821  
     84250   1.6289455     -1.4284608      0             -0.49763474     0.0041895332 
     84300   1.5538904     -1.4284052      0             -0.54046787    -0.0068845349 
     84350   1.6260184     -1.4285713      0             -0.4994179      0.022608431  
     84400   1.6145088     -1.4285704      0             -0.50599395     0.013368891  
     84450   1.5135234     -1.428563       0             -0.56369249    -0.0046866395 
     84500   1.5578637     -1.4284474      0             -0.53823957     0.018625229  
     84550   1.5898754     -1.4285656      0             -0.52006533     0.0069772468 
     84600   1.6705659     -1.4284453      0             -0.47383626     0.017999317  
     84650   1.6467995     -1.4279824      0             -0.48695411    -0.012084571  
     84700   1.6416906     -1.4282106      0             -0.4901017     -0.033110004  
     84750   1.7486498     -1.4285711      0             -0.42934264    -0.016815642  
     84800   1.6559728     -1.4285597      0             -0.48228951    -0.0093666049 
     84850   1.630619      -1.4284351      0             -0.49665283    -0.0033771131 
     84900   1.7175182     -1.4284215      0             -0.44698259     0.02090304   
     84950   1.725112      -1.428556       0             -0.44277764     0.0081023573 
     85000   1.6527725     -1.4284746      0             -0.48403316     0.0069193419 
     85050   1.7725283     -1.4283849      0             -0.41551156    -0.0021373871 
     85100   1.7903817     -1.4282745      0             -0.40519923     0.002418286  
     85150   1.6679113     -1.4285607      0             -0.47546853    -0.02841729   
     85200   1.6300743     -1.4285597      0             -0.49708862    -0.016430588  
     85250   1.6293681     -1.4285698      0             -0.49750234     0.024797549  
     85300   1.6647063     -1.4285676      0             -0.47730685     0.003277445  
     85350   1.5592947     -1.4285526      0             -0.53752711     0.01444856   
     85400   1.5003554     -1.4285663      0             -0.57122038     0.010272085  
     85450   1.4129913     -1.4285703      0             -0.62114669    -0.0019169007 
     85500   1.4850231     -1.4285389      0             -0.57995427     0.0084633274 
     85550   1.5660415     -1.4285652      0             -0.53368436     0.015562803  
     85600   1.6058065     -1.428557       0             -0.51095328     0.015458437  
     85650   1.6877268     -1.4285348      0             -0.46411949     0.0043912092 
     85700   1.7310968     -1.4285697      0             -0.43937153    -0.016781333  
     85750   1.8290724     -1.4285681      0             -0.38338384    -0.0028459124 
     85800   1.8110827     -1.428319       0             -0.39341456    -0.011043688  
     85850   1.7670073     -1.4285389      0             -0.41882045    -0.0063134079 
     85900   1.6337578     -1.4284673      0             -0.49489141    -0.0040352595 
     85950   1.6557492     -1.4285714      0             -0.48242901    -0.024691064  
     86000   1.5764844     -1.4285694      0             -0.5277212     -0.025206136  
     86050   1.4946156     -1.4285691      0             -0.57450299    -0.0043310493 
     86100   1.4071803     -1.4284207      0             -0.62431768     0.023256136  
     86150   1.2926272     -1.4282929      0             -0.68964883     0.00554787   
     86200   1.3276035     -1.4284064      0             -0.6697758     -0.023500051  
     86250   1.2384132     -1.4284551      0             -0.72079045     0.0067497635 
     86300   1.0421097     -1.428559       0             -0.83306776    -0.010407266  
     86350   1.01052       -1.428561       0             -0.85112096     0.02616486   
     86400   1.0848122     -1.4285536      0             -0.80866092     0.023420467  
     86450   1.1103257     -1.4285202      0             -0.79404831    -0.0068227835 
     86500   0.91490143    -1.5253224      0             -1.0025216     -0.019105607  
     86550   0.88267521    -1.4280028      0             -0.92361697     0.027437921  
     86600   0.99646692    -1.4282714      0             -0.85886168     0.0014181107 
     86650   0.89141031    -1.4285705      0             -0.91919319     0.0086998659 
     86700   0.88888721    -1.4284631      0             -0.92052757     0.0056953325 
     86750   0.87394267    -1.4285712      0             -0.9291754      0.0069968841 
     86800   0.87627209    -1.4285458      0             -0.92781894     0.0029579368 
     86850   0.91118787    -1.4285475      0             -0.90786868     0.030140639  
     86900   0.8977379     -1.4285671      0             -0.91557398     0.0042988128 
     86950   0.92177386    -1.4284916      0             -0.90176371    -0.0084112857 
     87000   0.85792936    -1.4285701      0             -0.93832472     0.0019439906 
     87050   0.82657907    -1.4285583      0             -0.95622745     0.015175904  
     87100   0.81695089    -1.4285618      0             -0.96173269     0.018766389  
     87150   0.82173753    -1.4285714      0             -0.95900712    -0.0075729947 
     87200   0.89359255    -1.4285486      0             -0.91792426     0.016092116  
     87250   0.88949292    -1.4285706      0             -0.92028895    -0.0011314727 
     87300   0.89618877    -1.4285081      0             -0.91640025     0.0044279595 
     87350   0.89725437    -1.4284628      0             -0.91574597     0.00056365588
     87400   0.85888062    -1.4283834      0             -0.93759449     0.022321395  
     87450   0.80996569    -1.4285509      0             -0.9657134      0.0017470763 
     87500   0.83831987    -1.428479       0             -0.94943905     0.01062749   
     87550   0.83002218    -1.4285412      0             -0.95424285     0.00051548421
     87600   0.79287941    -1.4284746      0             -0.97540064    -0.0043775192 
     87650   0.80409074    -1.4285349      0             -0.9690545      0.0052256525 
     87700   0.9143178     -1.4284857      0             -0.90601839    -0.012065714  
     87750   0.93414874    -1.4284846      0             -0.89468537    -0.0072898282 
     87800   0.9618526     -1.4284101      0             -0.87878009    -0.010203203  
     87850   0.88885483    -1.428565       0             -0.92064791     0.0034511723 
     87900   0.85020697    -1.4285711      0             -0.94273855    -0.0015412252 
     87950   0.83292765    -1.4285714      0             -0.95261272    -0.0086543832 
     88000   0.87444885    -1.4284737      0             -0.92878866    -0.0085890267 
     88050   0.87014104    -1.4285676      0             -0.93134412     0.0086916853 
     88100   0.85453792    -1.4285423      0             -0.94023487     0.012489882  
     88150   0.9602177     -1.4284088      0             -0.87971294     0.0050991606 
     88200   1.0626841     -1.42844        0             -0.82119195    -0.0018941117 
     88250   1.0519736     -1.428529       0             -0.82740118    -0.010854439  
     88300   0.95876394    -1.4285708      0             -0.88070574    -0.0037034448 
     88350   0.95358508    -1.4285711      0             -0.88366532    -0.010248136  
     88400   0.82897139    -1.4285553      0             -0.95485734     0.0070756313 
     88450   0.91302381    -1.4285711      0             -0.90684322     0.0033553816 
     88500   1.0848462     -1.4285205      0             -0.80860841     0.009788078  
     88550   1.0671349     -1.4285267      0             -0.81873527     0.01133287   
     88600   1.1121681     -1.4285713      0             -0.79304667     0.019959402  
     88650   1.1964694     -1.4284312      0             -0.74473444    -0.0048463635 
     88700   1.2193953     -1.4285098      0             -0.73171252    -0.0044693389 
     88750   1.1681116     -1.4285643      0             -0.7610719      0.019446938  
     88800   1.1378232     -1.4285438      0             -0.7783591     -0.0022945785 
     88850   1.1229996     -1.4285663      0             -0.78685224     0.0073978332 
     88900   1.0676789     -1.4285665      0             -0.81846425     0.0028017909 
     88950   1.0183596     -1.4285611      0             -0.84664133     0.017779206  
     89000   1.1487965     -1.4285675      0             -0.77211237     0.0034302233 
     89050   1.278222      -1.4285714      0             -0.69815878     0.0069541093 
     89100   1.2793307     -1.4285566      0             -0.69751044     0.010210756  
     89150   1.1791623     -1.428502       0             -0.75469495     0.016111919  
     89200   1.1054452     -1.4285713      0             -0.79688835    -0.001284072  
     89250   1.0547477     -1.4285707      0             -0.82585772    -0.01245535   
     89300   0.99679631    -1.4285661      0             -0.85896825     0.027296976  
     89350   1.0889883     -1.4283569      0             -0.80607786     0.0041809383 
     89400   1.0950448     -1.428419       0             -0.80267918     0.025583552  
     89450   1.0682351     -1.4285616      0             -0.81814154    -0.0031859386 
     89500   1.0697893     -1.4285668      0             -0.81725864    -0.036949101  
     89550   0.98649572    -1.4285265      0             -0.86481462     0.011833719  
     89600   0.98664166    -1.4285144      0             -0.86471917     0.002617818  
     89650   0.96506564    -1.4285712      0             -0.87710516     0.0071361866 
     89700   0.97165336    -1.4285709      0             -0.87334042    -0.0071392139 
     89750   0.97804724    -1.4285135      0             -0.8696294     -0.00078873424
     89800   0.92859534    -1.428567       0             -0.89794104    -0.014303005  
     89850   0.99795767    -1.4285714      0             -0.85830989     0.011600848  
     89900   1.0825242     -1.4285524      0             -0.80996715     0.0039081125 
     89950   1.1550951     -1.4285702      0             -0.76851589    -0.01703364   
     90000   1.0555241     -1.4284775      0             -0.82532082    -0.020861318  
     90050   1.1202434     -1.4284492      0             -0.78831007    -0.0029495775 
     90100   1.1749216     -1.4285635      0             -0.75717976    -0.0027070522 
     90150   1.2314644     -1.4282588      0             -0.72456485     0.0125556    
     90200   1.1424319     -1.4283587      0             -0.77554048    -0.023380023  
     90250   1.1175523     -1.4283611      0             -0.78975979     0.035975097  
     90300   1.1417492     -1.4285655      0             -0.77613736    -0.0017595835 
     90350   1.171653      -1.4285644      0             -0.75904839     0.0021154681 
     90400   1.250128      -1.4284995      0             -0.71414069     0.0073754673 
     90450   1.1932772     -1.4285638      0             -0.74669111     0.038190863  
     90500   1.230173      -1.4285415      0             -0.72558545    -0.0053383681 
     90550   1.3369473     -1.4285416      0             -0.66457172     0.0068118631 
     90600   1.4416585     -1.428483       0             -0.60467818     0.011522874  
     90650   1.3616802     -1.428571       0             -0.65046803     0.012996949  
     90700   1.4041539     -1.4285713      0             -0.62619766     0.00287453   
     90750   1.4722049     -1.4285644      0             -0.58730443     0.0066215531 
     90800   1.5303862     -1.4281707      0             -0.5536643     -0.021708004  
     90850   1.4574394     -1.4285635      0             -0.59574105     0.026929852  
     90900   1.3709945     -1.4285409      0             -0.64511546    -0.00687787   
     90950   1.2530698     -1.4284263      0             -0.71238643    -0.030691418  
     91000   1.2680931     -1.4274054      0             -0.70278077    -0.037833315  
     91050   1.420407      -1.4285714      0             -0.6169103     -0.0042676295 
     91100   1.5100911     -1.428541       0             -0.5656318      0.0048907062 
     91150   1.4979393     -1.4285073      0             -0.57254196    -0.0013643795 
     91200   1.4959437     -1.428511       0             -0.57368608    -0.022880118  
     91250   1.6756291     -1.4285709      0             -0.47106853     0.022746746  
     91300   1.6695613     -1.428345       0             -0.47430992     0.0039065522 
     91350   1.663535      -1.4284868      0             -0.47789542    -0.018912849  
     91400   1.5566293     -1.4280185      0             -0.53851603     0.015832199  
     91450   1.671092      -1.4284745      0             -0.47356483    -0.0031976424 
     91500   1.7422001     -1.4285694      0             -0.43302649    -0.0046367987 
     91550   1.7919003     -1.4285688      0             -0.40462575     0.017002213  
     91600   1.6685862     -1.4283642      0             -0.47488641    -0.015933288  
     91650   1.6969073     -1.4285033      0             -0.45884203     0.01816792   
     91700   1.4710306     -1.4285054      0             -0.58791646     0.0045943088 
     91750   1.4678316     -1.4282714      0             -0.58951042     0.00047833897
     91800   1.5835053     -1.4284166      0             -0.52355639     0.0091208806 
     91850   1.7385298     -1.4285703      0             -0.43512469     0.021936262  
     91900   1.7000548     -1.4285432      0             -0.45708332     0.0073701874 
     91950   1.5701374     -1.4283689      0             -0.5311475     -0.0028205465 
     92000   1.4490576     -1.428529       0             -0.60049604     0.010797788  
     92050   1.4297799     -1.4284035      0             -0.61138643     0.0028748407 
     92100   1.5646906     -1.4285643      0             -0.53445541     0.015665727  
     92150   1.6163623     -1.4285697      0             -0.5049341     -0.0059253708 
     92200   1.4740418     -1.4283711      0             -0.58606149    -0.0088132813 
     92250   1.3850336     -1.4271665      0             -0.63571874     0.0015846247 
     92300   1.3462041     -1.4282293      0             -0.6589698     -0.0074635527 
     92350   1.3688399     -1.4285695      0             -0.64637522    -0.0050095532 
     92400   1.3374754     -1.4285664      0             -0.66429476    -0.0016212509 
     92450   1.2735994     -1.4285246      0             -0.70075356    -0.00068758559
     92500   1.2903452     -1.4285679      0             -0.6912278      0.0054523696 
     92550   1.2530105     -1.4285701      0             -0.71256409    -0.044746728  
     92600   1.1633132     -1.4284389      0             -0.76368855     0.031929696  
     92650   1.1641407     -1.4283573      0             -0.76313403     0.0047665891 
     92700   1.253333      -1.428537       0             -0.71234672    -0.0084596458 
     92750   1.2421738     -1.4285215      0             -0.71870789    -0.01216207   
     92800   1.1535233     -1.4285713      0             -0.76941508    -0.015940841  
     92850   1.0307038     -1.4285634      0             -0.83958985    -0.015920546  
     92900   1.0484202     -1.4285563      0             -0.82945903     0.0086356597 
     92950   1.0191454     -1.4285568      0             -0.84618804     0.040662455  
     93000   0.89683647    -1.4285638      0             -0.91608579     0.018610908  
     93050   0.87625624    -1.4279108      0             -0.92719297     0.005248217  
     93100   0.85106075    -1.4285182      0             -0.94219777    -0.0024068359 
     93150   0.7781419     -1.428571       0             -0.98391845    -0.0031415572 
     93200   0.86186105    -1.4285671      0             -0.93607502     0.0066476297 
     93250   0.9552219     -1.4285693      0             -0.88272826     0.015241725  
     93300   0.97863047    -1.4283942      0             -0.86917676     0.0047054721 
     93350   1.0339438     -1.4285059      0             -0.83768089     0.0083492402 
     93400   1.0792511     -1.4285677      0             -0.81185274    -0.0088979651 
     93450   1.1454568     -1.4285577      0             -0.77401098     0.0088904347 
     93500   1.1478897     -1.4285703      0             -0.77263326     0.0010197452 
     93550   1.0092836     -1.428385       0             -0.85165153     0.013420629  
     93600   1.191103      -1.428505       0             -0.7478747     -0.012021359  
     93650   1.153433      -1.4285618      0             -0.76945721     0.0034589736 
     93700   1.1568568     -1.4285153      0             -0.76745421    -0.011227319  
     93750   1.1564193     -1.4285384      0             -0.76772733     0.0050196546 
     93800   1.0518078     -1.4285614      0             -0.82752842    -0.021047543  
     93850   1.1149082     -1.4285373      0             -0.79144689     0.0050913634 
     93900   0.97537038    -1.4285695      0             -0.87121496     0.010288431  
     93950   0.96748232    -1.4285459      0             -0.87569884     0.00035989164
     94000   0.98136091    -1.4283735      0             -0.86759588     0.010873103  
     94050   0.91796266    -1.4284734      0             -0.90392328     0.0070550251 
     94100   0.89416606    -1.4285663      0             -0.91761431    -0.031037314  
     94150   0.91615521    -1.4282138      0             -0.90469656    -0.014144605  
     94200   0.89963315    -1.4285518      0             -0.91447575    -0.0030898085 
     94250   0.75141546    -1.4284764      0             -0.99909614    -0.021496855  
     94300   0.67389982    -1.428547       0             -1.0434614      0.0057564812 
     94350   0.61771798    -1.4283685      0             -1.0753868     -0.01726625   
     94400   0.67517085    -1.4285706      0             -1.0427587      0.018720923  
     94450   0.68469196    -1.4285705      0             -1.0373179      0.00083267796
     94500   0.60820147    -1.4285289      0             -1.0809852      0.0055216134 
     94550   0.65523973    -1.4283093      0             -1.0538866      0.00017850264
     94600   0.67618022    -1.4285713      0             -1.0421826      0.016228138  
     94650   0.74804598    -1.4285711      0             -1.0011163     -0.0077834221 
     94700   0.82063093    -1.4285675      0             -0.95963551    -0.00027871839
     94750   0.88728913    -1.428553       0             -0.92153068     0.00085472017
     94800   0.7661354     -1.428467       0             -0.9906753     -0.012164055  
     94850   0.76187639    -1.4285708      0             -0.9932129      0.026169961  
     94900   0.81250833    -1.4284838      0             -0.96419332    -0.0073123674 
     94950   0.77102652    -1.4285475      0             -0.98796088    -0.0066908008 
     95000   0.89312049    -1.4285701      0             -0.91821555    -0.011050889  
     95050   0.89089427    -1.4285606      0             -0.91947813     0.0031838062 
     95100   0.87639645    -1.4285647      0             -0.92776677     0.012639294  
     95150   0.9367328     -1.4285372      0             -0.8932613      0.010576818  
     95200   0.89592035    -1.4285303      0             -0.9165758     -0.0047983813 
     95250   0.94495217    -1.4283482      0             -0.88837554     0.011023758  
     95300   0.91997552    -1.4285605      0             -0.90286023    -0.0042719889 
     95350   0.90686766    -1.4280922      0             -0.90988207    -0.013304481  
     95400   0.81268232    -1.4285658      0             -0.96417588    -0.014838685  
     95450   0.68943812    -1.4285321      0             -1.0345674      0.0031710522 
     95500   0.77518783    -1.4285708      0             -0.98560634     0.0015053811 
     95550   0.65364881    -1.4284374      0             -1.0549238      0.018120107  
     95600   0.64597378    -1.4282193      0             -1.0590914     -0.013789885  
     95650   0.72234165    -1.4285593      0             -1.0157927      0.0017421466 
     95700   0.6498176     -1.4285714      0             -1.0572471     -0.012829561  
     95750   0.70981879    -1.4284419      0             -1.0228311      0.011080763  
     95800   0.748384      -1.4285683      0             -1.0009203     -0.011855467  
     95850   0.82708859    -1.4285694      0             -0.95594735     0.0030013976 
     95900   0.78710658    -1.4285696      0             -0.97879442     0.0042856829 
     95950   0.75363089    -1.4285662      0             -0.99792002     0.0072850432 
     96000   0.74639273    -1.4285148      0             -1.0020047      0.0036440586 
     96050   0.66938403    -1.4285714      0             -1.0460663      0.012455837  
     96100   0.67645769    -1.4283129      0             -1.0417657     -0.0050701787 
     96150   0.49271391    -1.4285714      0             -1.1470206     -0.0012304251 
     96200   0.58244388    -1.4284213      0             -1.0955963     -0.00026814573
     96250   0.5797238     -1.4281285      0             -1.0968578      0.011596876  
     96300   0.62147348    -1.4283764      0             -1.0732487     -9.9810543e-05
     96350   0.6691837     -1.4285083      0             -1.0461176      0.00091917911
     96400   0.74497721    -1.4285694      0             -1.0028681     -0.0088872603 
     96450   0.76628683    -1.4285419      0             -0.99066375    -0.0028046843 
     96500   0.69587355    -1.4285162      0             -1.0308742     -0.0036663423 
     96550   0.69156228    -1.4285634      0             -1.0333849     -0.0034731403 
     96600   0.75942131    -1.4285704      0             -0.9946154     -0.00039899729
     96650   0.83043191    -1.4285702      0             -0.95403768     0.016126488  
     96700   0.918135      -1.4284205      0             -0.90377196     0.0089604511 
     96750   0.99849131    -1.4285287      0             -0.8579622      0.0019211013 
     96800   0.9801898     -1.4281361      0             -0.86802769    -0.0037010783 
     96850   0.95325114    -1.4279563      0             -0.88324132    -0.015532776  
     96900   0.9831231     -1.4283506      0             -0.86656601     4.0698602e-05
     96950   0.95345864    -1.4284258      0             -0.88359232    -0.0096538576 
     97000   0.91291495    -1.4285623      0             -0.90689657     0.008588401  
     97050   0.92445357    -1.428497       0             -0.90023781     0.011583709  
     97100   0.86789564    -1.4285578      0             -0.93261744     0.0029627039 
     97150   0.81357877    -1.4285577      0             -0.96365559     0.0042687281 
     97200   0.83363599    -1.4285627      0             -0.95219923    -0.006672996  
     97250   0.85907009    -1.4283142      0             -0.93741696    -0.0056807519 
     97300   0.89189007    -1.4285713      0             -0.91891984    -0.0021076162 
     97350   0.91123944    -1.4284604      0             -0.90775214    -0.0040220407 
     97400   0.86884381    -1.428516       0             -0.93203381     0.014243724  
     97450   0.85589768    -1.4285714      0             -0.93948704     0.0014065401 
     97500   0.96248291    -1.4285286      0             -0.87853833    -0.01841445   
     97550   1.0431908     -1.428513       0             -0.83240396     0.0013754078 
     97600   1.0710063     -1.4285458      0             -0.81654216     0.0032595954 
     97650   1.0461515     -1.4285702      0             -0.83076937     0.022109863  
     97700   1.1447626     -1.4282439      0             -0.77409383    -0.015806563  
     97750   1.1786442     -1.4284607      0             -0.75494975    -0.029995833  
     97800   1.117321      -1.4279539      0             -0.78948478     0.012690957  
     97850   1.201018      -1.4285701      0             -0.74227411     0.0020158932 
     97900   1.1264205     -1.4285627      0             -0.78489387     0.003999707  
     97950   1.1661887     -1.428382       0             -0.76198842    -0.0039501151 
     98000   1.1993752     -1.4285713      0             -0.74321409     0.021803544  
     98050   1.1462959     -1.4285298      0             -0.77350361    -0.0074839084 
     98100   1.1374447     -1.4284079      0             -0.77843946     0.001954897  
     98150   1.0755203     -1.4285712      0             -0.81398821     0.024542106  
     98200   1.0850607     -1.4284473      0             -0.8084126      0.013236532  
     98250   1.1080682     -1.4284938      0             -0.79531195    -0.01078297   
     98300   1.1579598     -1.4280414      0             -0.76635005     0.00093402232
     98350   1.2326749     -1.4281356      0             -0.72374995    -0.017176665  
     98400   1.0158451     -1.4285702      0             -0.84808725     0.036669478  
     98450   0.94134069    -1.4285363      0             -0.89062738     0.00014556969
     98500   1.0415209     -1.4285696      0             -0.83341478     0.0082947549 
     98550   1.1782048     -1.4285606      0             -0.75530076    -0.032050806  
     98600   1.1757289     -1.4285711      0             -0.75672603     0.024294002  
     98650   1.1770248     -1.4285714      0             -0.75598578     0.016677801  
     98700   1.1380543     -1.4284122      0             -0.77809545     0.0039224391 
     98750   1.0901987     -1.4284412      0             -0.80547046     0.0028233317 
     98800   1.2168861     -1.4283502      0             -0.73298674    -0.026024441  
     98850   1.355193      -1.4282864      0             -0.65389041    -0.018120383  
     98900   1.3648951     -1.4285615      0             -0.64862146    -0.0070945136 
     98950   1.454735      -1.4285198      0             -0.59724261     0.00063192766
     99000   1.3545351     -1.4284598      0             -0.65443971     0.00059160722
     99050   1.2831367     -1.4285322      0             -0.6953112     -0.0059811008 
     99100   1.2984707     -1.4284771      0             -0.68649383    -0.019828242  
     99150   1.340786      -1.4285688      0             -0.66240535    -0.0075124373 
     99200   1.28752       -1.428507       0             -0.69278127    -0.0013196038 
     99250   1.2328729     -1.4282651      0             -0.72376625     0.017259025  
     99300   1.2440102     -1.4285625      0             -0.71769948    -0.025225008  
     99350   1.250455      -1.4285674      0             -0.71402175    -0.0078067457 
     99400   1.3263899     -1.428562       0             -0.67062495    -0.017854977  
     99450   1.3863275     -1.4280437      0             -0.63585651    -0.058282049  
     99500   1.2409409     -1.428419       0             -0.71930989    -0.046596108  
     99550   1.2337421     -1.4285346      0             -0.72353915    -0.041477599  
     99600   1.2410917     -1.4284872      0             -0.719292      -0.00068553661
     99650   1.2828372     -1.4285662      0             -0.69551633     0.01614237   
     99700   1.3316492     -1.4285447      0             -0.66760226     0.027291669  
     99750   1.2337383     -1.4285265      0             -0.7235332     -0.0068782645 
     99800   1.3772886     -1.428121       0             -0.64109896    -0.022892598  
     99850   1.3477623     -1.4274826      0             -0.65733277    -0.057323785  
     99900   1.251951      -1.4285556      0             -0.71315496     0.016308767  
     99950   1.3857474     -1.42856        0             -0.63670432    -0.0038587273 
    100000   1.4021839     -1.4285712      0             -0.62732319    -0.017583669  
    100001   1.379458      -1.4282158      0             -0.63995406     0.00065701055
Loop time of 0.623463 on 1 procs for 100000 steps with 7 atoms

Performance: 69290398.949 tau/day, 160394.442 timesteps/s, 1.123 Matom-step/s
50.1% CPU use with 1 MPI tasks x 1 OpenMP threads

MPI task timing breakdown:
Section |  min time  |  avg time  |  max time  |%varavg| %total
---------------------------------------------------------------
Pair    | 0.035214   | 0.035214   | 0.035214   |   0.0 |  5.65
Bond    | 0.007304   | 0.007304   | 0.007304   |   0.0 |  1.17
Neigh   | 0.008788   | 0.008788   | 0.008788   |   0.0 |  1.41
Comm    | 0.023325   | 0.023325   | 0.023325   |   0.0 |  3.74
Output  | 0.3592     | 0.3592     | 0.3592     |   0.0 | 57.61
Modify  | 0.12628    | 0.12628    | 0.12628    |   0.0 | 20.26
Other   |            | 0.06335    |            |       | 10.16

Nlocal:              7 ave           7 max           7 min
Histogram: 1 0 0 0 0 0 0 0 0 0
Nghost:             17 ave          17 max          17 min
Histogram: 1 0 0 0 0 0 0 0 0 0
Neighs:              0 ave           0 max           0 min
Histogram: 1 0 0 0 0 0 0 0 0 0

Total # of neighbors = 0
Ave neighs/atom = 0
Ave special neighs/atom = 2.5714286
Neighbor list builds = 4734
Dangerous builds = 0
Total wall time: 0:00:00
