LAMMPS (2 Aug 2023 - Update 3)
OMP_NUM_THREADS environment is not set. Defaulting to 1 thread. (src/comm.cpp:98)
  using 1 OpenMP thread(s) per MPI task
Loaded 1 plugins from F:\LAMMPS\LAMMPS 64-bit 2Aug2023\plugins
# Script to create a Polymer using Patchy Particles (PP)
# Types of Particles:
#   Cross linker:   PPA
#   Monomer:        PPB

# Initialization
units lj
dimension 3
boundary p p p

# Types of atoms and that stuff
atom_style full
bond_style zero nocoeff
pair_style hybrid lj/cut 2.5 cosine/squared 2.5 zero 2.5

# Get data for box and particles
read_data data.patchyP1.lmp group CL1
Reading data file ...
  orthogonal box = (-5 -5 -5) to (5 5 5)
  1 by 1 by 1 MPI processor grid
WARNING: Atom style in data file atom-ID molecule-ID atom-type q x y z differs from currently defined atom style full (src/read_data.cpp:621)
  reading atoms ...
  5 atoms
  scanning bonds ...
  4 = max bonds/atom
WARNING: Bond style ID parameters in data file differs from currently defined bond style zero (src/read_data.cpp:724)
  reading bonds ...
  4 bonds
Finding 1-2 1-3 1-4 neighbors ...
  special bond factors lj:    0        0        0       
  special bond factors coul:  0        0        0       
     4 = max # of 1-2 neighbors
     3 = max # of 1-3 neighbors
     3 = max # of 1-4 neighbors
     4 = max # of special neighbors
  special bonds CPU = 0.001 seconds
  read_data CPU = 0.008 seconds
read_data data.patchyP2.lmp add append group Mo1
Reading data file ...
  orthogonal box = (-5 -5 -5) to (5 5 5)
  1 by 1 by 1 MPI processor grid
WARNING: Atom style in data file atom-ID molecule-ID atom-type q x y z differs from currently defined atom style full (src/read_data.cpp:621)
  reading atoms ...
  3 atoms
  scanning bonds ...
  2 = max bonds/atom
WARNING: Bond style ID parameters in data file differs from currently defined bond style zero (src/read_data.cpp:724)
  reading bonds ...
  2 bonds
Finding 1-2 1-3 1-4 neighbors ...
  special bond factors lj:    0        0        0       
  special bond factors coul:  0        0        0       
     4 = max # of 1-2 neighbors
     3 = max # of 1-3 neighbors
     3 = max # of 1-4 neighbors
     4 = max # of special neighbors
  special bonds CPU = 0.000 seconds
  read_data CPU = 0.006 seconds
read_data data.patchyP2.lmp add append group Mo2
Reading data file ...
  orthogonal box = (-5 -5 -5) to (5 5 5)
  1 by 1 by 1 MPI processor grid
WARNING: Atom style in data file atom-ID molecule-ID atom-type q x y z differs from currently defined atom style full (src/read_data.cpp:621)
  reading atoms ...
  3 atoms
  scanning bonds ...
  2 = max bonds/atom
WARNING: Bond style ID parameters in data file differs from currently defined bond style zero (src/read_data.cpp:724)
  reading bonds ...
  2 bonds
Finding 1-2 1-3 1-4 neighbors ...
  special bond factors lj:    0        0        0       
  special bond factors coul:  0        0        0       
     4 = max # of 1-2 neighbors
     3 = max # of 1-3 neighbors
     3 = max # of 1-4 neighbors
     4 = max # of special neighbors
  special bonds CPU = 0.000 seconds
  read_data CPU = 0.001 seconds
read_data data.patchyP2.lmp add append group Mo3
Reading data file ...
  orthogonal box = (-5 -5 -5) to (5 5 5)
  1 by 1 by 1 MPI processor grid
WARNING: Atom style in data file atom-ID molecule-ID atom-type q x y z differs from currently defined atom style full (src/read_data.cpp:621)
  reading atoms ...
  3 atoms
  scanning bonds ...
  2 = max bonds/atom
WARNING: Bond style ID parameters in data file differs from currently defined bond style zero (src/read_data.cpp:724)
  reading bonds ...
  2 bonds
Finding 1-2 1-3 1-4 neighbors ...
  special bond factors lj:    0        0        0       
  special bond factors coul:  0        0        0       
     4 = max # of 1-2 neighbors
     3 = max # of 1-3 neighbors
     3 = max # of 1-4 neighbors
     4 = max # of special neighbors
  special bonds CPU = 0.000 seconds
  read_data CPU = 0.001 seconds
read_data data.patchyP2.lmp add append group Mo4
Reading data file ...
  orthogonal box = (-5 -5 -5) to (5 5 5)
  1 by 1 by 1 MPI processor grid
WARNING: Atom style in data file atom-ID molecule-ID atom-type q x y z differs from currently defined atom style full (src/read_data.cpp:621)
  reading atoms ...
  3 atoms
  scanning bonds ...
  2 = max bonds/atom
WARNING: Bond style ID parameters in data file differs from currently defined bond style zero (src/read_data.cpp:724)
  reading bonds ...
  2 bonds
Finding 1-2 1-3 1-4 neighbors ...
  special bond factors lj:    0        0        0       
  special bond factors coul:  0        0        0       
     4 = max # of 1-2 neighbors
     3 = max # of 1-3 neighbors
     3 = max # of 1-4 neighbors
     4 = max # of special neighbors
  special bonds CPU = 0.000 seconds
  read_data CPU = 0.001 seconds
read_data data.patchyP2.lmp add append group Mo5
Reading data file ...
  orthogonal box = (-5 -5 -5) to (5 5 5)
  1 by 1 by 1 MPI processor grid
WARNING: Atom style in data file atom-ID molecule-ID atom-type q x y z differs from currently defined atom style full (src/read_data.cpp:621)
  reading atoms ...
  3 atoms
  scanning bonds ...
  2 = max bonds/atom
WARNING: Bond style ID parameters in data file differs from currently defined bond style zero (src/read_data.cpp:724)
  reading bonds ...
  2 bonds
Finding 1-2 1-3 1-4 neighbors ...
  special bond factors lj:    0        0        0       
  special bond factors coul:  0        0        0       
     4 = max # of 1-2 neighbors
     3 = max # of 1-3 neighbors
     3 = max # of 1-4 neighbors
     4 = max # of special neighbors
  special bonds CPU = 0.000 seconds
  read_data CPU = 0.001 seconds
read_data data.patchyP2.lmp add append group Mo6
Reading data file ...
  orthogonal box = (-5 -5 -5) to (5 5 5)
  1 by 1 by 1 MPI processor grid
WARNING: Atom style in data file atom-ID molecule-ID atom-type q x y z differs from currently defined atom style full (src/read_data.cpp:621)
  reading atoms ...
  3 atoms
  scanning bonds ...
  2 = max bonds/atom
WARNING: Bond style ID parameters in data file differs from currently defined bond style zero (src/read_data.cpp:724)
  reading bonds ...
  2 bonds
Finding 1-2 1-3 1-4 neighbors ...
  special bond factors lj:    0        0        0       
  special bond factors coul:  0        0        0       
     4 = max # of 1-2 neighbors
     3 = max # of 1-3 neighbors
     3 = max # of 1-4 neighbors
     4 = max # of special neighbors
  special bonds CPU = 0.000 seconds
  read_data CPU = 0.001 seconds

displace_atoms Mo1 move 0.0 0.0 3.0 units box
Displacing atoms ...
displace_atoms Mo2 move 0.0 0.0 -3.0 units box
Displacing atoms ...
displace_atoms Mo3 move 0.0 3.0 0.0 units box
Displacing atoms ...
displace_atoms Mo4 move 0.0 -3.0 0.0 units box
Displacing atoms ...
displace_atoms Mo5 move 3.5 0.0 0.0 units box
Displacing atoms ...
displace_atoms Mo6 move -3.5 0.0 0.0 units box
Displacing atoms ...

# Set the patchy particle interaction
fix CLfix CL1 rigid single # ID group-ID style args
  1 rigid bodies with 5 atoms
fix Mofix1 Mo1 rigid single
  1 rigid bodies with 3 atoms
fix Mofix2 Mo2 rigid single
  1 rigid bodies with 3 atoms
fix Mofix3 Mo3 rigid single
  1 rigid bodies with 3 atoms
fix Mofix4 Mo4 rigid single
  1 rigid bodies with 3 atoms
fix Mofix5 Mo5 rigid single
  1 rigid bodies with 3 atoms
fix Mofix6 Mo6 rigid single
  1 rigid bodies with 3 atoms

pair_coeff 1 1 zero 2.24
pair_coeff 2 2 zero 2.24
pair_coeff 3 3 zero 2.24
pair_coeff 1 3 zero 1.68
pair_coeff 1 4 zero 1.68
pair_coeff 2 3 zero 1.68
pair_coeff 2 4 zero 1.68
pair_coeff 1 2 lj/cut 1.0 1.0 2.24 # i-type j-type eps sigma cutoff
pair_coeff 3 4 cosine/squared 10.0 0.5 0.56 wca # i-type j-type eps sigma cutoff wca
pair_coeff 4 4 cosine/squared 10.0 0.5 0.56 wca # i-type j-type eps sigma cutoff wca

# Neighbor list
neighbor 0.3 bin # extra-distance style
#neigh_modify delay 5

minimize 1.0e-4 1.0e-6 1000 10000 # etol ftol maxiter maxeval
Generated 0 of 6 mixed pair_coeff terms from geometric mixing rule
WARNING: More than one fix rigid (src/RIGID/fix_rigid.cpp:709)
WARNING: More than one fix rigid (src/RIGID/fix_rigid.cpp:709)
WARNING: More than one fix rigid (src/RIGID/fix_rigid.cpp:709)
WARNING: More than one fix rigid (src/RIGID/fix_rigid.cpp:709)
WARNING: More than one fix rigid (src/RIGID/fix_rigid.cpp:709)
WARNING: More than one fix rigid (src/RIGID/fix_rigid.cpp:709)
WARNING: More than one fix rigid (src/RIGID/fix_rigid.cpp:709)
Neighbor list info ...
  update: every = 1 steps, delay = 0 steps, check = yes
  max neighbors/atom: 2000, page size: 100000
  master list distance cutoff = 2.54
  ghost atom cutoff = 2.54
  binsize = 1.27, bins = 8 8 8
  5 neighbor lists, perpetual/occasional/extra = 5 0 0
  (1) pair lj/cut, perpetual, skip from (4)
      attributes: half, newton on
      pair build: skip
      stencil: none
      bin: none
  (2) pair cosine/squared, perpetual, skip from (5)
      attributes: half, newton on, cut 0.8600000000000001
      pair build: skip
      stencil: none
      bin: none
  (3) pair zero, perpetual, skip from (4)
      attributes: half, newton on
      pair build: skip
      stencil: none
      bin: none
  (4) neighbor class addition, perpetual
      attributes: half, newton on
      pair build: half/bin/newton
      stencil: half/bin/3d
      bin: standard
  (5) neighbor class addition, perpetual, trim from (4)
      attributes: half, newton on, cut 0.8600000000000001
      pair build: trim
      stencil: none
      bin: none
Per MPI rank memory allocation (min/avg/max) = 19.1 | 19.1 | 19.1 Mbytes
   Step          Temp          E_pair         E_mol          TotEng         Press     
         0   0              0              0              0              3.33186e-311 
         1   0              0              0              0              3.33186e-311 
Loop time of 6.8e-05 on 1 procs for 1 steps with 23 atoms

0.0% CPU use with 1 MPI tasks x 1 OpenMP threads

Minimization stats:
  Stopping criterion = search direction is not downhill
  Energy initial, next-to-last, final = 
                     0                  0                  0
  Force two-norm initial, final = 0 0
  Force max component initial, final = 0 0
  Final line search alpha, max atom move = 0 0
  Iterations, force evaluations = 1 0

MPI task timing breakdown:
Section |  min time  |  avg time  |  max time  |%varavg| %total
---------------------------------------------------------------
Pair    | 2e-06      | 2e-06      | 2e-06      |   0.0 |  2.94
Bond    | 0          | 0          | 0          |   0.0 |  0.00
Neigh   | 0          | 0          | 0          |   0.0 |  0.00
Comm    | 2e-06      | 2e-06      | 2e-06      |   0.0 |  2.94
Output  | 0          | 0          | 0          |   0.0 |  0.00
Modify  | 0          | 0          | 0          |   0.0 |  0.00
Other   |            | 6.4e-05    |            |       | 94.12

Nlocal:             23 ave          23 max          23 min
Histogram: 1 0 0 0 0 0 0 0 0 0
Nghost:             18 ave          18 max          18 min
Histogram: 1 0 0 0 0 0 0 0 0 0
Neighs:              0 ave           0 max           0 min
Histogram: 1 0 0 0 0 0 0 0 0 0

Total # of neighbors = 0
Ave neighs/atom = 0
Ave special neighs/atom = 2.4347826
Neighbor list builds = 0
Dangerous builds = 0

fix 1 all langevin 1.0 1.0 50.0 12345
fix 2 all nve

thermo 50
compute t all temp
compute ep all pe
compute ek all ke
compute tm all momentum

dump 1 all atom 50 dump.patchy_pairs2

timestep 0.001
run 100000
Generated 0 of 6 mixed pair_coeff terms from geometric mixing rule
WARNING: More than one fix rigid (src/RIGID/fix_rigid.cpp:709)
WARNING: More than one fix rigid (src/RIGID/fix_rigid.cpp:709)
WARNING: More than one fix rigid (src/RIGID/fix_rigid.cpp:709)
WARNING: More than one fix rigid (src/RIGID/fix_rigid.cpp:709)
WARNING: More than one fix rigid (src/RIGID/fix_rigid.cpp:709)
WARNING: More than one fix rigid (src/RIGID/fix_rigid.cpp:709)
WARNING: More than one fix rigid (src/RIGID/fix_rigid.cpp:709)
WARNING: One or more atoms are time integrated more than once (src/modify.cpp:289)
Per MPI rank memory allocation (min/avg/max) = 17.97 | 17.97 | 17.97 Mbytes
   Step          Temp          E_pair         E_mol          TotEng         Press     
         1   0              0              0              0              0            
        50   0.003526506    0              0              0.0025298847  -0.047703645  
       100   0.0076438695   0              0              0.0054836455   0.01223446   
       150   0.011636517    0              0              0.0083479358   0.06841665   
       200   0.013813895    0              0              0.0099099679   0.042689268  
       250   0.015230083    0              0              0.010925929    0.015970283  
       300   0.018972224    0              0              0.013610508    0.048707571  
       350   0.018879709    0              0              0.013544139   -0.022758507  
       400   0.019698347    0              0              0.014131423    0.055806915  
       450   0.020539865    0              0              0.01473512     0.0021942822 
       500   0.023379265    0              0              0.016772082    0.034852028  
       550   0.022702163    0              0              0.016286334   -0.0045991857 
       600   0.022497463    0              0              0.016139484    0.022643784  
       650   0.022969523    0              0              0.016478136   -0.0437652    
       700   0.02167512     0              0              0.015549543   -0.022237655  
       750   0.025769561    0              0              0.018486859    0.020565505  
       800   0.02573511     0              0              0.018462144   -0.0256344    
       850   0.02120986     0              0              0.015215769   -0.028141436  
       900   0.024676642    0              0              0.017702808    0.047375001  
       950   0.030188995    0              0              0.021657322   -0.032731738  
      1000   0.032637639    0              0              0.023413958   -0.04364008   
      1050   0.038870791    0              0              0.027885568    0.0042133685 
      1100   0.041846419    0              0              0.030020257    0.018846079  
      1150   0.046882822    0              0              0.033633329    0.016667722  
      1200   0.048428573    0              0              0.034742237    0.00017203793
      1250   0.051031007    0              0              0.036609201   -0.05825761   
      1300   0.046286754    0              0              0.033205715    0.053076705  
      1350   0.05084192     0              0              0.036473551   -0.010055801  
      1400   0.054729508    0              0              0.039262473    0.009629083  
      1450   0.055609684    0              0              0.039893904    0.0059116485 
      1500   0.05311507     0              0              0.038104289    0.0059682557 
      1550   0.055333519    0              0              0.039695785   -0.0074934399 
      1600   0.059670243    0              0              0.042806913    0.039795519  
      1650   0.06514451     0              0              0.046734105   -0.030321697  
      1700   0.06693524     0              0              0.048018759   -0.038736824  
      1750   0.065854673    0              0              0.047243569   -0.1358312    
      1800   0.065936023    0              0              0.04730193    -0.001140293  
      1850   0.068384816    0              0              0.049058673   -0.018964147  
      1900   0.075790563    0              0              0.054371491    0.058773042  
      1950   0.082494799    0              0              0.059181051   -0.007861387  
      2000   0.088702751    0              0              0.063634582   -0.039279211  
      2050   0.09377574     0              0              0.0672739      0.018615787  
      2100   0.092631888    0              0              0.066453311    0.040337609  
      2150   0.092983104    0              0              0.06670527     0.0645671    
      2200   0.096430742    0              0              0.069178576   -0.018481825  
      2250   0.093382332    0              0              0.066991673   -0.020893774  
      2300   0.10177704     0              0              0.073013964    0.03723227   
      2350   0.099574747    0              0              0.071434058    0.022646491  
      2400   0.098454277    0              0              0.070630242    0.02258591   
      2450   0.096795471    0              0              0.06944023     0.06891818   
      2500   0.10461674     0              0              0.075051138   -0.016415265  
      2550   0.092225008    0              0              0.066161418    0.041596842  
      2600   0.094124587    0              0              0.06752416    -0.021891933  
      2650   0.088982944    0              0              0.06383559    -0.034450628  
      2700   0.095255341    0              0              0.068335353   -0.048020633  
      2750   0.094003118    0              0              0.067437019    0.012959851  
      2800   0.088512065    0              0              0.063497786   -0.062822277  
      2850   0.090377177    0              0              0.064835801    0.033001136  
      2900   0.082326242    0              0              0.05906013    -0.014781354  
      2950   0.082610418    0              0              0.059263996    0.047535245  
      3000   0.084660752    0              0              0.060734887   -0.04329871   
      3050   0.09448855     0              0              0.067785264    0.0093920435 
      3100   0.097275181    0              0              0.069784369    0.02974143   
      3150   0.1082717      0              0              0.077673177   -0.015868013  
      3200   0.10662607     0              0              0.076492617    0.0048940004 
      3250   0.10698935     0              0              0.076753227   -0.011556771  
      3300   0.11788931     0              0              0.084572764    0.075417041  
      3350   0.12833366     0              0              0.092065454   -0.021291454  
      3400   0.12385144     0              0              0.088849947    0.0094264428 
      3450   0.13787849     0              0              0.098912831    0.098871793  
      3500   0.14044607     0              0              0.10075479     0.085533367  
      3550   0.13878172     0              0              0.099560802    0.0087475193 
      3600   0.14121435     0              0              0.10130595     0.032943207  
      3650   0.55192501    -0.29890768     0              0.097038521   -0.88500631   
      3700   0.35010376    -0.29734561     0             -0.046184211   -0.75322279   
      3750   0.18755088    -0.25880934     0             -0.12426197     1.081484     
      3800   0.34265761    -0.4347309      0             -0.18891131    -0.079676592  
      3850   0.30745052    -0.43344892     0             -0.21288659    -0.088771424  
      3900   0.2246114     -0.39793935     0             -0.23680509     0.30170115   
      3950   0.20525023    -0.39693847     0             -0.24969373    -0.56724039   
      4000   0.21638853    -0.40867375     0             -0.2534385      0.23291146   
      4050   0.20717303    -0.40530334     0             -0.25667922    -0.44390427   
      4100   0.21488501    -0.41450228     0             -0.26034564     0.22545946   
      4150   0.20687593    -0.41244076     0             -0.26402977    -0.32567206   
      4200   0.21750645    -0.42286016     0             -0.26682292     0.19668259   
      4250   0.23185377    -0.43474151     0             -0.26841163    -0.0013414579 
      4300   0.23272356    -0.43463069     0             -0.26767683     0.041944977  
      4350   0.22510205    -0.43026728     0             -0.26878103     0.041394414  
      4400   0.22145761    -0.43309645     0             -0.27422468    -0.050230821  
      4450   0.23306751    -0.43427411     0             -0.2670735     -0.041893269  
      4500   0.24169655    -0.43340358     0             -0.26001258     0.022975672  
      4550   0.24284484    -0.43465295     0             -0.26043818    -0.066856649  
      4600   0.24406321    -0.43472819     0             -0.25963937     0.0075268471 
      4650   0.23634957    -0.43451175     0             -0.26495662     0.0057445643 
      4700   0.24292227    -0.43469478     0             -0.26042445     0.033725523  
      4750   0.24361996    -0.43463265     0             -0.25986181    -0.017469745  
      4800   0.24219236    -0.43478055     0             -0.26103386     0.026895092  
      4850   0.23490681    -0.43468014     0             -0.26616004     0.060926291  
      4900   0.23770245    -0.43470628     0             -0.26418061    -0.011516034  
      4950   0.23584976    -0.43470918     0             -0.26551262     0.018377106  
      5000   0.23123928    -0.43477863     0             -0.26888958    -0.0072539589 
      5050   0.22702384    -0.43464364     0             -0.27177871     0.018639336  
      5100   0.24575788    -0.43477695     0             -0.25847238    -0.026594791  
      5150   0.24107447    -0.43477942     0             -0.26183469     0.045543674  
      5200   0.25229418    -0.43468859     0             -0.25369495     0.022966079  
      5250   0.26133326    -0.43475347     0             -0.24727527    -0.020142917  
      5300   0.25379647    -0.43478014     0             -0.25270876    -0.0039871875 
      5350   0.26830541    -0.43477189     0             -0.24229193     0.010148131  
      5400   0.28080156    -0.43478257     0             -0.23333797     0.02482309   
      5450   0.29732792    -0.4347825      0             -0.22148204    -0.013561609  
      5500   0.28605274    -0.43478259     0             -0.22957084    -0.0085330192 
      5550   0.27536473    -0.43475828     0             -0.23721401    -0.0025239951 
      5600   0.2671399     -0.43473899     0             -0.24309515    -0.023794951  
      5650   0.26442711    -0.43470107     0             -0.24500336     0.0016864338 
      5700   0.28073212    -0.43477364     0             -0.23337886     0.036753336  
      5750   0.30175767    -0.43471431     0             -0.21823598     0.047907635  
      5800   0.30355225    -0.43478062     0             -0.21701487    -0.015046655  
      5850   0.30092358    -0.43473381     0             -0.21885386    -0.081758923  
      5900   0.29950294    -0.43477693     0             -0.21991613     0.070791291  
      5950   0.31039362    -0.43476502     0             -0.21209134     0.04893918   
      6000   0.30560007    -0.4347826      0             -0.21554777     0.0046158841 
      6050   0.31001965    -0.43474022     0             -0.21233482     0.0093152488 
      6100   0.31866707    -0.43472278     0             -0.2061138     -0.063629734  
      6150   0.32095829    -0.43468913     0             -0.20443644     0.054491827  
      6200   0.3211575     -0.43465673     0             -0.20426113     0.0042833279 
      6250   0.32550572    -0.43443861     0             -0.20092363    -0.0051346944 
      6300   0.32078814    -0.43455245     0             -0.20442183    -0.033850518  
      6350   0.31221522    -0.43469178     0             -0.21071129    -0.0048791354 
      6400   0.3087044     -0.43460482     0             -0.21314297     0.0023005362 
      6450   0.30822205    -0.43469623     0             -0.21358041     0.037627822  
      6500   0.2993432     -0.43478197     0             -0.22003576    -0.0097985186 
      6550   0.29201244    -0.43472665     0             -0.22523947    -0.023251607  
      6600   0.30018675    -0.43477503     0             -0.21942367    -0.01131342   
      6650   0.3243232     -0.43477259     0             -0.20210594    -0.060344328  
      6700   0.33836005    -0.43477574     0             -0.19203918     0.023228212  
      6750   0.33991523    -0.43476957     0             -0.19091734    -0.030068154  
      6800   0.34465515    -0.43616431     0             -0.1889117     -0.020434158  
      6850   0.34454829    -0.43620633     0             -0.18903038     0.0037341555 
      6900   0.34035346    -0.43625564     0             -0.19208903    -0.006375835  
      6950   0.35102844    -0.43621526     0             -0.18439051    -0.056453549  
      7000   0.35478492    -0.43624522     0             -0.1817256      0.038664186  
      7050   0.37864727    -0.4364029      0             -0.16476465     0.026132089  
      7100   0.38000833    -0.43645541     0             -0.16384074    -0.071883339  
      7150   0.37676901    -0.43652376     0             -0.16623295     0.039882311  
      7200   0.38626801    -0.43659571     0             -0.1594904      0.017978003  
      7250   0.37455488    -0.43664195     0             -0.16793954    -0.040143082  
      7300   0.37576614    -0.43675222     0             -0.16718086     0.053386049  
      7350   0.35860885    -0.43666909     0             -0.17940622    -0.044465163  
      7400   0.34746238    -0.43673742     0             -0.18747093    -0.017994061  
      7450   0.332754      -0.43659285     0             -0.19787803     0.049769286  
      7500   0.32985247    -0.43667173     0             -0.20003843     0.026434306  
      7550   0.33097624    -0.43694839     0             -0.19950892     0.030231083  
      7600   0.33042374    -0.43696932     0             -0.1999262      0.04872722   
      7650   0.33537676    -0.43719456     0             -0.19659819    -0.029998558  
      7700   0.34130553    -0.43721025     0             -0.19236063     0.01027222   
      7750   0.34152725    -0.43723781     0             -0.19222913    -0.03822757   
      7800   0.33586507    -0.43729287     0             -0.19634619    -0.082088573  
      7850   0.34937123    -0.43730274     0             -0.18666685     0.055726357  
      7900   0.35279938    -0.4372446      0             -0.18414939     0.025068807  
      7950   0.35249643    -0.43732552     0             -0.18444765     0.0082797204 
      8000   0.34424336    -0.43744817     0             -0.19049097     0.044665272  
      8050   0.32459425    -0.43748156     0             -0.20462046    -0.00047947955
      8100   0.33212435    -0.43746555     0             -0.19920243    -0.0015022711 
      8150   0.32842414    -0.43736293     0             -0.20175431     0.034435918  
      8200   0.3229305     -0.43737122     0             -0.20570369     0.084996262  
      8250   0.34942789    -0.43737238     0             -0.18669586    -0.0020925236 
      8300   0.35845443    -0.43756648     0             -0.18041439     0.064735901  
      8350   0.35482679    -0.4375537      0             -0.18300404     0.059887971  
      8400   0.33586202    -0.43755572     0             -0.19661122     0.035087525  
      8450   0.34797848    -0.43753808     0             -0.18790135     0.0011225961 
      8500   0.35106295    -0.43756447     0             -0.18571496     0.043636837  
      8550   0.34591136    -0.43732976     0             -0.18917595     0.0083406639 
      8600   0.34279081    -0.43745912     0             -0.19154397     0.018860567  
      8650   0.34744585    -0.4375569      0             -0.18830227    -0.056284166  
      8700   0.35621252    -0.43748539     0             -0.18194162    -0.012360952  
      8750   0.36756635    -0.43742765     0             -0.17373874     0.0010602166 
      8800   0.36526385    -0.43748728     0             -0.17545017     0.043069673  
      8850   0.36486569    -0.43738653     0             -0.17563506     0.056544119  
      8900   0.35053893    -0.43739169     0             -0.18591811     0.0027885023 
      8950   0.35668427    -0.43742042     0             -0.18153823    -0.02387178   
      9000   0.35484277    -0.43735599     0             -0.18279487     0.01203241   
      9050   0.35958702    -0.43729535     0             -0.17933075     0.014022757  
      9100   0.36718732    -0.437336       0             -0.17391901    -0.1150995    
      9150   0.36606496    -0.43725958     0             -0.17464776    -0.040001579  
      9200   0.37615649    -0.43727114     0             -0.16741974     0.077471178  
      9250   0.36394909    -0.43724018     0             -0.17614626    -0.0059365475 
      9300   0.34504876    -0.43720251     0             -0.18966753     0.031040301  
      9350   0.33265588    -0.43715704     0             -0.1985126     -0.018365335  
      9400   0.33844709    -0.43711951     0             -0.19432051    -0.014463766  
      9450   0.34780738    -0.43708566     0             -0.18757167     0.00086824178
      9500   0.3599459     -0.43706148     0             -0.17883943     0.080454688  
      9550   0.36702462    -0.43699937     0             -0.1736991      0.073901177  
      9600   0.37920095    -0.4370106      0             -0.16497513    -0.018107219  
      9650   0.37938022    -0.43698304     0             -0.16481897    -0.011571731  
      9700   0.37832057    -0.43694129     0             -0.1655374     -0.00824781   
      9750   0.38691884    -0.43694429     0             -0.15937208    -0.0078306152 
      9800   0.39471625    -0.43687658     0             -0.15371057    -0.0037256249 
      9850   0.41188008    -0.43688224     0             -0.14140305     0.0046285975 
      9900   0.43788789    -0.43690594     0             -0.12276897    -0.007983271  
      9950   0.44600856    -0.43689072     0             -0.11692805     0.038635691  
     10000   0.4380703     -0.43686609     0             -0.12259826     0.035849458  
     10050   0.45305972    -0.43682651     0             -0.11180541    -0.01790179   
     10100   0.44724481    -0.43677852     0             -0.11592899    -0.089138126  
     10150   0.44374722    -0.43690006     0             -0.11855966     0.076461104  
     10200   0.43828533    -0.43694323     0             -0.12252115    -0.1137947    
     10250   0.43962509    -0.43696096     0             -0.12157774     0.010399446  
     10300   0.43944563    -0.43697632     0             -0.12172184     0.091741838  
     10350   0.43484167    -0.43700308     0             -0.12505144    -0.015128963  
     10400   0.45371621    -0.43701285     0             -0.11152079    -0.021360252  
     10450   0.47284149    -0.4370246      0             -0.097812227   -0.041970918  
     10500   0.47998004    -0.43702395     0             -0.092690442   -0.086286563  
     10550   0.49061388    -0.43708543     0             -0.085123302   -0.084097325  
     10600   0.49574685    -0.43702357     0             -0.08137909    -0.063073213  
     10650   0.49460333    -0.43711777     0             -0.082293643    0.03727435   
     10700   0.49817275    -0.43717538     0             -0.079790579    0.1046382    
     10750   0.49928015    -0.43718268     0             -0.079003437    0.015792989  
     10800   0.49645131    -0.43705717     0             -0.080907318    0.085090108  
     10850   0.50999639    -0.43722678     0             -0.071359803   -0.04209344   
     10900   0.50564044    -0.43725369     0             -0.074511631    0.059953652  
     10950   0.51047315    -0.43726743     0             -0.071058425    0.15096095   
     11000   0.5011156     -0.43727597     0             -0.077779995    0.019533378  
     11050   0.49822367    -0.43725667     0             -0.079835344    0.042249899  
     11100   0.48391137    -0.43724518     0             -0.09009137     0.067262081  
     11150   0.48381016    -0.43726715     0             -0.090185948   -0.12902446   
     11200   0.47955572    -0.43724744     0             -0.093218338   -0.056121299  
     11250   0.49287253    -0.43717436     0             -0.083591891    0.0039206412 
     11300   0.49725295    -0.43699838     0             -0.080273433    0.042946525  
     11350   0.49120662    -0.43711142     0             -0.084724059   -0.02689381   
     11400   0.49633031    -0.43705088     0             -0.080987829    0.084080081  
     11450   0.50085071    -0.43700382     0             -0.07769787    -0.031575114  
     11500   0.51417529    -0.43698195     0             -0.068117074    0.0051113811 
     11550   0.50439109    -0.43705673     0             -0.075210952   -0.052402548  
     11600   0.5083185     -0.43707365     0             -0.072410374    0.039563082  
     11650   0.50313576    -0.4370884      0             -0.076143182   -0.0235414    
     11700   0.50849335    -0.4369425      0             -0.072153794    0.0042478548 
     11750   0.50864337    -0.43685223     0             -0.071955898   -0.019381543  
     11800   0.50832746    -0.4369686      0             -0.072298907   -0.00060066113
     11850   0.49994273    -0.43720522     0             -0.078550651   -0.017870561  
     11900   0.51104258    -0.43718782     0             -0.070570315   -0.068106639  
     11950   0.51795563    -0.43710075     0             -0.06552389    -0.017530563  
     12000   0.52220816    -0.43736692     0             -0.062739333    0.065087375  
     12050   0.50398749    -0.43747404     0             -0.075917798    0.089309783  
     12100   0.50502178    -0.43751906     0             -0.075220827   -0.068231592  
     12150   0.49750534    -0.43765293     0             -0.080746923   -0.082448585  
     12200   0.50273066    -0.43770286     0             -0.077048255   -0.0043719389 
     12250   0.50516025    -0.4378467      0             -0.075449132   -0.13659226   
     12300   0.51784242    -0.43790643     0             -0.066410786   -0.081383207  
     12350   0.5353785     -0.43805332     0             -0.05397744     0.023193696  
     12400   0.52229304    -0.43816699     0             -0.063478509   -0.051112812  
     12450   0.52157173    -0.43821037     0             -0.064039345   -0.0084516619 
     12500   0.52552777    -0.43844919     0             -0.061440132    0.054885568  
     12550   0.52720037    -0.43864977     0             -0.06044081    -0.00385753   
     12600   0.53200033    -0.43884815     0             -0.057195746   -0.01660679   
     12650   0.53691464    -0.43897081     0             -0.053792915   -0.040927077  
     12700   0.51515856    -0.43920263     0             -0.069632353   -0.13068752   
     12750   0.51135929    -0.4393297      0             -0.072484989    0.014978602  
     12800   0.51419826    -0.43948373     0             -0.07060237     0.096941387  
     12850   0.51162937    -0.43967507     0             -0.07263661     0.098838435  
     12900   0.51447087    -0.43984099     0             -0.070764061    0.031005956  
     12950   0.53210906    -0.43993698     0             -0.058206564    0.1241936    
     13000   0.53430595    -0.44009118     0             -0.056784743   -0.039465978  
     13050   0.55061142    -0.44018763     0             -0.045183783    0.031296007  
     13100   0.56774172    -0.44029822     0             -0.033005247    0.010979761  
     13150   0.56479488    -0.4404685      0             -0.035289571   -0.019877447  
     13200   0.55712098    -0.44071388     0             -0.041040135    0.02589577   
     13250   0.56397322    -0.44095151     0             -0.036362028   -0.031957556  
     13300   0.56398177    -0.4411419      0             -0.036546284    0.013111338  
     13350   0.55881441    -0.44134292     0             -0.040454321    0.029691963  
     13400   0.55489823    -0.44152142     0             -0.04344225    -0.02220916   
     13450   0.54314215    -0.44180619     0             -0.052160734   -0.0047578243 
     13500   0.51546953    -0.44200083     0             -0.072207475    0.077302479  
     13550   0.51280238    -0.4421588      0             -0.074278834    0.042703394  
     13600   0.52933887    -0.44243353     0             -0.062690428   -0.010687686  
     13650   0.54190647    -0.44277787     0             -0.054018883    0.015217277  
     13700   0.53843543    -0.44287126     0             -0.056602361    0.014395265  
     13750   0.5404227     -0.44349097     0             -0.055796422    0.0010725049 
     13800   0.5384592     -0.44384396     0             -0.057558011    0.024036709  
     13850   0.52654775    -0.44426204     0             -0.066521265    0.09210403   
     13900   0.51048079    -0.44464639     0             -0.078431911   -0.041067894  
     13950   0.53212587    -0.44502979     0             -0.063287321    0.023687607  
     14000   0.5407339     -0.44542339     0             -0.057505593   -0.019323207  
     14050   0.54297008    -0.44587794     0             -0.056355931    0.015504791  
     14100   0.54630883    -0.4464186      0             -0.054501402   -0.071995711  
     14150   0.54770563    -0.44681909     0             -0.053899834    0.13333994   
     14200   0.53689599    -0.44715945     0             -0.061994943   -0.030402936  
     14250   0.52996647    -0.44766277     0             -0.067469437   -0.037931905  
     14300   0.54086912    -0.44814945     0             -0.060134642    0.012134604  
     14350   0.51959629    -0.44874109     0             -0.075987224   -0.014399941  
     14400   0.52535472    -0.44931775     0             -0.072432841    0.029751856  
     14450   0.52791883    -0.44988238     0             -0.071158008    0.072926961  
     14500   0.54960176    -0.45039833     0             -0.056118807   -0.067524859  
     14550   0.5619067     -0.45098415     0             -0.047877172    0.12421608   
     14600   0.58203346    -0.45152595     0             -0.033980213   -0.016753929  
     14650   0.5746113     -0.45261221     0             -0.040391055   -0.038301954  
     14700   0.58041846    -0.45387754     0             -0.037490383   -0.076468654  
     14750   0.56631023    -0.45540383     0             -0.049137795   -0.033315853  
     14800   0.56520723    -0.45679714     0             -0.051322394    0.088154496  
     14850   0.56154872    -0.45941392     0             -0.056563753    0.064176815  
     14900   0.55745451    -0.46193229     0             -0.062019274   -0.01395732   
     14950   0.56565162    -0.46457758     0             -0.058784024   -0.042931627  
     15000   0.57931532    -0.46760602     0             -0.052010247   -0.035381159  
     15050   0.59241312    -0.47083366     0             -0.045841642    0.021145911  
     15100   0.57690882    -0.47422779     0             -0.060358415   -0.003180163  
     15150   0.58206166    -0.47714452     0             -0.059578546   -0.060646609  
     15200   0.59175792    -0.47821646     0             -0.05369447     0.043260021  
     15250   0.58175262    -0.47555125     0             -0.05820698     0.055838067  
     15300   0.57610097    -0.46830734     0             -0.055017513    0.14981063   
     15350   0.55475527    -0.45922748     0             -0.061250874    0.011124328  
     15400   0.53019655    -0.45594771     0             -0.075589316    0.0861194    
     15450   0.5504903     -0.46252736     0             -0.067610409   -0.0023314882 
     15500   0.57194477    -0.47164661     0             -0.061338404   -0.035859377  
     15550   0.58862455    -0.47714797     0             -0.054873834    0.023336606  
     15600   0.61390129    -0.47810399     0             -0.037696546    0.099905399  
     15650   0.60712902    -0.47621725     0             -0.040668176   -0.0065469741 
     15700   0.5858979     -0.47315321     0             -0.052835146   -0.016134992  
     15750   0.58913058    -0.46989223     0             -0.047255078   -0.01622967   
     15800   0.56747453    -0.46661033     0             -0.059509034    0.084078373  
     15850   0.56755388    -0.46334652     0             -0.056188304    0.13553017   
     15900   0.55327722    -0.4604636      0             -0.063547333    0.04514044   
     15950   0.53878963    -0.45794945     0             -0.07142645    -0.013550367  
     16000   0.5248849     -0.4555372      0             -0.078989341    0.013864012  
     16050   1.0457241     -0.88737442     0             -0.13718102     0.09445987   
     16100   0.50285589    -0.67496864     0             -0.3142242     -0.010299009  
     16150   0.64081407    -0.85972046     0             -0.40000602     0.11237702   
     16200   0.53025052    -0.84193692     0             -0.46153981     0.061090336  
     16250   0.51745912    -0.85640711     0             -0.48518644     0.070914124  
     16300   0.52866103    -0.86993273     0             -0.4906759     -0.042552239  
     16350   0.54536738    -0.88127009     0             -0.49002827     0.049684911  
     16400   0.53241667    -0.87275178     0             -0.49080069    -0.077905624  
     16450   0.5376725     -0.87541583     0             -0.48969425     0.077325443  
     16500   0.54433114    -0.88044507     0             -0.48994664    -0.142478     
     16550   0.54738629    -0.8810079      0             -0.48831773    -0.036949008  
     16600   0.54651377    -0.87743967     0             -0.48537544     0.066101233  
     16650   0.53532001    -0.8826687      0             -0.49863479     0.087597758  
     16700   0.53701985    -0.883904       0             -0.49865062    -0.01019104   
     16750   0.54452333    -0.88376089     0             -0.49312459    -0.10847614   
     16800   0.55068382    -0.88645643     0             -0.49140065     0.0068709097 
     16850   0.5523815     -0.88809031     0             -0.49181662    -0.048668678  
     16900   0.56336207    -0.8895075      0             -0.48535646    -0.12349295   
     16950   0.54955124    -0.8913529      0             -0.49710962     0.16276689   
     17000   0.55593875    -0.89272619     0             -0.49390056    -0.042148695  
     17050   0.54986025    -0.8944         0             -0.49993504     0.024412584  
     17100   0.56501693    -0.89588724     0             -0.49054901    -0.0012694214 
     17150   0.55262327    -0.89753185     0             -0.50108472    -0.09074184   
     17200   0.54754933    -0.89872969     0             -0.50592256     0.075880016  
     17250   0.5552887     -0.90012298     0             -0.50176369     0.030647448  
     17300   0.56408839    -0.90190242     0             -0.49723032     0.055611334  
     17350   0.57328378    -0.90330938     0             -0.49204058     0.085202084  
     17400   0.57482946    -0.90497269     0             -0.49259504     0.064415245  
     17450   0.57251672    -0.90668731     0             -0.4959688      0.045582348  
     17500   0.56159024    -0.90819443     0             -0.50531448    -0.018581683  
     17550   0.54603613    -0.91018236     0             -0.51846079    -0.037707808  
     17600   0.55079986    -0.9118886      0             -0.51674957    -0.00021518976
     17650   0.56423799    -0.91293245     0             -0.50815302    -0.024641916  
     17700   0.57074146    -0.91268347     0             -0.50323851     0.073496051  
     17750   0.58783577    -0.91089823     0             -0.48918996    -0.060281931  
     17800   0.57238194    -0.90737006     0             -0.49674824     0.061345668  
     17850   0.58683716    -0.90416978     0             -0.48317791     0.076776128  
     17900   0.57016073    -0.90294335     0             -0.49391501     0.064025203  
     17950   0.58455917    -0.90487978     0             -0.48552212    -0.029558071  
     18000   0.59896601    -0.90828529     0             -0.47859228    -0.026492056  
     18050   0.5927248     -0.9114578      0             -0.48624218    -0.033561039  
     18100   0.61363402    -0.91280115     0             -0.47258544     0.072046807  
     18150   0.62643441    -0.9125737      0             -0.4631751      0.024306966  
     18200   0.61893059    -0.91164952     0             -0.4676341     -0.04679285   
     18250   0.62959395    -0.91043485     0             -0.45876962    -0.0051072869 
     18300   0.63253571    -0.90963056     0             -0.45585495    -0.01383572   
     18350   0.62359637    -0.90931788     0             -0.46195526     0.062950352  
     18400   0.62364897    -0.90933259     0             -0.46193224     0.048813977  
     18450   0.60174128    -0.91047352     0             -0.47878956    -0.062078902  
     18500   0.59949283    -0.911689       0             -0.48161805     0.029401143  
     18550   0.58294606    -0.91295179     0             -0.49475136    -0.073158972  
     18600   0.58587342    -0.91235882     0             -0.49205832    -0.00012656308
     18650   0.58736102    -0.9103179      0             -0.48895021    -0.0085198863 
     18700   0.58718753    -0.90789054     0             -0.48664732    -0.035498202  
     18750   0.58227242    -0.90640517     0             -0.488688      -0.057909525  
     18800   0.58684511    -0.9066706      0             -0.48567302     0.038724537  
     18850   0.60429153    -0.90875547     0             -0.47524198    -0.082140625  
     18900   0.59417583    -0.91110858     0             -0.484852       0.020269229  
     18950   0.59371999    -0.91276628     0             -0.48683672     0.0081328674 
     19000   0.5944596     -0.91288126     0             -0.48642111     0.12585973   
     19050   0.57057835    -0.91227739     0             -0.50294944    -0.012053482  
     19100   0.57354694    -0.91099314     0             -0.49953555    -0.12281687   
     19150   0.56813226    -0.90928164     0             -0.5017085      0.072001688  
     19200   0.57252151    -0.90788849     0             -0.49716654     0.016073567  
     19250   0.56375986    -0.90650015     0             -0.50206373     0.088252331  
     19300   0.57249987    -0.90655595     0             -0.49584952    -0.03266957   
     19350   0.59257518    -0.9066327      0             -0.48152442     0.011162859  
     19400   0.59347725    -0.90742094     0             -0.48166552    -0.014115226  
     19450   0.59017949    -0.90824177     0             -0.48485214    -0.025108575  
     19500   0.58286618    -0.90946319     0             -0.49132006    -0.021830694  
     19550   0.58458234    -0.91099072     0             -0.49161643    -0.00051882094
     19600   0.59573342    -0.91218286     0             -0.48480888    -0.048504025  
     19650   0.6057678     -0.91278813     0             -0.47821558     0.11714259   
     19700   0.61566074    -0.91260025     0             -0.47093059    -0.066885206  
     19750   0.61166191    -0.91230763     0             -0.4735067      0.047730639  
     19800   0.61154945    -0.91188649     0             -0.47316623    -0.061966492  
     19850   0.62212105    -0.91200557     0             -0.46570134     0.08932566   
     19900   0.62175025    -0.91232577     0             -0.46628755    -0.033164192  
     19950   0.62899859    -0.91292149     0             -0.46168337     0.051047526  
     20000   0.64809919    -0.9123303      0             -0.44738957     0.034701454  
     20050   0.62743809    -0.91000151     0             -0.45988287     0.061183406  
     20100   0.63451806    -0.90612133     0             -0.45092359    -0.041850853  
     20150   0.63580524    -0.90151357     0             -0.44539242     0.015555548  
     20200   0.63429997    -0.89711248     0             -0.44207119     0.030568532  
     20250   0.62415124    -0.89300541     0             -0.44524474     0.023216621  
     20300   0.60813091    -0.88925095     0             -0.45298313    -0.051691565  
     20350   0.61397562    -0.88618857     0             -0.4457278      0.1503718    
     20400   0.61520253    -0.88370497     0             -0.44236402    -0.02309479   
     20450   0.622274      -0.88161625     0             -0.43520229    -0.077752192  
     20500   0.61638711    -0.88026934     0             -0.43807858    -0.037698389  
     20550   0.59893905    -0.87911611     0             -0.44944245    -0.022842037  
     20600   0.58705112    -0.87818804     0             -0.45704267    -0.029539981  
     20650   0.59232307    -0.87756377     0             -0.45263635     0.03301501   
     20700   0.59817802    -0.87738558     0             -0.44825787    -0.082804561  
     20750   0.58116343    -0.8772122      0             -0.46029061     0.036095939  
     20800   0.56349251    -0.87700597     0             -0.47276135     0.071311041  
     20850   0.55548527    -0.87698873     0             -0.47848843    -0.02518313   
     20900   0.54976999    -0.87705575     0             -0.48265554     0.037319048  
     20950   0.55538198    -0.87736967     0             -0.47894347     0.083628791  
     21000   0.56402626    -0.8776285      0             -0.47300096    -0.084734277  
     21050   0.55038332    -0.8779968      0             -0.48315659    -0.0093883409 
     21100   0.56676978    -0.87848616     0             -0.47189044     0.031467705  
     21150   0.58517547    -0.87897117     0             -0.45917138    -0.05671315   
     21200   0.59396962    -0.87990721     0             -0.45379857     0.065064814  
     21250   0.59912816    -0.88077992     0             -0.45097059     0.069130748  
     21300   0.58940433    -0.88191875     0             -0.45908521     0.091742534  
     21350   0.5748625     -0.8831211      0             -0.47071974     0.017109225  
     21400   0.57320365    -0.8843684      0             -0.47315708     0.068069823  
     21450   0.55846057    -0.88551384     0             -0.48487909     0.074019293  
     21500   0.55309989    -0.8871479      0             -0.49035884    -0.09509527   
     21550   0.55517761    -0.88890922     0             -0.49062963     0.091089589  
     21600   0.55335358    -0.89052093     0             -0.49354988     0.07173654   
     21650   0.55106742    -0.89264824     0             -0.49731727     0.078714849  
     21700   0.55497841    -0.8944398      0             -0.49630312    -0.11574507   
     21750   0.54969193    -0.89643331     0             -0.5020891      0.01082603   
     21800   0.55405261    -0.89813183     0             -0.5006593      0.10492651   
     21850   0.5781245     -0.89883564     0             -0.48409415     0.057222842  
     21900   0.58705941    -0.89908376     0             -0.47793244     0.10227968   
     21950   0.60506464    -0.8984446      0             -0.46437649     0.073485957  
     22000   0.6170041     -0.89659718     0             -0.4539638      0.10186959   
     22050   0.60570011    -0.89370909     0             -0.4591851      0.019761665  
     22100   0.60467393    -0.89089661     0             -0.45710879     0.060968207  
     22150   0.59399046    -0.88820202     0             -0.46207842    -0.030266402  
     22200   0.58795534    -0.88568134     0             -0.46388729    -0.062116953  
     22250   0.56162204    -0.88348634     0             -0.48058357    -0.033466223  
     22300   0.55512174    -0.88144587     0             -0.48320636     0.06059764   
     22350   0.57431757    -0.87966119     0             -0.46765076     0.013456553  
     22400   0.58190941    -0.87814086     0             -0.4606841     -0.0022082448 
     22450   0.56909574    -0.87694828     0             -0.46868394     0.073573795  
     22500   0.55669585    -0.8760642      0             -0.47669544     0.01923033   
     22550   0.5732851     -0.8751219      0             -0.46385216     0.040289811  
     22600   0.57706032    -0.87445549     0             -0.46047744    -0.019969796  
     22650   0.55728489    -0.87403631     0             -0.47424498    -0.02330428   
     22700   0.5577522     -0.87356293     0             -0.47343635    -0.078776858  
     22750   0.57069937    -0.87307093     0             -0.46365616     0.069527894  
     22800   0.56978709    -0.87291212     0             -0.46415181     0.043033997  
     22850   0.57465456    -0.87267057     0             -0.46041839    -0.12279023   
     22900   0.56663649    -0.87222539     0             -0.4657253     -0.021162445  
     22950   0.57330006    -0.87222557     0             -0.46094509     0.026866576  
     23000   0.58114983    -0.87235554     0             -0.4554437      0.028566863  
     23050   0.57298364    -0.87235805     0             -0.46130457    -0.017797497  
     23100   0.5617298     -0.87228794     0             -0.46930786    -0.035207452  
     23150   0.56860495    -0.87236861     0             -0.46445636    -0.11060444   
     23200   0.57712494    -0.87230624     0             -0.45828183     0.076712032  
     23250   0.58680817    -0.87221811     0             -0.45124703     0.072856303  
     23300   0.56591155    -0.87268264     0             -0.46670262    -0.024999918  
     23350   0.56142083    -0.87291548     0             -0.47015706     0.030213077  
     23400   0.574295      -0.87314399     0             -0.46114975    -0.00070931998
     23450   0.57856997    -0.87339299     0             -0.45833192     0.066001391  
     23500   0.56709986    -0.87363825     0             -0.46680574    -0.053305764  
     23550   0.57573601    -0.87401225     0             -0.46098424     0.041728452  
     23600   0.56749149    -0.8742102      0             -0.46709674    -0.062849415  
     23650   0.56207166    -0.87454822     0             -0.4713229     -0.031633508  
     23700   0.55109125    -0.87483937     0             -0.4794913      0.058355266  
     23750   0.55437343    -0.8751411      0             -0.47743843    -0.04917364   
     23800   0.56198854    -0.87533773     0             -0.47217204     0.034003272  
     23850   0.56283547    -0.87565568     0             -0.47188241    -0.058187006  
     23900   0.53767798    -0.8758766      0             -0.49015109    -0.018194979  
     23950   0.51870117    -0.87604178     0             -0.50393007     0.011702701  
     24000   0.52082025    -0.8760039      0             -0.50237198     0.0063261435 
     24050   0.54368521    -0.87647099     0             -0.48643595    -0.044240679  
     24100   0.53952983    -0.8764947      0             -0.48944069     0.051063795  
     24150   0.55703239    -0.8768372      0             -0.477227       0.13093342   
     24200   0.57296572    -0.8768901      0             -0.46584947     0.089708442  
     24250   0.59817443    -0.87701837     0             -0.44789323    -0.10635454   
     24300   0.6040955     -0.87708001     0             -0.44370716     0.0044870477 
     24350   0.59789847    -0.87708853     0             -0.44816137    -0.0033535323 
     24400   0.59992484    -0.87702405     0             -0.44664319    -0.02091067   
     24450   0.60060201    -0.87698896     0             -0.4461223      0.014402645  
     24500   0.6014298     -0.87844716     0             -0.44698665     0.00040843665
     24550   0.60144863    -0.8784112      0             -0.44693719    -0.01973392   
     24600   0.60073817    -0.87860844     0             -0.4476441      0.020406272  
     24650   0.60911853    -0.87875591     0             -0.44177957     0.0070615541 
     24700   0.60902531    -0.87883548     0             -0.44192602     0.029189992  
     24750   0.60775397    -0.87880328     0             -0.44280587    -0.06418419   
     24800   0.61505978    -0.87880303     0             -0.43756449     0.11440726   
     24850   0.61883217    -0.87933906     0             -0.43539424    -0.017659722  
     24900   0.63268751    -0.87966708     0             -0.42578256    -0.013468806  
     24950   0.61171612    -0.87993584     0             -0.44109602    -0.010575252  
     25000   0.61153138    -0.88021397     0             -0.44150668     0.094334835  
     25050   0.63060291    -0.88060893     0             -0.42821989    -0.037597394  
     25100   0.61966665    -0.88091876     0             -0.4363753      0.050788864  
     25150   0.63640504    -0.88139233     0             -0.42484089     0.09976976   
     25200   0.61632746    -0.88174343     0             -0.43959547     0.004982347  
     25250   0.61278519    -0.88184084     0             -0.44223407    -0.012950294  
     25300   0.6383658     -0.88169934     0             -0.42374127     0.047238476  
     25350   0.65784759    -0.88163876     0             -0.40970462     0.072801018  
     25400   0.67219459    -0.88197897     0             -0.39975242     0.040093122  
     25450   0.67731919    -0.88190825     0             -0.39600536    -0.051415665  
     25500   0.68465544    -0.8817786      0             -0.39061275    -0.06548062   
     25550   0.69899135    -0.88149935     0             -0.38004903    -0.047075634  
     25600   0.7055753     -0.88101017     0             -0.37483658     0.052256504  
     25650   0.70729692    -0.88101363     0             -0.37360497     0.016095601  
     25700   0.73265869    -0.88065612     0             -0.35505315     0.089354875  
     25750   0.73694662    -0.88044552     0             -0.35176642     0.015538563  
     25800   0.73546334    -0.88014066     0             -0.35252565     0.01258197   
     25850   0.74973643    -0.87988066     0             -0.34202627     0.023485846  
     25900   0.74318396    -0.87965989     0             -0.34650618     0.025047733  
     25950   0.74308494    -0.87956928     0             -0.34648661     0.03166619   
     26000   0.73130753    -0.87935526     0             -0.3547216      0.023266677  
     26050   0.73514102    -0.87909002     0             -0.35170625     0.061000287  
     26100   0.74883381    -0.87882679     0             -0.34161993     0.014501701  
     26150   1.2844138     -1.3045327      0             -0.38310539    -0.14300979   
     26200   0.85864594    -1.1961956      0             -0.58021045     0.011543533  
     26250   0.70273546    -1.1849303      0             -0.68079401     0.61817619   
     26300   0.7700315     -1.2947637      0             -0.74234977    -0.20336478   
     26350   0.71711205    -1.2915094      0             -0.77705943     0.030503906  
     26400   0.68971088    -1.297757       0             -0.80296437     0.10918738   
     26450   0.67323572    -1.3010218      0             -0.81804833    -0.17091629   
     26500   0.66181898    -1.2981737      0             -0.82339057     0.061019602  
     26550   0.66998471    -1.3087504      0             -0.8281092     -0.091736196  
     26600   0.68334391    -1.3111866      0             -0.82096166     0.014356323  
     26650   0.65570237    -1.3082399      0             -0.83784472     0.035849357  
     26700   0.64349189    -1.3130577      0             -0.85142224    -0.083173259  
     26750   0.64973242    -1.3123583      0             -0.8462459      0.039982291  
     26800   0.66241351    -1.3131601      0             -0.83795041     0.023606302  
     26850   0.65825814    -1.3144549      0             -0.84222624    -0.036397681  
     26900   0.63943261    -1.3142021      0             -0.85547869    -0.090661314  
     26950   0.66028837    -1.3157229      0             -0.84203772     0.064738871  
     27000   0.65509281    -1.3165622      0             -0.84660434     0.01639638   
     27050   0.64769598    -1.3172302      0             -0.85257869    -0.014081366  
     27100   0.65957304    -1.3181981      0             -0.8450261      0.0011530115 
     27150   0.65672472    -1.3198685      0             -0.84873995     0.064145881  
     27200   0.65670951    -1.3218338      0             -0.85071613     0.050167623  
     27250   0.66317146    -1.3240587      0             -0.84830525    -0.0017400736 
     27300   0.65366752    -1.3268829      0             -0.85794747     0.010156362  
     27350   0.64982783    -1.3293757      0             -0.86319483     0.088334631  
     27400   0.65445397    -1.3324339      0             -0.8629343     -0.044700608  
     27450   0.65473954    -1.3347936      0             -0.86508919     0.062903209  
     27500   0.66739446    -1.336968       0             -0.85818505     0.080217364  
     27550   0.67659769    -1.3388424      0             -0.85345707    -0.040986733  
     27600   0.67124495    -1.3400537      0             -0.85850843     0.0533678    
     27650   0.65952815    -1.3408461      0             -0.86770631    -0.035475719  
     27700   0.65063204    -1.3415007      0             -0.87474296    -0.076862191  
     27750   0.67002583    -1.3422524      0             -0.86158166     0.07195208   
     27800   0.68098009    -1.3423459      0             -0.85381674    -0.05639148   
     27850   0.68613395    -1.3420008      0             -0.84977424    -0.02072627   
     27900   0.68418793    -1.3413424      0             -0.85051193     0.034640421  
     27950   0.67412653    -1.3398739      0             -0.85626134    -0.058429605  
     28000   0.67816764    -1.3381415      0             -0.85162994     0.057464772  
     28050   0.67371954    -1.3358902      0             -0.85256963    -0.06505148   
     28100   0.65993419    -1.3342581      0             -0.86082701    -0.019181957  
     28150   0.68685326    -1.3319746      0             -0.83923209     0.015939448  
     28200   0.66944165    -1.3298808      0             -0.84962916    -0.0074376515 
     28250   0.66690084    -1.3275227      0             -0.84909383    -0.043287948  
     28300   0.67523075    -1.3252816      0             -0.84087696    -0.060918844  
     28350   0.65961837    -1.3233074      0             -0.85010293    -0.027416274  
     28400   0.67962513    -1.3212482      0             -0.83369103     0.064126026  
     28450   0.67932426    -1.3198599      0             -0.83251854    -0.016261566  
     28500   0.66977129    -1.3192535      0             -0.83876541    -0.014922738  
     28550   0.65020966    -1.3185236      0             -0.85206886     0.049597667  
     28600   0.64260969    -1.3179393      0             -0.85693665     0.018252189  
     28650   0.65073549    -1.3177432      0             -0.8509112     -0.01265838   
     28700   0.64039529    -1.3176767      0             -0.85826267    -0.041177779  
     28750   0.63612       -1.3176702      0             -0.86132327     0.025169664  
     28800   0.64871764    -1.3178396      0             -0.8524552      0.0067730719 
     28850   0.65532251    -1.3182259      0             -0.84810324     0.04041653   
     28900   0.68273073    -1.3184562      0             -0.82867113     0.020399546  
     28950   0.67125324    -1.3198671      0             -0.83831589    -0.031659674  
     29000   0.68202084    -1.3209218      0             -0.83164596     0.081772517  
     29050   0.67599977    -1.3222495      0             -0.83729316     0.086175278  
     29100   0.67740229    -1.3238054      0             -0.83784288     0.010351964  
     29150   0.66506222    -1.3260796      0             -0.84896977     0.04991591   
     29200   0.66872962    -1.3289704      0             -0.84922962    -0.012460445  
     29250   0.65982472    -1.3328385      0             -0.85948603    -0.076713679  
     29300   0.66089745    -1.3382638      0             -0.86414176    -0.066937085  
     29350   0.68336661    -1.3431743      0             -0.852933      -0.025153592  
     29400   0.69442857    -1.3489585      0             -0.85078152     0.012819906  
     29450   0.69480478    -1.3497485      0             -0.85130157     0.13313097   
     29500   0.67457858    -1.3383611      0             -0.85442426    -0.00054655071
     29550   0.65506204    -1.3102054      0             -0.84026954     0.0024714352 
     29600   0.63545102    -1.2870758      0             -0.83120875    -0.053744735  
     29650   0.67088035    -1.3044368      0             -0.82315309     0.084683096  
     29700   0.71831238    -1.3356512      0             -0.82034018     0.0049845922 
     29750   0.73270475    -1.3493689      0             -0.82373292     0.0041876986 
     29800   0.73910395    -1.348928       0             -0.81870127     0.033291765  
     29850   0.74232224    -1.3433646      0             -0.8108291      0.073010983  
     29900   0.76626142    -1.3372149      0             -0.78750565    -0.017270801  
     29950   0.76271323    -1.3320242      0             -0.78486038     0.01983414   
     30000   0.76484136    -1.327646       0             -0.77895547    -0.034754072  
     30050   0.78633452    -1.324052       0             -0.75994245    -0.018759588  
     30100   0.76999883    -1.3215094      0             -0.76911897     0.072077378  
     30150   0.7535375     -1.3191745      0             -0.77859326     0.003153965  
     30200   0.74854434    -1.3181812      0             -0.781182      -0.12295114   
     30250   0.74378792    -1.3173494      0             -0.78376246    -0.039242432  
     30300   0.73356209    -1.3171306      0             -0.79087953    -0.061810734  
     30350   0.7264749     -1.3166735      0             -0.79550667     0.039876103  
     30400   0.73532042    -1.3163199      0             -0.78880746     0.036185149  
     30450   0.70860936    -1.316044       0             -0.80769382     0.11196105   
     30500   0.70246112    -1.3161591      0             -0.81221964    -0.00023813989
     30550   0.69786243    -1.3158803      0             -0.81523991    -0.10584934   
     30600   0.69157456    -1.3156266      0             -0.81949701    -0.042196646  
     30650   0.70314866    -1.3155135      0             -0.81108072    -0.085618502  
     30700   0.68205838    -1.3153963      0             -0.82609352     0.071762762  
     30750   0.69369556    -1.3150785      0             -0.81742738    -0.050286946  
     30800   0.69274553    -1.3145958      0             -0.8176262     -0.095884064  
     30850   0.67156306    -1.3143205      0             -0.83254696    -0.0025456801 
     30900   0.66909226    -1.3138863      0             -0.83388529     0.030068405  
     30950   0.65351395    -1.3135813      0             -0.84475609     0.040200976  
     31000   0.67818552    -1.3132187      0             -0.82669434    -0.04760311   
     31050   0.68374864    -1.3128366      0             -0.82232127    -0.011167694  
     31100   0.68746182    -1.3125188      0             -0.81933971    -0.040357663  
     31150   0.69436676    -1.3122463      0             -0.8141136     -0.0026134585 
     31200   0.70597464    -1.3120231      0             -0.80556299     0.032047697  
     31250   0.72346937    -1.3118923      0             -0.79288166     0.0097878395 
     31300   0.71577768    -1.3117791      0             -0.79828638     0.0096784571 
     31350   0.73495569    -1.3111074      0             -0.78385655     0.10021783   
     31400   0.73208944    -1.3117903      0             -0.78659566    -0.056300497  
     31450   0.74347525    -1.3119298      0             -0.77856715    -0.17167852   
     31500   0.74129608    -1.3120427      0             -0.78024334    -0.0073418957 
     31550   0.74799944    -1.3122587      0             -0.77565036    -0.035721823  
     31600   0.74812612    -1.3123655      0             -0.77566631     0.06366004   
     31650   0.74008499    -1.312863       0             -0.78193246     0.057389975  
     31700   0.73582105    -1.3131585      0             -0.78528683    -0.048902676  
     31750   0.73746008    -1.3135529      0             -0.78450542     0.11838683   
     31800   0.73596306    -1.3140072      0             -0.78603375     0.003474729  
     31850   0.75995678    -1.3142795      0             -0.76909313     0.087454159  
     31900   0.7733203     -1.3147044      0             -0.75993118    -0.038339127  
     31950   0.76397102    -1.3150801      0             -0.76701393    -0.041117568  
     32000   0.78024019    -1.3153735      0             -0.75563598     0.059062598  
     32050   0.77380794    -1.3156287      0             -0.76050566     0.021464993  
     32100   0.75254484    -1.3159759      0             -0.77610674     0.042919634  
     32150   0.74540275    -1.3161213      0             -0.78137581     0.072785748  
     32200   0.7605243     -1.3160115      0             -0.77041801    -0.097735845  
     32250   0.78203002    -1.315636       0             -0.75461447    -0.025302146  
     32300   0.78765767    -1.3168791      0             -0.75182039    -0.0070904725 
     32350   0.79377113    -1.3180041      0             -0.74855961     0.085847555  
     32400   0.7846738     -1.3185509      0             -0.7556327      0.076896907  
     32450   0.80548493    -1.3190606      0             -0.74121272     0.039328547  
     32500   0.79651523    -1.319752       0             -0.74833888    -0.097747309  
     32550   0.79384527    -1.3204139      0             -0.75091617    -0.063083441  
     32600   0.80245933    -1.321153       0             -0.74547562     0.026128663  
     32650   0.79903459    -1.3217934      0             -0.7485729      0.0080347844 
     32700   0.79566567    -1.3229481      0             -0.75214449    -0.0026847196 
     32750   0.80051171    -1.323722       0             -0.74944185    -0.00097716498
     32800   0.77851145    -1.3251562      0             -0.76665885     0.12386765   
     32850   0.7876423     -1.3267096      0             -0.76166185     0.0033450274 
     32900   0.78279289    -1.3278459      0             -0.76627708     0.0029574729 
     32950   0.78059221    -1.3295185      0             -0.76952841     0.030444371  
     33000   0.75951834    -1.3305664      0             -0.78569459     0.05643414   
     33050   0.7560706     -1.3313499      0             -0.78895145    -0.0030231393 
     33100   0.76450814    -1.3320326      0             -0.78358115    -0.019256792  
     33150   0.7532303     -1.3324518      0             -0.79209089     0.16408958   
     33200   0.76341668    -1.3333738      0             -0.78570529     0.016964444  
     33250   0.75674709    -1.3340087      0             -0.79112496     0.042416948  
     33300   0.77241091    -1.3350028      0             -0.78088194    -0.011980254  
     33350   0.79375528    -1.3363424      0             -0.76690923     0.1069915    
     33400   0.8033875     -1.3377908      0             -0.76144759    -0.078056392  
     33450   0.79930587    -1.340808       0             -0.76739291     0.084112396  
     33500   0.79498101    -1.3448212      0             -0.77450877     0.087019653  
     33550   0.79210819    -1.3500042      0             -0.78175267    -0.0019629194 
     33600   0.82234975    -1.3560463      0             -0.76609974     0.0055444067 
     33650   0.8501161     -1.3609883      0             -0.75112239    -0.046567133  
     33700   0.83441988    -1.359523       0             -0.76091739    -0.010439563  
     33750   0.8024054     -1.3420221      0             -0.76638344    -0.032482487  
     33800   0.74282845    -1.3095776      0             -0.77667896    -0.036931434  
     33850   0.73787845    -1.2918547      0             -0.76250712    -0.075937871  
     33900   0.78287703    -1.3109587      0             -0.74932953     0.077047313  
     33950   0.8246032     -1.3441076      0             -0.75254449     0.089074101  
     34000   0.86097036    -1.3627695      0             -0.74511682     0.035368785  
     34050   0.87666091    -1.366936       0             -0.73802711    -0.12332964   
     34100   0.87655061    -1.3628117      0             -0.73398193     0.020789494  
     34150   0.84625931    -1.3562342      0             -0.74913512     0.017255284  
     34200   0.85061005    -1.3503327      0             -0.74011242     0.034155205  
     34250   0.83480216    -1.3450245      0             -0.74614466    -0.038731382  
     34300   0.7975073     -1.3407308      0             -0.76860602     0.035039287  
     34350   0.80492004    -1.3372988      0             -0.75985617     0.015894409  
     34400   0.78666334    -1.335045       0             -0.77069953    -0.040929829  
     34450   0.76616739    -1.3335373      0             -0.78389549     0.025155961  
     34500   0.76793322    -1.3324943      0             -0.7815857     -0.0031023279 
     34550   0.75175956    -1.3314785      0             -0.7921727      0.12624854   
     34600   0.73721923    -1.3314393      0             -0.80256466    -0.069742095  
     34650   0.74744518    -1.3315838      0             -0.79537315    -0.01442428   
     34700   0.73152972    -1.3326171      0             -0.80782406    -0.093961712  
     34750   0.73365974    -1.3337124      0             -0.80739133     0.028763432  
     34800   0.75857912    -1.3352929      0             -0.79109479     0.0043859786 
     34850   0.76840503    -1.337169       0             -0.78592194     0.022304642  
     34900   0.76993357    -1.3394959      0             -0.78715228     0.023297828  
     34950   0.77216325    -1.3422123      0             -0.78826906     0.0069611399 
     35000   0.77941116    -1.3437536      0             -0.7846108     -0.007627061  
     35050   0.7988987     -1.3457787      0             -0.77265568     0.03054124   
     35100   0.80069976    -1.3473104      0             -0.77289532    -0.035043097  
     35150   0.79808327    -1.3462575      0             -0.77371951     0.066006386  
     35200   0.78430939    -1.3417162      0             -0.77905945    -0.087171647  
     35250   0.7840617     -1.3346089      0             -0.77212988    -0.017301823  
     35300   0.76922716    -1.3299336      0             -0.77809669     0.086103691  
     35350   0.75176023    -1.3317158      0             -0.79240951    -0.053838038  
     35400   0.75469648    -1.3380885      0             -0.79667579    -0.12104314   
     35450   0.78005947    -1.345101       0             -0.78549313    -0.046382575  
     35500   0.78083534    -1.3489835      0             -0.78881903    -0.00063268875
     35550   0.79035824    -1.3495109      0             -0.78251473     0.052931705  
     35600   0.79396055    -1.3474029      0             -0.77782252    -0.11590167   
     35650   0.7923903     -1.3443893      0             -0.77593539    -0.030901525  
     35700   0.78071531    -1.3401148      0             -0.78003641     0.045893966  
     35750   0.78698832    -1.3370996      0             -0.77252102     0.031526664  
     35800   0.74284528    -1.333872       0             -0.80096128    -0.035794616  
     35850   0.75217862    -1.3311406      0             -0.79153424     0.063000844  
     35900   0.74343193    -1.3282994      0             -0.79496782    -0.041440073  
     35950   0.75976974    -1.3262393      0             -0.78118708     0.03832103   
     36000   0.75742816    -1.324734       0             -0.78136166    -0.012987703  
     36050   0.77957329    -1.3230771      0             -0.76381798    -0.010251901  
     36100   0.74769423    -1.3220035      0             -0.78561414    -0.0026686881 
     36150   0.73348554    -1.3209762      0             -0.79478008     0.078324583  
     36200   0.71376159    -1.3198931      0             -0.80784679    -0.037266923  
     36250   0.71198832    -1.3192046      0             -0.80843041     0.089472504  
     36300   0.69858403    -1.3184634      0             -0.81730531    -0.030526624  
     36350   0.69328973    -1.3179393      0             -0.82057926    -0.031523855  
     36400   0.68051283    -1.3173046      0             -0.82911065    -0.047734936  
     36450   0.6830032     -1.3169726      0             -0.82699206     0.011396554  
     36500   0.66827098    -1.3167447      0             -0.83733288    -0.0017826405 
     36550   0.66167721    -1.3167907      0             -0.84210925     0.047012472  
     36600   0.66687518    -1.3167235      0             -0.83831302     0.057322599  
     36650   0.6882958     -1.3167988      0             -0.82302142    -0.041790436  
     36700   0.68452511    -1.3169747      0             -0.82590234    -0.047560648  
     36750   0.67451421    -1.3169278      0             -0.8330372     -0.025282135  
     36800   0.6815555     -1.3172617      0             -0.82831973    -0.059135747  
     36850   0.70830915    -1.3176284      0             -0.80949353    -0.011791673  
     36900   0.72483738    -1.3186027      0             -0.79861063    -0.062913693  
     36950   0.74641176    -1.3193372      0             -0.78386788    -0.0090667542 
     37000   0.73710572    -1.3201223      0             -0.79132908     0.080084629  
     37050   0.75685548    -1.321288       0             -0.77832641    -0.011344033  
     37100   0.78122977    -1.3226813      0             -0.76223388     0.01243969   
     37150   0.78508669    -1.324545       0             -0.76133062     0.055644823  
     37200   0.80354725    -1.3280328      0             -0.75157504     0.035188931  
     37250   0.79016952    -1.3308198      0             -0.76395908     0.059671295  
     37300   0.79059838    -1.3342919      0             -0.76712351    -0.044115184  
     37350   0.74830618    -1.4124429      0             -0.87561454     0.10702374   
     37400   0.91359725    -1.6831542      0             -1.0277474     -0.099696129  
     37450   0.86182174    -1.7298682      0             -1.1116048     -0.058418248  
     37500   0.80297635    -1.759065       0             -1.1830168      0.060258008  
     37550   0.78424463    -1.7759412      0             -1.2133309      0.040593094  
     37600   0.73538829    -1.7739233      0             -1.2463622      0.00045557795
     37650   0.71706377    -1.7699152      0             -1.2554999     -0.073176376  
     37700   0.67638814    -1.744896       0             -1.2596611      0.0067490181 
     37750   0.66316971    -1.7333877      0             -1.2576355      0.053288091  
     37800   0.7003315     -1.7596053      0             -1.2571936      7.9284494e-05
     37850   0.74082121    -1.7914161      0             -1.2599574      0.0099347544 
     37900   0.74740759    -1.8009326      0             -1.2647489      0.066392012  
     37950   0.71865341    -1.8012872      0             -1.2857315     -0.0076873483 
     38000   0.69329467    -1.7954155      0             -1.2980519     -0.028656821  
     38050   0.71016291    -1.7939117      0             -1.284447      -0.054052762  
     38100   0.70582906    -1.7910928      0             -1.2847371     -0.13413981   
     38150   0.70244147    -1.7904134      0             -1.286488       0.030789764  
     38200   0.7056018     -1.7915603      0             -1.2853677     -0.036049624  
     38250   0.7194296     -1.792273       0             -1.2761605     -0.021329498  
     38300   0.73590355    -1.7951334      0             -1.2672026     -0.041188214  
     38350   0.72162932    -1.7982175      0             -1.2805269      0.035526692  
     38400   0.73422366    -1.8011395      0             -1.2744138     -0.060798991  
     38450   0.73680414    -1.8053624      0             -1.2767855     -0.081646168  
     38500   0.75274598    -1.8097438      0             -1.2697304     -0.028103443  
     38550   0.75959804    -1.8145566      0             -1.2696275      0.028650213  
     38600   0.73694991    -1.8193507      0             -1.2906693     -0.070208622  
     38650   0.73813823    -1.8227406      0             -1.2932067     -0.019167952  
     38700   0.73980931    -1.8239859      0             -1.2932531     -0.012361072  
     38750   0.737075      -1.8205819      0             -1.2918107      0.066132277  
     38800   0.71989062    -1.8117147      0             -1.2952714      0.040496283  
     38850   0.71577353    -1.8042108      0             -1.2907211     -0.031809674  
     38900   0.70857223    -1.806107       0             -1.2977834     -0.021672533  
     38950   0.7202833     -1.8163318      0             -1.2996068     -0.058221431  
     39000   0.73856308    -1.8262553      0             -1.2964166     -0.0098741894 
     39050   0.74368401    -1.8317277      0             -1.2982153     -0.070792811  
     39100   0.73217765    -1.8329348      0             -1.3076769     -0.050952763  
     39150   0.71196785    -1.8327187      0             -1.3219592      0.061730706  
     39200   0.7042427     -1.8310564      0             -1.3258388     -0.028948241  
     39250   0.69603436    -1.8290892      0             -1.3297602     -0.074676496  
     39300   0.69031034    -1.8272607      0             -1.3320381     -0.019852542  
     39350   0.70482518    -1.8254715      0             -1.319836       0.084676386  
     39400   0.68345093    -1.8248421      0             -1.3345403     -0.036271926  
     39450   0.6969994     -1.8247513      0             -1.32473        0.036704994  
     39500   0.70234984    -1.8251729      0             -1.3213132     -0.026468284  
     39550   0.70908199    -1.8263011      0             -1.3176118      0.010632628  
     39600   0.70758289    -1.8277376      0             -1.3201238      0.044712712  
     39650   0.72385175    -1.8307834      0             -1.3114984      0.063996566  
     39700   0.7198723     -1.834578       0             -1.3181478      0.03853344   
     39750   0.70756202    -1.8394376      0             -1.3318387      0.055265804  
     39800   0.69559983    -1.8443125      0             -1.3452952      0.099079722  
     39850   0.69848772    -1.8493117      0             -1.3482226      0.056339548  
     39900   0.67500619    -1.8540747      0             -1.3698311      0.023639272  
     39950   0.70520035    -1.8567877      0             -1.3508832      0.047056596  
     40000   0.68818847    -1.8550055      0             -1.3613051      0.093737723  
     40050   0.68700796    -1.8442344      0             -1.3513808     -0.02348092   
     40100   0.85925598    -2.0662171      0             -1.4497943      0.029935429  
     40150   0.67778508    -2.0516398      0             -1.5654027      0.12147728   
     40200   0.69101249    -2.1177681      0             -1.6220418      0.053852445  
     40250   0.72544534    -2.1698269      0             -1.6493988      0.072458646  
     40300   0.76124382    -2.2269909      0             -1.6808812     -0.025679423  
     40350   0.75994513    -2.2430919      0             -1.6979139     -0.041481122  
     40400   0.78392327    -2.2745231      0             -1.7121433      0.10875164   
     40450   0.78891263    -2.2915866      0             -1.7256276      0.0011707556 
     40500   0.76955732    -2.2895595      0             -1.7374858     -0.042874833  
     40550   0.74563669    -2.280998       0             -1.7460847      0.027081564  
     40600   0.69842967    -2.2572702      0             -1.7562228     -0.11360495   
     40650   0.66807643    -2.2383737      0             -1.7591015     -0.095684722  
     40700   0.64538558    -2.2510816      0             -1.7880876      0.018498061  
     40750   0.68085546    -2.2724663      0             -1.7840265      0.019846614  
     40800   0.70718667    -2.2908087      0             -1.7834791     -0.056508464  
     40850   0.7194855     -2.2996545      0             -1.7835018     -0.047881475  
     40900   0.71408138    -2.2978721      0             -1.7855964     -0.010587967  
     40950   0.70206798    -2.2906761      0             -1.7870186     -0.08650218   
     41000   0.68054006    -2.2815871      0             -1.7933736     -0.11286034   
     41050   0.6382613     -2.2694728      0             -1.8115897     -0.084763203  
     41100   0.63508186    -2.2599936      0             -1.8043914      0.031079219  
     41150   0.63792184    -2.2640763      0             -1.8064367      0.03983272   
     41200   0.66216807    -2.2781451      0             -1.8031115     -0.019210444  
     41250   0.68834431    -2.2907783      0             -1.7969661     -0.071826487  
     41300   0.70120985    -2.2987677      0             -1.7957259     -0.072654401  
     41350   0.69044129    -2.3010882      0             -1.8057716      0.0056539786 
     41400   0.68613041    -2.2992725      0             -1.8070485     -0.015715795  
     41450   0.66774584    -2.2929236      0             -1.8138885      0.012718889  
     41500   0.63283393    -2.2922961      0             -1.8383066      0.0071726596 
     41550   0.77010794    -2.5307297      0             -1.978261       0.1308669    
     41600   0.74064169    -2.607937       0             -2.0766071     -0.026579531  
     41650   0.65776837    -2.6099777      0             -2.1381003      0.063988309  
     41700   0.60862319    -2.617307       0             -2.1806861      0.09032808   
     41750   0.60156966    -2.6264517      0             -2.1948909     -0.077535783  
     41800   0.59103849    -2.6311361      0             -2.2071302      0.029079902  
     41850   0.57861507    -2.6364229      0             -2.2213294     -0.029737543  
     41900   0.57440631    -2.6536899      0             -2.2416158      0.040330597  
     41950   0.5834492     -2.6559615      0             -2.2374001     -0.09816806   
     42000   0.59220901    -2.6621622      0             -2.2373166      0.044470138  
     42050   0.59200592    -2.6688214      0             -2.2441215     -0.019168962  
     42100   0.5898902     -2.6692522      0             -2.2460701      0.040098418  
     42150   0.58887753    -2.6713718      0             -2.2489162      0.018334741  
     42200   0.58098248    -2.6717221      0             -2.2549303     -0.057549881  
     42250   0.57902716    -2.6715277      0             -2.2561386      0.066307607  
     42300   0.59509845    -2.6695438      0             -2.2426254     -0.00013617099
     42350   0.5865296     -2.6665058      0             -2.2457346     -0.07901013   
     42400   0.5781597     -2.6633559      0             -2.2485892     -0.0041238063 
     42450   0.5726562     -2.6609707      0             -2.2501521     -0.078557109  
     42500   0.58633364    -2.6604258      0             -2.2397951      0.0097596233 
     42550   0.59612984    -2.6638031      0             -2.2361447     -0.088426854  
     42600   0.61942734    -2.671188       0             -2.2268162     -0.0050145468 
     42650   0.63922901    -2.6802361      0             -2.2216587      0.053742362  
     42700   0.64894864    -2.6869988      0             -2.2214487      0.086160311  
     42750   0.64585038    -2.6874221      0             -2.2240947      0.10633748   
     42800   0.62792979    -2.6760778      0             -2.2256064      0.04456349   
     42850   0.59122171    -2.6542968      0             -2.2301595      0.038558749  
     42900   0.56924971    -2.6405161      0             -2.2321413     -0.057808175  
     42950   0.58777811    -2.6477564      0             -2.2260895      0.072019381  
     43000   0.63009975    -2.6660027      0             -2.2139746      0.041164043  
     43050   0.66046819    -2.678404       0             -2.2045898      0.1044355    
     43100   0.67535847    -2.6814568      0             -2.1969605     -0.069532661  
     43150   0.68299927    -2.6781443      0             -2.1881665     -0.019592499  
     43200   0.68294147    -2.67314        0             -2.1832037      0.037978436  
     43250   0.69214055    -2.668244       0             -2.1717084     -0.03075916   
     43300   0.67055595    -2.6651587      0             -2.1841077      0.01479337   
     43350   0.69326107    -2.6623715      0             -2.1650321     -0.0044118587 
     43400   0.66976362    -2.6616307      0             -2.1811481      0.071304785  
     43450   0.6936125     -2.6614443      0             -2.1638527      0.019942066  
     43500   0.69954026    -2.6611642      0             -2.1593201     -0.030392231  
     43550   0.71309227    -2.6608336      0             -2.1492674     -0.067674148  
     43600   0.70884173    -2.6597501      0             -2.1512332     -0.025001347  
     43650   0.71219552    -2.658767       0             -2.1478442     -0.017878223  
     43700   0.71410076    -2.6571658      0             -2.1448761     -0.0036059691 
     43750   0.72145967    -2.6543511      0             -2.1367822     -0.065585743  
     43800   0.74236718    -2.6518539      0             -2.1192862     -0.087430359  
     43850   0.73896481    -2.6492229      0             -2.119096       0.1054318    
     43900   0.73608257    -2.6479443      0             -2.119885      -0.071623289  
     43950   0.72832303    -2.6472466      0             -2.124754       0.025559239  
     44000   0.71285371    -2.6480168      0             -2.1366218     -0.032264509  
     44050   0.74066385    -2.6497006      0             -2.1183548     -0.040074995  
     44100   0.75463671    -2.6522746      0             -2.1109048     -0.024183701  
     44150   0.75175996    -2.6547146      0             -2.1154085     -0.056528771  
     44200   0.74224946    -2.657036       0             -2.1245527      0.0027461428 
     44250   0.76012568    -2.6594665      0             -2.1141589     -0.082564576  
     44300   0.76012488    -2.6615039      0             -2.116197       0.08017913   
     44350   0.75971972    -2.6629929      0             -2.1179766      0.035790158  
     44400   0.76107725    -2.6637875      0             -2.1177973      0.0026971447 
     44450   0.75221591    -2.6641498      0             -2.1245167      0.046176087  
     44500   0.74465258    -2.6641392      0             -2.1299319      0.07091588   
     44550   0.74954219    -2.6643295      0             -2.1266144     -0.019954587  
     44600   0.74003674    -2.6663423      0             -2.1354464     -0.10863647   
     44650   0.75168461    -2.670428       0             -2.131176      -0.018426617  
     44700   0.76459199    -2.6748663      0             -2.1263546     -0.010495611  
     44750   0.81386054    -2.6792836      0             -2.0954271      0.016543654  
     44800   0.80379415    -2.6839074      0             -2.1072724     -0.04483189   
     44850   0.82320926    -2.6882032      0             -2.09764       -0.0018753883 
     44900   0.80234421    -2.6919852      0             -2.1163905     -0.003073824  
     44950   0.80420022    -2.6948027      0             -2.1178764      0.055387075  
     45000   0.79964572    -2.6972519      0             -2.123593       0.00022146818
     45050   0.81606731    -2.6986572      0             -2.1132176     -0.039001735  
     45100   0.83093843    -2.7004749      0             -2.1043669      0.014106659  
     45150   0.83846366    -2.701307       0             -2.0998004     -0.01740737   
     45200   0.82215747    -2.7023782      0             -2.1125696     -0.054559391  
     45250   0.81643645    -2.7037555      0             -2.1180511     -0.079758799  
     45300   0.81029498    -2.7061104      0             -2.1248119     -0.069645459  
     45350   0.82013701    -2.7086478      0             -2.1202886     -0.040307947  
     45400   0.79870169    -2.7072212      0             -2.1342396      0.01901921   
     45450   0.79367267    -2.7035395      0             -2.1341656      0.0071214664 
     45500   0.79252532    -2.7002669      0             -2.1317161     -0.0050013027 
     45550   0.78777199    -2.7000938      0             -2.134953       0.066722174  
     45600   0.779678      -2.7015113      0             -2.1421771      0.010159776  
     45650   0.75604185    -2.6990998      0             -2.156722       0.032961614  
     45700   0.74885162    -2.6926035      0             -2.1553839     -0.055517475  
     45750   0.72710411    -2.6823251      0             -2.160707       0.15361496   
     45800   0.71381286    -2.6704147      0             -2.1583316      0.11608201   
     45850   0.71858854    -2.6618011      0             -2.146292      -0.02210012   
     45900   0.71003972    -2.6579723      0             -2.148596       0.031177687  
     45950   0.68179068    -2.6584342      0             -2.1693235      0.004109982  
     46000   0.67653086    -2.6619349      0             -2.1765975      0.0053394522 
     46050   0.68464779    -2.6655848      0             -2.1744244     -0.085149364  
     46100   0.68599954    -2.6680446      0             -2.1759145     -0.042595587  
     46150   0.70656719    -2.6691786      0             -2.1622934     -0.066520465  
     46200   0.70245653    -2.6696552      0             -2.165719      -0.069665487  
     46250   0.71811638    -2.6684941      0             -2.1533237     -0.001619894  
     46300   0.69025403    -2.6663885      0             -2.1712063      0.01304073   
     46350   0.67649438    -2.6635054      0             -2.1781943     -0.0011575094 
     46400   0.64269964    -2.6590199      0             -2.1979527     -0.028604418  
     46450   0.63541177    -2.6534227      0             -2.1975838      0.091026806  
     46500   0.63731924    -2.6479031      0             -2.1906958      0.098602271  
     46550   0.63470748    -2.644751       0             -2.1894173      0.060483761  
     46600   0.63418188    -2.6449916      0             -2.190035       0.085906836  
     46650   0.63421267    -2.6490971      0             -2.1941185     -0.063210811  
     46700   0.64293084    -2.6545177      0             -2.1932847      0.058218048  
     46750   0.65516592    -2.6588998      0             -2.1888895     -0.11582472   
     46800   0.64373423    -2.6624933      0             -2.200684      -0.008575913  
     46850   0.66415338    -2.6648587      0             -2.1884009     -0.042057322  
     46900   0.65587416    -2.6657966      0             -2.1952782      0.082359144  
     46950   0.65440561    -2.6652327      0             -2.1957678     -0.014329583  
     47000   0.66218689    -2.6642024      0             -2.1891552      0.030698347  
     47050   0.64738773    -2.6626147      0             -2.1981844     -0.067643077  
     47100   0.66650442    -2.6610355      0             -2.182891      -0.10244606   
     47150   0.64210996    -2.6598557      0             -2.1992116      0.067389874  
     47200   0.6330206     -2.6596197      0             -2.2054962     -0.034602418  
     47250   0.62241964    -2.6610538      0             -2.2145354      0.0046070801 
     47300   0.64655837    -2.6631949      0             -2.1993596     -0.032334948  
     47350   0.68227983    -2.6660874      0             -2.1766258     -0.045053596  
     47400   0.7029261     -2.6695344      0             -2.1652614     -0.021057725  
     47450   0.69904649    -2.6725095      0             -2.1710196     -0.0080766132 
     47500   0.69899297    -2.6742086      0             -2.1727571     -0.0058729142 
     47550   0.69429334    -2.6770296      0             -2.1789496      0.037842994  
     47600   0.72148091    -2.6789585      0             -2.1613744      0.063157301  
     47650   0.71566735    -2.6801799      0             -2.1667663     -0.058427826  
     47700   0.72211552    -2.6800235      0             -2.1619841      0.014301816  
     47750   0.72283958    -2.679755       0             -2.1611962     -0.025011942  
     47800   0.74120809    -2.679141       0             -2.1474048      0.040165285  
     47850   0.75925218    -2.6791337      0             -2.1344528      0.15523762   
     47900   0.75729368    -2.6837626      0             -2.1404867      0.037061388  
     47950   0.78134904    -2.6927949      0             -2.1322619     -0.11159596   
     48000   0.7953947     -2.7043603      0             -2.1337511      0.11617492   
     48050   0.8089246     -2.7133582      0             -2.1330427      0.15799772   
     48100   0.79109334    -2.7157055      0             -2.148182      -0.0087537577 
     48150   0.77216258    -2.7067739      0             -2.1528312     -0.12719413   
     48200   0.74001672    -2.6868141      0             -2.1559325     -0.010456205  
     48250   0.68862081    -2.665469       0             -2.1714584      0.046838672  
     48300   0.66638931    -2.6614398      0             -2.1833779     -0.16078502   
     48350   0.69816808    -2.6762703      0             -2.1754106     -0.074791528  
     48400   0.71043046    -2.6920883      0             -2.1824317     -0.00905957   
     48450   0.69564407    -2.6980552      0             -2.1990062     -0.064700968  
     48500   0.6919412     -2.6964649      0             -2.2000723     -0.024957806  
     48550   0.66290044    -2.6909293      0             -2.2153703     -0.018342193  
     48600   0.65127942    -2.6865333      0             -2.2193111      0.019756856  
     48650   0.63589938    -2.6847441      0             -2.2285554      0.041222026  
     48700   0.62812159    -2.6856053      0             -2.2349963      0.07629153   
     48750   0.61788515    -2.6875327      0             -2.2442673      0.0071444314 
     48800   0.60025191    -2.6886342      0             -2.2580187      0.026744701  
     48850   0.57151322    -2.688073       0             -2.2780744      0.013300275  
     48900   0.55867094    -2.6871331      0             -2.2863474      0.0060935243 
     48950   0.5439141     -2.6847616      0             -2.2945623     -0.024317963  
     49000   0.53943342    -2.6818353      0             -2.2948504      0.067261656  
     49050   0.53513717    -2.6789969      0             -2.2950941     -0.035230238  
     49100   0.54010118    -2.6777813      0             -2.2903174     -0.08967677   
     49150   0.56491919    -2.6780168      0             -2.2727486      0.040083418  
     49200   0.56241216    -2.6788173      0             -2.2753477      0.023420149  
     49250   0.57411404    -2.67987        0             -2.2680056     -0.082566677  
     49300   0.5688707     -2.6822944      0             -2.2741915     -0.0017080938 
     49350   0.58721027    -2.6846753      0             -2.2634158      0.013196045  
     49400   0.57972616    -2.6893437      0             -2.2734532      0.068399213  
     49450   0.59799157    -2.6927821      0             -2.2637882      0.0038060844 
     49500   0.61491454    -2.6941785      0             -2.2530441     -0.093786361  
     49550   0.60894961    -2.6898819      0             -2.2530268     -0.10141305   
     49600   0.60629573    -2.6816048      0             -2.2466535      0.021115913  
     49650   0.62099847    -2.6725924      0             -2.2270935      0.060897185  
     49700   0.62254802    -2.6674988      0             -2.2208882     -0.073893686  
     49750   0.63465251    -2.665          0             -2.2097058     -0.0013539585 
     49800   0.61836446    -2.6620725      0             -2.2184632      0.026869258  
     49850   0.62061921    -2.6638023      0             -2.2185755     -0.027921318  
     49900   0.63145535    -2.6730317      0             -2.2200311     -0.080838246  
     49950   0.65223489    -2.6839685      0             -2.2160608     -0.097275964  
     50000   0.64717446    -2.6920601      0             -2.2277827      0.019391165  
     50050   0.65989828    -2.6960934      0             -2.2226881      0.0038131242 
     50100   0.67317619    -2.6970242      0             -2.2140935      0.083154229  
     50150   0.68874275    -2.6942269      0             -2.2001288      0.030815766  
     50200   0.69076572    -2.6873643      0             -2.191815      -0.0009841158 
     50250   0.65499085    -2.6751788      0             -2.2052941     -0.039064898  
     50300   0.63150212    -2.6577756      0             -2.2047414     -0.049851878  
     50350   0.58610286    -2.6381027      0             -2.2176376      0.0055816647 
     50400   0.56917517    -2.6268879      0             -2.2185666     -0.059013287  
     50450   0.58514074    -2.6322649      0             -2.21249        0.029505013  
     50500   0.62402715    -2.6507204      0             -2.2030488     -0.018270205  
     50550   0.65669492    -2.668414       0             -2.1973067     -0.022831821  
     50600   0.66880035    -2.6806145      0             -2.200823      -0.020159518  
     50650   0.67084365    -2.6870869      0             -2.2058295     -0.07242689   
     50700   0.66048398    -2.6878473      0             -2.2140219      0.030392177  
     50750   0.64857266    -2.6858981      0             -2.2206177     -0.12711265   
     50800   0.64181615    -2.6788697      0             -2.2184364      0.10885615   
     50850   0.61231394    -2.6672137      0             -2.227945       0.048514629  
     50900   0.62269153    -2.6553263      0             -2.2086128      0.1297062    
     50950   0.61707017    -2.6519568      0             -2.209276      -0.096336242  
     51000   0.61617798    -2.6619002      0             -2.2198594      0.003910558  
     51050   0.65233401    -2.6804041      0             -2.2124253      0.0086295036 
     51100   0.66461193    -2.6971648      0             -2.220378       0.10713701   
     51150   0.6706013     -2.709773       0             -2.2286895      0.10772      
     51200   0.69613396    -2.7125349      0             -2.2131345     -0.10080189   
     51250   0.67508485    -2.7029275      0             -2.2186275     -0.09016835   
     51300   0.62584311    -2.6796089      0             -2.2306345      0.025898335  
     51350   0.62815038    -2.65985        0             -2.2092204      0.060376686  
     51400   0.6457059     -2.6652117      0             -2.2019879      0.021234374  
     51450   0.66327452    -2.6811289      0             -2.2053016      0.027800411  
     51500   0.67768238    -2.6887867      0             -2.2026233     -0.0067449369 
     51550   0.69367989    -2.6876828      0             -2.1900429      0.02689914   
     51600   0.67806277    -2.6829739      0             -2.1965375      0.04930816   
     51650   0.67957652    -2.6778803      0             -2.190358       0.013033771  
     51700   0.6667586     -2.6739089      0             -2.1955821      0.028778914  
     51750   0.6671746     -2.6743867      0             -2.1957614      0.084156832  
     51800   0.6815953     -2.6749234      0             -2.1859528     -0.041961031  
     51850   0.70838536    -2.6786522      0             -2.1704627      0.083315936  
     51900   0.70205354    -2.683547       0             -2.1798999      0.063245164  
     51950   0.73670451    -2.6890379      0             -2.1605324     -0.076082978  
     52000   0.72995231    -2.6935114      0             -2.16985       -0.032191719  
     52050   0.72826643    -2.6963299      0             -2.1738778     -0.11539184   
     52100   0.73506927    -2.6971235      0             -2.1697912      0.078465896  
     52150   0.71692814    -2.6964846      0             -2.1821666     -0.025598002  
     52200   0.71743598    -2.6928775      0             -2.1781952      0.03760801   
     52250   0.72338985    -2.6876213      0             -2.1686677     -0.11455659   
     52300   0.71832192    -2.6820905      0             -2.1667727      0.020188289  
     52350   0.71172537    -2.6779773      0             -2.1673917      0.10282486   
     52400   0.69721403    -2.6747551      0             -2.1745799      0.0081852433 
     52450   0.71255165    -2.6746693      0             -2.1634909     -0.089611059  
     52500   0.6963626     -2.6817761      0             -2.1822117      0.016911998  
     52550   0.72064392    -2.6947324      0             -2.1777487      0.070992173  
     52600   0.72659072    -2.7071789      0             -2.185929      -0.038882405  
     52650   0.70164301    -2.7145807      0             -2.2112281     -0.0013608932 
     52700   0.68862276    -2.7167825      0             -2.2227706      0.088102756  
     52750   0.68278266    -2.7126521      0             -2.2228297      0.012365104  
     52800   0.67271917    -2.7035579      0             -2.220955       0.1271078    
     52850   0.6709525     -2.6911734      0             -2.2098379      0.13637272   
     52900   0.63805837    -2.6761577      0             -2.2184202     -0.086317434  
     52950   0.61413472    -2.6630253      0             -2.2224504     -0.061698312  
     53000   0.61058178    -2.655372       0             -2.2173459      0.036238542  
     53050   0.61224234    -2.6546483      0             -2.2154309     -0.018015583  
     53100   0.6218463     -2.6598066      0             -2.2136995      0.044000054  
     53150   0.63133851    -2.6664459      0             -2.2135292      0.075408049  
     53200   0.63581678    -2.6715848      0             -2.2154554      0.007679578  
     53250   0.65246824    -2.6744215      0             -2.2063464      0.050652635  
     53300   0.65349931    -2.6742792      0             -2.2054645      0.066664974  
     53350   0.63982987    -2.6726394      0             -2.213631      -0.035662991  
     53400   0.63688666    -2.6700328      0             -2.2131358     -0.0030731571 
     53450   0.64862075    -2.6662529      0             -2.200938       0.0076059512 
     53500   0.64101705    -2.6614127      0             -2.2015526      0.034681976  
     53550   0.61960258    -2.6549806      0             -2.2104831      0.058499248  
     53600   0.59713211    -2.6480066      0             -2.2196292     -0.071696102  
     53650   0.59261524    -2.6412084      0             -2.2160713      0.042960613  
     53700   0.60513265    -2.6350866      0             -2.2009697      0.11047802   
     53750   0.61079555    -2.6312961      0             -2.1931167      0.041222377  
     53800   0.62653269    -2.6313457      0             -2.1818766      0.0049122537 
     53850   0.63861898    -2.635505       0             -2.1773653     -0.069742834  
     53900   0.63522831    -2.6408507      0             -2.1851434      0.059591341  
     53950   0.64053618    -2.6461345      0             -2.1866194      0.13517791   
     54000   0.63735141    -2.6499434      0             -2.1927131      0.052737545  
     54050   0.62197545    -2.651474       0             -2.2052742     -0.0037673026 
     54100   0.63952431    -2.6504007      0             -2.1916115      0.052594774  
     54150   0.64035504    -2.6471766      0             -2.1877914     -0.066622989  
     54200   0.64938394    -2.6402091      0             -2.1743467      0.0059505752 
     54250   0.61422105    -2.6310075      0             -2.1903706      0.0084008697 
     54300   0.60871261    -2.6240165      0             -2.1873313      0.069925257  
     54350   0.61461098    -2.6220854      0             -2.1811688     -0.020029738  
     54400   0.60609889    -2.6255591      0             -2.190749       0.030404482  
     54450   0.60346265    -2.63266        0             -2.1997411      0.056293447  
     54500   0.60436642    -2.6408592      0             -2.207292       0.039164428  
     54550   0.59965102    -2.6465071      0             -2.2163226      0.058922815  
     54600   0.61911098    -2.6498916      0             -2.2057467      0.07097721   
     54650   0.63455936    -2.6505081      0             -2.1952807      0.1039476    
     54700   0.63497823    -2.6487243      0             -2.1931964     -0.042643529  
     54750   0.61177632    -2.6446107      0             -2.2057277     -0.064047967  
     54800   0.62992163    -2.6383357      0             -2.1864354     -0.066972987  
     54850   0.63572029    -2.6346284      0             -2.1785682     -0.031185836  
     54900   0.64384922    -2.6341254      0             -2.1722336      0.056459529  
     54950   0.64992187    -2.6379241      0             -2.1716758     -0.020251754  
     55000   0.63775876    -2.6433497      0             -2.1858271     -0.01978661   
     55050   0.66076533    -2.649542       0             -2.1755147      0.063546738  
     55100   0.68381769    -2.654255       0             -2.1636901      0.0031713807 
     55150   0.68968186    -2.6578092      0             -2.1630375      0.045804963  
     55200   0.71387127    -2.6603368      0             -2.1482118     -0.02515301   
     55250   0.70028999    -2.6630028      0             -2.1606208     -0.015228579  
     55300   0.7041089     -2.6660834      0             -2.1609618      0.032289148  
     55350   0.71167679    -2.670135       0             -2.1595843     -0.0073381113 
     55400   0.71335703    -2.6753405      0             -2.1635844      0.035737216  
     55450   0.736919      -2.6812014      0             -2.1525421     -0.1712817    
     55500   0.7262066     -2.6833082      0             -2.1623339     -0.003137384  
     55550   0.72335456    -2.6771076      0             -2.1581793      0.037598963  
     55600   0.6982771     -2.664052       0             -2.163114      -0.00063099271
     55650   0.6645192     -2.6554999      0             -2.1787796     -0.051676157  
     55700   0.67918354    -2.6625661      0             -2.1753258      0.09619716   
     55750   0.67867037    -2.6764017      0             -2.1895295     -0.047563111  
     55800   0.68469961    -2.6825576      0             -2.19136        0.098964679  
     55850   0.67251619    -2.6742404      0             -2.1917831     -0.099390048  
     55900   0.65896471    -2.6572483      0             -2.1845128     -0.082303395  
     55950   0.65005589    -2.6460472      0             -2.1797027      0.026865165  
     56000   0.646908      -2.6537366      0             -2.1896504      0.0043227749 
     56050   0.68001001    -2.6755855      0             -2.1877522      0.022825688  
     56100   0.69593971    -2.6964859      0             -2.1972248     -0.037441449  
     56150   0.69212931    -2.7091952      0             -2.2126677     -0.0018534706 
     56200   0.70988175    -2.7143346      0             -2.2050717      0.0052698656 
     56250   0.72432012    -2.7147689      0             -2.1951479      0.038153876  
     56300   0.74308356    -2.7114735      0             -2.1783918     -0.070474239  
     56350   0.71386932    -2.7014784      0             -2.1893548      0.019786503  
     56400   0.68109883    -2.6783724      0             -2.189758      -0.089165593  
     56450   0.63560328    -2.6398758      0             -2.1838995      0.03719362   
     56500   0.58633481    -2.6104961      0             -2.1898646      0.020795323  
     56550   0.59551498    -2.6227478      0             -2.1955306      0.0052386284 
     56600   0.66574658    -2.6597454      0             -2.1821446     -0.055733279  
     56650   0.68314762    -2.6840197      0             -2.1939356     -0.04246961   
     56700   0.6918789     -2.6929462      0             -2.1965983      0.037480222  
     56750   0.6825444     -2.6949857      0             -2.2053343      0.0638874    
     56800   0.68773448    -2.6929171      0             -2.1995424     -0.0048640723 
     56850   0.66177774    -2.6855951      0             -2.2108415      0.01379814   
     56900   0.64054401    -2.6704917      0             -2.210971       0.012740148  
     56950   0.62353113    -2.653318       0             -2.2060022     -0.064609961  
     57000   0.6158718     -2.6423946      0             -2.2005736      0.081703907  
     57050   0.60905686    -2.6462773      0             -2.2093452      0.072397398  
     57100   0.62032071    -2.6589617      0             -2.213949      -0.030089626  
     57150   0.63494909    -2.6720999      0             -2.216593       0.017341031  
     57200   0.64128784    -2.6812932      0             -2.2212389      0.071984198  
     57250   0.64476131    -2.6849725      0             -2.2224263      0.058877327  
     57300   0.65070517    -2.6838159      0             -2.2170057     -0.016757589  
     57350   0.63587303    -2.6774143      0             -2.2212445     -0.05063032   
     57400   1.0005632     -3.0829116      0             -2.3651163      0.070899694  
     57450   0.68193448    -2.9487324      0             -2.4595185      0.045518485  
     57500   0.71787272    -3.0418751      0             -2.5268794     -0.071594934  
     57550   0.76171111    -3.0811777      0             -2.5347328     -0.04708327   
     57600   0.68991929    -3.0603535      0             -2.5654114      0.026652139  
     57650   0.70575198    -3.1015357      0             -2.5952354     -0.033984492  
     57700   0.71645864    -3.1202565      0             -2.6062753     -0.10403493   
     57750   0.66508948    -3.1130464      0             -2.635917       0.010209703  
     57800   0.66170071    -3.1200824      0             -2.645384       0.042401826  
     57850   0.64364405    -3.1111788      0             -2.6494341      0.070191159  
     57900   0.64841023    -3.1079579      0             -2.6427941     -0.03647459   
     57950   0.63976758    -3.0960212      0             -2.6370575      0.045551871  
     58000   0.62833135    -3.0892899      0             -2.6385305     -0.053389264  
     58050   0.62061366    -3.0876149      0             -2.642392       0.077172774  
     58100   0.61644834    -3.0934363      0             -2.6512016     -0.040673198  
     58150   0.61452471    -3.0926974      0             -2.6518427     -0.036702966  
     58200   0.61947654    -3.0877368      0             -2.6433298      0.038616472  
     58250   0.63379669    -3.0954684      0             -2.6407882      0.021772975  
     58300   0.65006539    -3.115852       0             -2.6495007      0.079237028  
     58350   0.67601068    -3.132928       0             -2.6479638     -0.026467389  
     58400   0.68430569    -3.1393021      0             -2.6483871      0.093867577  
     58450   0.68014734    -3.1377466      0             -2.6498148      0.065078336  
     58500   0.67749303    -3.1312983      0             -2.6452707      0.0427739    
     58550   0.6606811     -3.1225127      0             -2.6485458     -0.029466118  
     58600   0.63967969    -3.1122148      0             -2.6533142     -0.089270911  
     58650   0.64111366    -3.0982196      0             -2.6382902      0.02912985   
     58700   0.62093596    -3.0813387      0             -2.6358846      0.018791853  
     58750   0.57648892    -3.0663659      0             -2.6527977      0.097867349  
     58800   0.57670742    -3.0588417      0             -2.6451168     -0.087920827  
     58850   0.580701      -3.062893       0             -2.6463032      0.16805883   
     58900   0.58251784    -3.0731909      0             -2.6552977      0.030208998  
     58950   0.58126512    -3.0830583      0             -2.6660637     -0.1101033    
     59000   0.58136674    -3.089874       0             -2.6728065     -0.03809506   
     59050   0.57746592    -3.0933119      0             -2.6790429      0.047980606  
     59100   0.59107463    -3.0937834      0             -2.6697516     -0.099066682  
     59150   0.59469753    -3.0915824      0             -2.6649516      0.0039143399 
     59200   0.56884774    -3.0864553      0             -2.6783689     -0.005116266  
     59250   0.53326256    -3.0781232      0             -2.6955653      0.11452911   
     59300   0.51363766    -3.0682595      0             -2.6997803      0.01308042   
     59350   0.48553929    -3.0613223      0             -2.7130006      0.07733073   
     59400   0.48078572    -3.0606298      0             -2.7157183     -0.0036407178 
     59450   0.4950026     -3.0655855      0             -2.710475      -0.0097700793 
     59500   0.51606302    -3.0725868      0             -2.7023676     -0.020494386  
     59550   0.53863873    -3.0788958      0             -2.6924811     -0.012720211  
     59600   0.54726114    -3.0832354      0             -2.690635      -0.0023958543 
     59650   0.56504207    -3.0855508      0             -2.6801945      0.047203799  
     59700   0.57332457    -3.0856627      0             -2.6743647      0.020034465  
     59750   0.53802785    -3.0835648      0             -2.6975883      0.035219705  
     59800   0.53118738    -3.0785563      0             -2.6974871      0.016003018  
     59850   0.51797563    -3.0704484      0             -2.6988572      0.045511233  
     59900   0.50206291    -3.0606071      0             -2.7004316      0.084662632  
     59950   0.49583842    -3.0538353      0             -2.6981251     -0.023737823  
     60000   0.4741802     -3.0546452      0             -2.7144724     -0.019830777  
     60050   0.49512628    -3.0632603      0             -2.708061      -0.079446621  
     60100   0.50211226    -3.0748805      0             -2.7146695     -0.10994576   
     60150   0.51538743    -3.0852978      0             -2.7155634     -0.0072042254 
     60200   0.53894539    -3.0935983      0             -2.7069636      0.013571749  
     60250   0.53738014    -3.0993302      0             -2.7138183     -0.038668856  
     60300   0.55391791    -3.1029872      0             -2.7056113     -0.049750208  
     60350   0.53325846    -3.1047631      0             -2.7222081     -0.0018485541 
     60400   0.52542106    -3.1047675      0             -2.727835       0.013676672  
     60450   0.51089416    -3.1025172      0             -2.7360062     -0.0014106742 
     60500   0.51567987    -3.098931       0             -2.7289868     -0.018556507  
     60550   0.50598164    -3.0960315      0             -2.7330447      0.11238406   
     60600   0.49105331    -3.0980411      0             -2.7457638     -0.061644534  
     60650   0.50440671    -3.1049393      0             -2.7430823      0.0091638589 
     60700   0.51475846    -3.1158086      0             -2.7465254     -0.008963038  
     60750   0.52349801    -3.128695       0             -2.7531421     -0.070142789  
     60800   0.54238781    -3.1388737      0             -2.7497695      0.00033141896
     60850   0.54520768    -3.1459845      0             -2.7548572     -0.0097638846 
     60900   0.55772525    -3.1494062      0             -2.7492989     -0.033624176  
     60950   0.54194105    -3.1494266      0             -2.7606428     -0.013089425  
     61000   0.54355997    -3.1465865      0             -2.7566413     -0.038432262  
     61050   0.53537393    -3.1424904      0             -2.7584178     -0.020264775  
     61100   0.54343006    -3.138066       0             -2.748214       0.041697832  
     61150   0.55280037    -3.1337078      0             -2.7371336     -0.00094407689
     61200   0.54263493    -3.1298504      0             -2.7405688     -0.058442306  
     61250   0.51322743    -3.1281939      0             -2.760009       0.049433135  
     61300   0.50984194    -3.1284432      0             -2.762687      -0.0077253499 
     61350   0.48978435    -3.130525       0             -2.779158      -0.026969883  
     61400   0.48070288    -3.132898       0             -2.788046      -0.052088208  
     61450   0.47336046    -3.1352941      0             -2.7957095      0.012508658  
     61500   0.46933397    -3.1371163      0             -2.8004202     -0.028164762  
     61550   0.48511659    -3.1374823      0             -2.7894638     -0.0033533115 
     61600   0.48532341    -3.1362725      0             -2.7881057      0.064227888  
     61650   0.47736965    -3.1334087      0             -2.7909479     -0.070988153  
     61700   0.45837379    -3.1278512      0             -2.7990178     -0.011515714  
     61750   0.44247066    -3.1216546      0             -2.80423       -0.073882422  
     61800   0.43406151    -3.1150691      0             -2.8036771     -0.0076733061 
     61850   0.4422277     -3.1102381      0             -2.7929878     -0.029143821  
     61900   0.4632412     -3.1113172      0             -2.778992      -0.018839459  
     61950   0.48311222    -3.1172979      0             -2.7707173     -0.019092665  
     62000   0.49879158    -3.1263706      0             -2.7685418     -0.015623843  
     62050   0.51002739    -3.1358664      0             -2.7699771      0.0045299943 
     62100   0.51864871    -3.143634       0             -2.7715599     -0.090281268  
     62150   0.5435192     -3.1491841      0             -2.7592682      0.013092216  
     62200   0.56338537    -3.1507374      0             -2.7465697     -0.071693338  
     62250   0.55570886    -3.147465       0             -2.7488043      0.0077646758 
     62300   0.54633038    -3.1351673      0             -2.7432346     -0.0059513665 
     62350   0.51884919    -3.1108762      0             -2.7386583     -0.073370463  
     62400   0.50865316    -3.0820324      0             -2.717129       0.10762951   
     62450   0.48401263    -3.0700035      0             -2.7227771     -0.038377592  
     62500   0.51679431    -3.0935048      0             -2.722761      -0.007607609  
     62550   0.55117367    -3.123015       0             -2.7276078      0.053393631  
     62600   0.58304465    -3.1370426      0             -2.7187714     -0.028971751  
     62650   0.57106474    -3.1367288      0             -2.727052      -0.11607288   
     62700   0.56178146    -3.1282319      0             -2.7252148      0.0065852769 
     62750   0.56167937    -3.1155268      0             -2.7125829      0.001056602  
     62800   0.5352098     -3.1052417      0             -2.7212868      0.10118054   
     62850   0.52630912    -3.0989168      0             -2.7213472     -0.084558052  
     62900   0.53125541    -3.0990301      0             -2.7179121     -0.052675798  
     62950   0.53103211    -3.105467       0             -2.7245092      0.030548933  
     63000   0.5420849     -3.1169078      0             -2.7280208     -0.023670198  
     63050   0.5584923     -3.129267       0             -2.7286095     -0.071000863  
     63100   0.5872361     -3.1406389      0             -2.7193608      0.052755022  
     63150   0.59794636    -3.1483129      0             -2.7193514      0.074152903  
     63200   0.59324969    -3.1497187      0             -2.7241265      0.094396702  
     63250   0.5629194     -3.1393534      0             -2.7355199      0.065182803  
     63300   0.51663165    -3.1152892      0             -2.7446621      0.064031992  
     63350   0.48880111    -3.0847368      0             -2.7340751     -0.0060731943 
     63400   0.46409604    -3.06763        0             -2.7346915     -0.014243478  
     63450   0.47618193    -3.080503       0             -2.7388942     -0.018481125  
     63500   0.51766233    -3.109305       0             -2.7379385      0.075580599  
     63550   0.54941223    -3.1316869      0             -2.7375434      0.071806027  
     63600   0.57505076    -3.1416269      0             -2.7290905      0.034542053  
     63650   0.58605933    -3.1441546      0             -2.7237208     -0.0061941346 
     63700   0.57302603    -3.1416289      0             -2.730545      -0.025948179  
     63750   0.55831013    -3.1369815      0             -2.7364546      0.031243061  
     63800   0.57761082    -3.1314526      0             -2.7170796      0.037476326  
     63850   0.57540151    -3.1267258      0             -2.7139378     -0.057298365  
     63900   0.56899188    -3.1235917      0             -2.7154018      0.041357036  
     63950   0.58538912    -3.122094       0             -2.7021409     -0.082984711  
     64000   0.60121623    -3.1241549      0             -2.6928476     -0.084887885  
     64050   0.5943074     -3.128001       0             -2.7016501      0.018750794  
     64100   0.57765126    -3.1333377      0             -2.7189357     -0.07685923   
     64150   0.57357803    -3.1405838      0             -2.7291039     -0.064248818  
     64200   0.59737476    -3.1471456      0             -2.7185941     -0.010050536  
     64250   0.60468834    -3.1518448      0             -2.7180466     -0.047359239  
     64300   0.62152402    -3.1543038      0             -2.7084278      0.013523549  
     64350   0.62359387    -3.1513211      0             -2.7039602     -0.045563064  
     64400   0.62591023    -3.1412802      0             -2.6922576      0.021938548  
     64450   0.60098153    -3.1257639      0             -2.694625      -0.02696338   
     64500   0.57230488    -3.112234       0             -2.7016674      0.025979701  
     64550   0.55728019    -3.11022        0             -2.710432      -0.030017091  
     64600   0.56162822    -3.1207602      0             -2.717853       0.043951626  
     64650   0.58861677    -3.1342358      0             -2.7119673      0.051070662  
     64700   0.59997469    -3.1440998      0             -2.7136831     -0.068072316  
     64750   0.62242878    -3.1489624      0             -2.7024374     -0.075125908  
     64800   0.60469108    -3.150065       0             -2.7162648     -0.12651081   
     64850   0.60864769    -3.148504       0             -2.7118655      0.0099562794 
     64900   0.60261189    -3.1448739      0             -2.7125654      0.0358535    
     64950   0.59432109    -3.1407698      0             -2.7144091     -0.010233574  
     65000   0.58868657    -3.135992       0             -2.7136734      0.052555066  
     65050   0.56886513    -3.130089       0             -2.7219901     -0.093596941  
     65100   0.55563546    -3.1234109      0             -2.7248028     -0.14930855   
     65150   0.52708649    -3.1178238      0             -2.7396966      0.079047414  
     65200   0.52582859    -3.1132555      0             -2.7360306      0.0076355038 
     65250   0.51061836    -3.1116842      0             -2.745371      -0.013041616  
     65300   0.5164472     -3.1141153      0             -2.7436206      0.014709545  
     65350   0.51443723    -3.1182145      0             -2.7491617     -0.01101836   
     65400   0.53733765    -3.1226466      0             -2.7371653     -0.028112053  
     65450   0.56292839    -3.1271029      0             -2.723263       0.0066770463 
     65500   0.57200334    -3.1298541      0             -2.7195038      0.065475416  
     65550   0.57449301    -3.1323583      0             -2.720222      -0.014905441  
     65600   0.57901917    -3.1323839      0             -2.7170006     -0.080316319  
     65650   0.5702107     -3.1307096      0             -2.7216454     -0.10376758   
     65700   0.563078      -3.1261409      0             -2.7221937     -0.018442332  
     65750   0.56634316    -3.1217469      0             -2.7154572      0.036735878  
     65800   0.56466428    -3.1190932      0             -2.714008       0.068419703  
     65850   0.57858826    -3.1201833      0             -2.7051091      0.06482195   
     65900   0.58064043    -3.1259768      0             -2.7094304      0.020462393  
     65950   0.60459519    -3.1346237      0             -2.7008924     -0.020688048  
     66000   0.62296208    -3.1424169      0             -2.6955093      0.025139089  
     66050   0.61478609    -3.145237       0             -2.7041948     -0.10485369   
     66100   0.59922251    -3.1397172      0             -2.7098402      0.020661027  
     66150   0.56574006    -3.1211767      0             -2.7153197     -0.031752734  
     66200   0.52387905    -3.092185       0             -2.7163587     -0.061284762  
     66250   0.47989315    -3.0684086      0             -2.7241375     -0.076724273  
     66300   0.49154617    -3.0720466      0             -2.7194157      0.010462304  
     66350   0.51556753    -3.0966323      0             -2.7267687     -0.080815934  
     66400   0.53869367    -3.1187395      0             -2.7322853     -0.027008161  
     66450   0.55155964    -3.1298263      0             -2.7341422      0.072020987  
     66500   0.54524741    -3.1332686      0             -2.7421129      0.085437843  
     66550   0.54294407    -3.133184       0             -2.7436806     -0.028741457  
     66600   0.53914919    -3.1308556      0             -2.7440747      0.041730802  
     66650   0.53415486    -3.1270448      0             -2.7438468     -0.047504243  
     66700   0.50231934    -3.1220609      0             -2.7617014     -0.019139522  
     66750   0.48066354    -3.1164607      0             -2.7716369      0.017023915  
     66800   0.44970991    -3.1112951      0             -2.7886772     -0.060890701  
     66850   0.43783778    -3.1063886      0             -2.7922876      0.066581417  
     66900   0.42352061    -3.100179       0             -2.796349      -0.042738756  
     66950   0.41005792    -3.0931875      0             -2.7990155     -0.017064417  
     67000   0.391055      -3.0898543      0             -2.8093148     -0.046671407  
     67050   0.39976116    -3.0934139      0             -2.8066287      0.070096384  
     67100   0.40662612    -3.1023192      0             -2.8106092      0.020450368  
     67150   0.41277909    -3.1116362      0             -2.815512       0.014299084  
     67200   0.42422159    -3.1170401      0             -2.8127072      0.05596055   
     67250   0.42794752    -3.1150741      0             -2.8080682     -0.15421571   
     67300   0.40847391    -3.1075552      0             -2.8145196      0.020109132  
     67350   0.39643789    -3.1013197      0             -2.8169186      0.044680903  
     67400   0.39081263    -3.1019817      0             -2.8216161      0.038849676  
     67450   0.39874018    -3.1086672      0             -2.8226145      0.016250387  
     67500   0.4255811     -3.1155328      0             -2.8102246      0.045081353  
     67550   0.42212637    -3.1163265      0             -2.8134967     -0.005752451  
     67600   0.42447051    -3.1101908      0             -2.8056794      0.019857615  
     67650   0.41574256    -3.0992342      0             -2.8009841     -0.025504378  
     67700   0.40370521    -3.0864488      0             -2.7968342      0.079905713  
     67750   0.39185345    -3.0750804      0             -2.7939682      0.051886236  
     67800   0.39123692    -3.0705948      0             -2.7899248     -0.022496478  
     67850   0.40662258    -3.0760774      0             -2.7843699      0.0082205937 
     67900   0.41815973    -3.0877595      0             -2.7877754      0.031531052  
     67950   0.44716318    -3.1018779      0             -2.7810869     -0.04747941   
     68000   0.48446691    -3.1138712      0             -2.7663189     -0.017851539  
     68050   0.51639033    -3.1226045      0             -2.7521505      0.024717556  
     68100   0.53650865    -3.1289494      0             -2.7440628      0.033149226  
     68150   0.5494549     -3.1315528      0             -2.7373787     -0.0057697527 
     68200   0.55046431    -3.1298387      0             -2.7349404      0.014311357  
     68250   0.55245949    -3.1241827      0             -2.7278531     -0.0057936513 
     68300   0.52721514    -3.1121596      0             -2.73394       -0.087987543  
     68350   0.49098159    -3.0933975      0             -2.7411716      0.051100831  
     68400   0.46112919    -3.0708977      0             -2.7400876     -0.10141889   
     68450   0.41926404    -3.0551057      0             -2.7543294      0.035288387  
     68500   0.42064656    -3.0585808      0             -2.7568126      0.089572152  
     68550   0.45284299    -3.0805843      0             -2.7557187     -0.044046209  
     68600   0.48701685    -3.1093472      0             -2.7599656      0.023004458  
     68650   0.50443016    -3.1302739      0             -2.7684001      0.032851243  
     68700   0.50253419    -3.142473       0             -2.7819593     -0.062814595  
     68750   0.49746694    -3.1468799      0             -2.7900014     -0.052711976  
     68800   0.47528779    -3.1478384      0             -2.8068711     -0.13465666   
     68850   0.48134794    -3.146841       0             -2.8015262      0.037062145  
     68900   0.46132124    -3.144357       0             -2.8134092      0.097504333  
     68950   0.44521881    -3.1411186      0             -2.8217225      0.03493477   
     69000   0.43148625    -3.1336253      0             -2.8240808     -0.0062939949 
     69050   0.43390026    -3.1214676      0             -2.8101914      0.024133971  
     69100   0.41235183    -3.1018558      0             -2.8060382     -0.00017949687
     69150   0.36998924    -3.0779958      0             -2.8125688      0.012329714  
     69200   0.33264512    -3.0587557      0             -2.820119       0.055831467  
     69250   0.32071406    -3.0575054      0             -2.827428      -0.06063139   
     69300   0.34899472    -3.0728397      0             -2.8224739      0.019430629  
     69350   0.36743023    -3.0908173      0             -2.827226       0.040169491  
     69400   0.37476712    -3.1050298      0             -2.8361751     -0.038877913  
     69450   0.39328502    -3.1165849      0             -2.8344456     -0.031042173  
     69500   0.40994851    -3.124383       0             -2.8302895     -0.012290246  
     69550   0.43588448    -3.1277031      0             -2.8150034      0.050092832  
     69600   0.42349835    -3.1276306      0             -2.8238166      0.039522954  
     69650   0.40178829    -3.1247958      0             -2.8365564     -0.028193817  
     69700   0.40223998    -3.1195378      0             -2.8309743     -0.046245936  
     69750   0.38277463    -3.1119146      0             -2.8373154      0.0074616746 
     69800   0.37600476    -3.1031524      0             -2.8334099     -0.049298662  
     69850   0.36901947    -3.0945953      0             -2.8298639     -0.066467048  
     69900   0.35171101    -3.0872551      0             -2.8349407     -0.0084095925 
     69950   0.35016501    -3.0830002      0             -2.8317948      0.023632514  
     70000   0.3314821     -3.0822464      0             -2.844444       0.068836153  
     70050   0.33393528    -3.0839329      0             -2.8443706     -0.13694059   
     70100   0.34689561    -3.0852904      0             -2.8364306      0.11847067   
     70150   0.34719037    -3.0870766      0             -2.8380053      0.0032216632 
     70200   0.36555775    -3.0887777      0             -2.8265298      0.015130599  
     70250   0.36765386    -3.092046       0             -2.8282943      0.15808305   
     70300   0.36863909    -3.0979133      0             -2.8334549     -0.010019805  
     70350   0.37493116    -3.1056475      0             -2.8366752     -0.040509713  
     70400   0.38508222    -3.1139175      0             -2.8376629     -0.027918131  
     70450   0.38860714    -3.1230601      0             -2.8442768      0.0073262451 
     70500   0.39194105    -3.1298224      0             -2.8486473      0.024612777  
     70550   0.53100824    -3.3027044      0             -2.9217637     -0.04497565   
     70600   0.62445842    -3.484405       0             -3.0364239     -0.042731375  
     70650   0.5686477     -3.5188608      0             -3.1109179      0.0097345415 
     70700   0.54957985    -3.5411318      0             -3.146868      -0.026220544  
     70750   0.41382715    -3.4732264      0             -3.1763505      0.065768748  
     70800   0.47469183    -3.522131       0             -3.1815912      0.10890067   
     70850   0.48945057    -3.5325477      0             -3.1814201     -0.089530711  
     70900   0.39519951    -3.4842372      0             -3.2007245     -0.0024375783 
     70950   0.45629666    -3.5322949      0             -3.2049517      0.0013070406 
     71000   0.3442958     -3.4698983      0             -3.2229035     -0.065775264  
     71050   0.40867656    -3.5268288      0             -3.2336478      0.01419416   
     71100   0.39275237    -3.5206922      0             -3.238935      -0.0057338136 
     71150   0.37002522    -3.5159556      0             -3.2505028      0.024007141  
     71200   0.40648967    -3.5574209      0             -3.2658087     -0.033568774  
     71250   0.32035638    -3.5092454      0             -3.2794245      0.039682762  
     71300   0.38765371    -3.5539651      0             -3.2758657      0.12487873   
     71350   0.34902547    -3.5236308      0             -3.273243       0.051674142  
     71400   0.3669497     -3.5462121      0             -3.2829655     -0.024622676  
     71450   0.31671443    -3.5072556      0             -3.2800474      0.050325868  
     71500   0.33454665    -3.5224764      0             -3.2824756     -0.0069929337 
     71550   0.35499766    -3.5334999      0             -3.2788277      0.014186847  
     71600   0.35934944    -3.5325356      0             -3.2747415     -0.0035953732 
     71650   0.34694181    -3.52625        0             -3.2773569      0.080193584  
     71700   0.34366239    -3.5229712      0             -3.2764308     -0.095938178  
     71750   0.3356672     -3.5145633      0             -3.2737586     -0.091675625  
     71800   0.31361449    -3.5078358      0             -3.2828515      0.052238204  
     71850   0.30538532    -3.5060896      0             -3.2870088      0.006221169  
     71900   0.30365199    -3.5012192      0             -3.2833819      0.038362796  
     71950   0.2887935     -3.4976045      0             -3.2904266     -0.014217288  
     72000   0.29702775    -3.4988462      0             -3.285761       0.08614516   
     72050   0.29257626    -3.5019227      0             -3.292031       0.058024799  
     72100   0.3106813     -3.5063147      0             -3.2834346      0.0392937    
     72150   0.31887705    -3.5104104      0             -3.2816508     -0.11175429   
     72200   0.32708558    -3.5140822      0             -3.2794339      0.1170508    
     72250   0.3446215     -3.5165147      0             -3.2692862     -0.001677285  
     72300   0.35782906    -3.5173652      0             -3.2606617     -0.042059488  
     72350   0.35193052    -3.5164388      0             -3.2639669      0.0016224968 
     72400   0.33759878    -3.5133577      0             -3.2711673      0.075482348  
     72450   0.33294536    -3.5083788      0             -3.2695267     -0.1294933    
     72500   0.33769038    -3.5001512      0             -3.2578951     -0.034887157  
     72550   0.32221508    -3.4898237      0             -3.2586694     -0.11416298   
     72600   0.3170254     -3.4808531      0             -3.2534218     -0.06016276   
     72650   0.31167291    -3.4769637      0             -3.2533723      0.0030425458 
     72700   0.31170594    -3.4792582      0             -3.2556431     -0.08016276   
     72750   0.32293274    -3.4846737      0             -3.2530045     -0.094724108  
     72800   0.32804382    -3.4918371      0             -3.2565013      0.038075297  
     72850   0.3220905     -3.4976336      0             -3.2665687     -0.048316857  
     72900   0.3327737     -3.5017404      0             -3.2630114      0.070569352  
     72950   0.32515994    -3.5038096      0             -3.2705427      0.036336     
     73000   0.3226866     -3.5031784      0             -3.2716858      0.029909846  
     73050   0.31827364    -3.5000621      0             -3.2717354     -0.02648902   
     73100   0.31439253    -3.4967326      0             -3.2711901      0.04493385   
     73150   0.32600444    -3.4935717      0             -3.2596989      0.11411084   
     73200   0.31511664    -3.4910641      0             -3.2650022      0.031387384  
     73250   0.3074456     -3.4901201      0             -3.2695613     -0.02108449   
     73300   0.32479865    -3.4916662      0             -3.2586584     -0.08612707   
     73350   0.34061284    -3.4938464      0             -3.2494937      0.094271076  
     73400   0.33919416    -3.4962353      0             -3.2529004      0.11807517   
     73450   0.34146669    -3.4980717      0             -3.2531065     -0.18731448   
     73500   0.34198502    -3.4993312      0             -3.2539941     -0.13910367   
     73550   0.34232483    -3.4992075      0             -3.2536266     -0.063818132  
     73600   0.35367443    -3.497214       0             -3.2434911      0.078824748  
     73650   0.32603924    -3.4941237      0             -3.260226      -0.11801293   
     73700   0.31414437    -3.4894358      0             -3.2640714     -0.059301352  
     73750   0.30715435    -3.483726       0             -3.2633762      0.11046084   
     73800   0.30810753    -3.480821       0             -3.2597874      0.083905478  
     73850   0.29515561    -3.4832065      0             -3.2714644     -0.09603069   
     73900   0.30409377    -3.4920297      0             -3.2738755      0.040832711  
     73950   0.31920357    -3.5026977      0             -3.2737039      0.021915365  
     74000   0.32787857    -3.5129221      0             -3.2777048      0.067229914  
     74050   0.35211465    -3.5212221      0             -3.2686181     -0.0039175034 
     74100   0.36131723    -3.5271542      0             -3.2679483      0.031150305  
     74150   0.35704851    -3.5302824      0             -3.2741389     -0.049990398  
     74200   0.36682075    -3.5322948      0             -3.2691407     -0.023698504  
     74250   0.36546121    -3.5331463      0             -3.2709676      0.030898576  
     74300   0.36835009    -3.5314318      0             -3.2671806      0.026449421  
     74350   0.36668591    -3.529051       0             -3.2659937     -0.030631901  
     74400   0.35449709    -3.5264957      0             -3.2721826      0.08223251   
     74450   0.36178742    -3.5276543      0             -3.2681111     -0.037691497  
     74500   0.36805634    -3.5332996      0             -3.2692592      0.022679404  
     74550   0.38983259    -3.5426139      0             -3.2629514      0.065047784  
     74600   0.40674307    -3.5532268      0             -3.2614329      0.03968203   
     74650   0.41084565    -3.56253        0             -3.2677929      0.15121524   
     74700   0.41589134    -3.5705058      0             -3.272149      -0.16128318   
     74750   0.42125592    -3.5747435      0             -3.2725382      0.06126607   
     74800   0.41274135    -3.5762445      0             -3.2801474      0.08377278   
     74850   0.40375179    -3.5751164      0             -3.2854684      0.021889301  
     74900   0.40031054    -3.5696938      0             -3.2825145      0.056468983  
     74950   0.39552256    -3.5622933      0             -3.2785489     -0.023994133  
     75000   0.38529972    -3.5557934      0             -3.2793827      0.04024437   
     75050   0.36852806    -3.5516463      0             -3.2872675     -0.066112453  
     75100   0.36883048    -3.5520542      0             -3.2874585      0.10232403   
     75150   0.37736887    -3.5552939      0             -3.2845727     -0.061396413  
     75200   0.39165079    -3.5603915      0             -3.2794246     -0.072590971  
     75250   0.40804052    -3.5639291      0             -3.2712044      0.075113265  
     75300   0.41621244    -3.5659365      0             -3.2673493     -0.039688771  
     75350   0.42886943    -3.5661088      0             -3.2584416      0.040252585  
     75400   0.42243233    -3.5651235      0             -3.2620742      0.049565679  
     75450   0.41522223    -3.5626884      0             -3.2648116     -0.011562635  
     75500   0.39922469    -3.5578066      0             -3.2714063     -0.013604685  
     75550   0.39572084    -3.5507055      0             -3.2668189     -0.039410896  
     75600   0.38066652    -3.5415895      0             -3.2685027      0.0021602686 
     75650   0.37575392    -3.5328673      0             -3.2633047     -0.12244633   
     75700   0.36724108    -3.5296729      0             -3.2662173      0.045375877  
     75750   0.36969692    -3.534344       0             -3.2691266      0.018089019  
     75800   0.39758856    -3.5443502      0             -3.2591236      0.0032132047 
     75850   0.94471778    -3.9596893      0             -3.281957      -0.080731891  
     75900   0.75685499    -3.9385347      0             -3.3955735      0.021861545  
     75950   0.56038242    -3.8960929      0             -3.4940794     -0.097493963  
     76000   0.5204563     -3.9151051      0             -3.5417342     -0.14674155   
     76050   0.53232676    -3.9548426      0             -3.572956       0.0010545424 
     76100   0.87434804    -4.2290666      0             -3.6018169      0.016046155  
     76150   0.76931712    -4.3118759      0             -3.7599745      0.0086949811 
     76200   0.6991221     -4.363408       0             -3.8618639      0.012536298  
     76250   0.66506795    -4.4013055      0             -3.9241915      0.018092157  
     76300   0.45649358    -4.3400197      0             -4.0125352      0.10041555   
     76350   0.31279881    -4.2890933      0             -4.0646942     -0.14902206   
     76400   0.34909177    -4.3470396      0             -4.0966042     -0.087438853  
     76450   0.30750224    -4.346715       0             -4.1261156     -0.046264524  
     76500   0.34932096    -4.4053312      0             -4.1547314      0.062155239  
     76550   0.3734637     -4.4245044      0             -4.1565848     -0.077225089  
     76600   0.37753034    -4.4354261      0             -4.1645892      0.10667159   
     76650   0.3745246     -4.4363171      0             -4.1676364      0.082936417  
     76700   0.33690464    -4.4075345      0             -4.165842       0.09032903   
     76750   0.36434315    -4.4401809      0             -4.1788043      0.00025743906
     76800   0.33197905    -4.4147315      0             -4.1765726      0.041344594  
     76850   0.31351403    -4.3981292      0             -4.1732169     -0.028634117  
     76900   0.35300271    -4.4170455      0             -4.1638044     -0.0063872264 
     76950   0.37715498    -4.4323147      0             -4.161747      -0.084856127  
     77000   0.38728646    -4.4258012      0             -4.1479652     -0.058586638  
     77050   0.37977564    -4.4222528      0             -4.149805       0.09403526   
     77100   0.39227088    -4.4273762      0             -4.1459645      0.020482487  
     77150   0.39243505    -4.4263434      0             -4.1448139      0.11044014   
     77200   0.36576826    -4.4124526      0             -4.1500536     -0.035894053  
     77250   0.37521538    -4.423243       0             -4.1540667     -0.021353384  
     77300   0.36855305    -4.4255906      0             -4.1611938     -0.0012703109 
     77350   0.34166269    -4.3983024      0             -4.1531966     -0.054238581  
     77400   0.30851932    -4.389284       0             -4.1679549     -0.0028337202 
     77450   0.2818852     -4.3760006      0             -4.1737786      0.068657577  
     77500   0.29267949    -4.3923283      0             -4.1823626      0.077904393  
     77550   0.31946609    -4.4120837      0             -4.1829015      0.0045986617 
     77600   0.32552647    -4.4214526      0             -4.1879228     -0.050078875  
     77650   0.32211791    -4.4286932      0             -4.1976087     -0.22918348   
     77700   0.31867123    -4.4268014      0             -4.1981894     -0.048823358  
     77750   0.30704944    -4.4201623      0             -4.1998877     -0.033033154  
     77800   0.31617778    -4.4248062      0             -4.197983      -0.015785421  
     77850   0.32637328    -4.4277256      0             -4.1935882      0.031730348  
     77900   0.30568682    -4.4298803      0             -4.2105833     -0.092592327  
     77950   0.30597223    -4.4358373      0             -4.2163354      0.032559753  
     78000   0.29434903    -4.4397566      0             -4.2285932     -0.0019809368 
     78050   0.30310988    -4.4454038      0             -4.2279555     -0.071865516  
     78100   0.31481631    -4.4519721      0             -4.2261257     -0.022060739  
     78150   0.32496702    -4.4526823      0             -4.2195538     -0.034660247  
     78200   0.32531138    -4.4557721      0             -4.2223965     -0.0087343118 
     78250   0.3125362     -4.4564067      0             -4.2321959      0.038077036  
     78300   0.31397909    -4.4552126      0             -4.2299667      0.07543796   
     78350   0.31099303    -4.4529223      0             -4.2298186     -0.019406594  
     78400   0.30141869    -4.447687       0             -4.2314519     -0.015640414  
     78450   0.30645601    -4.4430066      0             -4.2231578      0.13517362   
     78500   0.29591729    -4.4374869      0             -4.2251984      0.12213654   
     78550   0.30757958    -4.4334977      0             -4.2128427     -0.031841064  
     78600   0.30299893    -4.4319585      0             -4.2145897     -0.03968353   
     78650   0.30037154    -4.4301107      0             -4.2146267      0.01571801   
     78700   0.31376777    -4.4259214      0             -4.2008271      0.023771221  
     78750   0.29813749    -4.4184501      0             -4.2045688     -0.11151245   
     78800   0.28687658    -4.4139201      0             -4.2081174      0.025482713  
     78850   0.30938148    -4.414305       0             -4.1923574      0.0040335699 
     78900   0.31164368    -4.4148433      0             -4.1912729      0.077276952  
     78950   0.30758747    -4.4158334      0             -4.1951728     -0.069316768  
     79000   0.33376512    -4.4256018      0             -4.1861616     -0.012771057  
     79050   0.34510839    -4.4372553      0             -4.1896776     -0.080322508  
     79100   0.35518642    -4.4450036      0             -4.1901959     -0.010068495  
     79150   0.36275886    -4.4482058      0             -4.1879658      0.033710873  
     79200   0.36545517    -4.4468629      0             -4.1846885      0.03672712   
     79250   0.35467817    -4.4400803      0             -4.1856373     -0.11502132   
     79300   0.35262759    -4.4331025      0             -4.1801305      0.0013823821 
     79350   0.34251694    -4.4291644      0             -4.1834457     -0.030132259  
     79400   0.34938063    -4.4262092      0             -4.1755666      0.082355671  
     79450   0.37021169    -4.4309772      0             -4.1653906      0.075085251  
     79500   0.38397364    -4.4421555      0             -4.1666961     -0.10624311   
     79550   0.40323221    -4.4450684      0             -4.1557931     -0.023956925  
     79600   0.40980079    -4.4518488      0             -4.1578613     -0.058347075  
     79650   0.41012636    -4.452122       0             -4.1579009     -0.023878599  
     79700   0.40559568    -4.4515695      0             -4.1605987      0.034074081  
     79750   0.3859413     -4.4482171      0             -4.1713462     -0.011503717  
     79800   0.36970967    -4.4423146      0             -4.1770881     -0.0013927545 
     79850   0.35696614    -4.4335686      0             -4.1774842     -0.049455118  
     79900   0.36039646    -4.423027       0             -4.1644817     -0.013302255  
     79950   0.35218122    -4.4173677      0             -4.164716       0.058886502  
     80000   0.36486375    -4.413264       0             -4.1515139      0.03032238   
     80050   0.3697036     -4.4133986      0             -4.1481764      0.0700094    
     80100   0.39204904    -4.4198667      0             -4.1386141     -0.097277997  
     80150   0.41259137    -4.4292864      0             -4.133297      -0.1377427    
     80200   0.39997447    -4.4375747      0             -4.1506365      0.013728885  
     80250   0.4013945     -4.4450074      0             -4.1570505     -0.0080662166 
     80300   0.41837332    -4.4498257      0             -4.1496883     -0.093756769  
     80350   0.41913216    -4.4520391      0             -4.1513573     -0.080856458  
     80400   0.41195312    -4.4520054      0             -4.1564738      0.082554059  
     80450   0.40868909    -4.4480241      0             -4.1548341     -0.1518562    
     80500   0.40201276    -4.4391926      0             -4.1507921     -0.038124093  
     80550   0.38986762    -4.4251027      0             -4.1454151     -0.02734395   
     80600   0.37914767    -4.4109493      0             -4.1389521      0.016253676  
     80650   0.36804677    -4.4078555      0             -4.1438219      0.025682291  
     80700   0.38400333    -4.4210297      0             -4.145549      -0.015110471  
     80750   0.40722846    -4.4393509      0             -4.1472088      0.039305454  
     80800   0.4276322     -4.4530515      0             -4.1462718      0.03658806   
     80850   0.42909927    -4.4599842      0             -4.1521521      0.062875735  
     80900   0.43156999    -4.4619886      0             -4.152384      -0.13685569   
     80950   0.44810962    -4.4610732      0             -4.1396033     -0.10293355   
     81000   0.4523249     -4.4575552      0             -4.1330612     -0.084016134  
     81050   0.45666169    -4.4523674      0             -4.1247623     -0.020040729  
     81100   0.44688535    -4.4452531      0             -4.1246615     -0.073421608  
     81150   0.42670067    -4.435816       0             -4.1297047      0.097279714  
     81200   0.41221403    -4.4250062      0             -4.1292874     -0.070731267  
     81250   0.39391533    -4.4146394      0             -4.1320479     -0.046825131  
     81300   0.38840078    -4.408767       0             -4.1301317      0.027749581  
     81350   0.39039455    -4.4097553      0             -4.1296896     -0.020206788  
     81400   0.4030122     -4.4163858      0             -4.1272683     -0.087160474  
     81450   0.40466316    -4.4272698      0             -4.1369679      0.020532165  
     81500   0.42001055    -4.4383654      0             -4.1370535     -0.018801657  
     81550   0.44197187    -4.4476947      0             -4.1306279     -0.14544263   
     81600   0.46071582    -4.4544438      0             -4.1239302     -0.041146528  
     81650   0.46581527    -4.4578951      0             -4.1237233      0.072493864  
     81700   0.4628966     -4.4578766      0             -4.1257986      0.0013610153 
     81750   0.45595336    -4.4528335      0             -4.1257365     -0.048344765  
     81800   0.43433071    -4.4424432      0             -4.1308582      0.00041832636
     81850   0.41984601    -4.4283106      0             -4.1271167     -0.023375806  
     81900   0.40231621    -4.417232       0             -4.1286139     -0.021914135  
     81950   0.4209247     -4.4184372      0             -4.1164695      0.039878184  
     82000   0.44469544    -4.4270609      0             -4.1080402      0.12460341   
     82050   0.45921421    -4.4346283      0             -4.105192      -0.00458678   
     82100   0.45940576    -4.4406528      0             -4.1110791      0.10974308   
     82150   0.45864146    -4.444843       0             -4.1158176      0.11594922   
     82200   0.45073559    -4.4467199      0             -4.1233661      0.019937646  
     82250   0.48057931    -4.4467598      0             -4.1019964     -0.080619473  
     82300   0.4707492     -4.4433871      0             -4.1056757     -0.043091159  
     82350   0.47566828    -4.4362969      0             -4.0950566      0.023019165  
     82400   0.45391437    -4.4262216      0             -4.1005874     -0.025685171  
     82450   0.43267995    -4.4155459      0             -4.1051451      0.13659583   
     82500   0.42517567    -4.4075589      0             -4.1025416      0.036261314  
     82550   0.41757278    -4.4032472      0             -4.1036841     -0.0038694383 
     82600   0.41994938    -4.4058179      0             -4.1045499     -0.0017922617 
     82650   0.77015263    -4.8209209      0             -4.2684201      0.052898272  
     82700   0.45227109    -4.7115434      0             -4.387088      -0.048389313  
     82750   0.45761156    -4.7917861      0             -4.4634996     -0.077111633  
     82800   0.4540433     -4.8318995      0             -4.5061728      0.012284055  
     82850   0.48159514    -4.8629129      0             -4.5174208     -0.0017119764 
     82900   0.44387741    -4.8543072      0             -4.5358734      0.14384176   
     82950   0.45456443    -4.8628062      0             -4.5367056     -0.065184707  
     83000   0.46350449    -4.8688963      0             -4.5363822     -0.082145628  
     83050   0.45760447    -4.8708023      0             -4.5425208     -0.1499469    
     83100   0.47281542    -4.8774262      0             -4.5382326      0.087808142  
     83150   0.48362647    -4.8839206      0             -4.5369711     -0.034908271  
     83200   0.4713433     -4.8887679      0             -4.5506303     -0.016114967  
     83250   0.47805042    -4.8906471      0             -4.5476978      0.011789242  
     83300   0.4625892     -4.8857626      0             -4.5539051      0.054122223  
     83350   0.44017423    -4.8787858      0             -4.5630086     -0.054444063  
     83400   0.40336699    -4.8676737      0             -4.5783017      0.024376918  
     83450   0.4075239     -4.8618076      0             -4.5694535     -0.018609417  
     83500   0.40718477    -4.861629       0             -4.5695182     -0.039618957  
     83550   0.41075156    -4.8650183      0             -4.5703487     -0.025176442  
     83600   0.43443708    -4.876053       0             -4.5643916     -0.013705447  
     83650   0.44793305    -4.886282       0             -4.5649387      9.1023951e-06
     83700   0.4514842     -4.8905189      0             -4.5666281     -0.010645861  
     83750   0.45040321    -4.8925072      0             -4.5693919      0.011607793  
     83800   0.44336303    -4.8915517      0             -4.5734869     -0.0027228445 
     83850   0.43264838    -4.8881438      0             -4.5777656     -0.035475181  
     83900   0.4377864     -4.8823384      0             -4.5682742      0.0033608913 
     83950   0.4179084     -4.8725186      0             -4.5727148      0.011382867  
     84000   0.41287868    -4.8623798      0             -4.5661842     -0.078020111  
     84050   0.41979273    -4.8559693      0             -4.5548137      0.064084894  
     84100   0.42971535    -4.8580322      0             -4.5497581      0.025891216  
     84150   0.44495656    -4.862868       0             -4.5436601      0.038918027  
     84200   0.44297878    -4.8640928      0             -4.5463037      0.11898454   
     84250   0.46726692    -4.8703285      0             -4.5351152      0.043912176  
     84300   0.47593723    -4.8714876      0             -4.5300543     -0.029277351  
     84350   0.48363266    -4.8770614      0             -4.5301075     -0.0090636253 
     84400   0.47635034    -4.8785442      0             -4.5368146      0.018735158  
     84450   0.47073989    -4.8746956      0             -4.5369909     -0.01673102   
     84500   0.47690222    -4.8678312      0             -4.5257057      0.054067211  
     84550   0.46652745    -4.858143       0             -4.5234602      0.076916149  
     84600   0.45611013    -4.8448414      0             -4.5176319      0.033226016  
     84650   0.45116002    -4.8364765      0             -4.5128183     -0.051090707  
     84700   0.45326613    -4.8370996      0             -4.5119304      0.0027718281 
     84750   0.47060994    -4.8447665      0             -4.5071551     -0.026171447  
     84800   0.48042934    -4.853993       0             -4.5093372     -0.034842538  
     84850   0.49757579    -4.863184       0             -4.5062275      0.11757037   
     84900   0.49181583    -4.86802        0             -4.5151956      0.019207696  
     84950   0.50127313    -4.8716779      0             -4.5120689     -0.070490801  
     85000   0.47740168    -4.8722208      0             -4.529737       0.019204167  
     85050   0.47954695    -4.8721013      0             -4.5280785     -0.12385862   
     85100   0.47929041    -4.8706049      0             -4.5267661      0.062839497  
     85150   0.46094354    -4.8689774      0             -4.5383005      0.099876334  
     85200   0.45757423    -4.8687188      0             -4.540459       0.060202611  
     85250   0.45722431    -4.8682777      0             -4.5402689      0.048389755  
     85300   0.48469873    -4.8695022      0             -4.5217836     -0.0023256219 
     85350   0.50800406    -4.8717443      0             -4.5073066     -0.013305417  
     85400   0.67728092    -5.1512137      0             -4.6653383      0.075622767  
     85450   0.54689179    -5.1740857      0             -4.7817503      0.0032887178 
     85500   0.54260309    -5.2526903      0             -4.8634316      0.038080241  
     85550   0.49355234    -5.2673087      0             -4.9132385     -0.018987058  
     85600   0.45400429    -5.2759501      0             -4.9502514     -0.039496478  
     85650   0.44139506    -5.2930648      0             -4.9764119      0.013372743  
     85700   0.44896481    -5.3021392      0             -4.9800558     -0.00027071125
     85750   0.44183199    -5.304771       0             -4.9878046     -0.0064959156 
     85800   0.44316581    -5.3122633      0             -4.99434        0.016466123  
     85850   0.42402319    -5.3054908      0             -5.0013002      0.037915768  
     85900   0.41148309    -5.3086903      0             -5.0134959      0.090781843  
     85950   0.40651039    -5.3007121      0             -5.0090851      0.092505318  
     86000   0.41321479    -5.3082348      0             -5.0117981     -0.078326744  
     86050   0.40365919    -5.3067156      0             -5.017134      -0.10568415   
     86100   0.39615391    -5.3097354      0             -5.025538      -0.013731984  
     86150   0.38283243    -5.3079923      0             -5.0333516      0.054205843  
     86200   0.38081197    -5.3129807      0             -5.0397895      0.028196269  
     86250   0.3823338     -5.3079512      0             -5.0336682     -0.051281391  
     86300   0.4010946     -5.3175858      0             -5.0298441      0.087156527  
     86350   0.38907005    -5.3151142      0             -5.0359988     -0.032214744  
     86400   0.38892569    -5.3113347      0             -5.0323228      0.016382124  
     86450   0.37292834    -5.3050294      0             -5.0374938     -0.010765189  
     86500   0.36517127    -5.3010225      0             -5.0390518     -0.019908533  
     86550   0.35136499    -5.3036107      0             -5.0515445     -0.099444406  
     86600   0.34846387    -5.3082672      0             -5.0582823      0.0047199991 
     86650   0.3565617     -5.3128129      0             -5.0570187     -0.057545872  
     86700   0.374106      -5.3157368      0             -5.0473564     -0.0026072795 
     86750   0.38206111    -5.316715       0             -5.0426277     -0.047678465  
     86800   0.38542719    -5.3144997      0             -5.0379976     -0.069271119  
     86850   0.3815287     -5.3072735      0             -5.0335681      0.021633353  
     86900   0.37167507    -5.2996459      0             -5.0330095      0.10014883   
     86950   0.36430204    -5.2910794      0             -5.0297323     -0.032113759  
     87000   0.35296377    -5.2841172      0             -5.0309041     -0.016750586  
     87050   0.34583324    -5.2819739      0             -5.0338761     -0.05995139   
     87100   0.335621      -5.2864446      0             -5.045673       0.03281785   
     87150   0.35552401    -5.2935131      0             -5.0384633      0.036928645  
     87200   0.36372953    -5.3031866      0             -5.0422502     -0.088063138  
     87250   0.38378346    -5.311252       0             -5.035929      -0.097408552  
     87300   0.40150793    -5.318266       0             -5.0302277     -0.039795242  
     87350   0.38463326    -5.3246526      0             -5.04872       -0.029796787  
     87400   0.391461      -5.3268699      0             -5.0460392     -0.01187012   
     87450   0.38792627    -5.3255347      0             -5.0472398      0.010859509  
     87500   0.38134922    -5.320121       0             -5.0465443     -0.0040381929 
     87550   0.37837092    -5.3125089      0             -5.0410689     -0.023112648  
     87600   0.3586076     -5.2981345      0             -5.0408725     -0.014337039  
     87650   0.32444285    -5.2804247      0             -5.0476723     -0.037510716  
     87700   0.31489267    -5.284758       0             -5.0588568      0.025751372  
     87750   0.31222981    -5.2852199      0             -5.061229       0.001523966  
     87800   0.31794982    -5.2980399      0             -5.0699454     -0.036025689  
     87850   0.30248411    -5.3004308      0             -5.0834314     -0.013885831  
     87900   0.31837192    -5.31144        0             -5.0830428     -0.010748238  
     87950   0.30905114    -5.3125343      0             -5.0908237      0.064315356  
     88000   0.28765767    -5.3080111      0             -5.101648       0.027323455  
     88050   0.27836228    -5.3053425      0             -5.1056478     -0.11980214   
     88100   0.25377609    -5.2909235      0             -5.1088667      0.070853923  
     88150   0.21648283    -5.268637       0             -5.1133341     -0.014288628  
     88200   0.20556798    -5.2545925      0             -5.1071198     -0.00040920211
     88250   0.20042225    -5.259199       0             -5.1154179     -0.03446496   
     88300   0.22573318    -5.2756125      0             -5.1136735     -0.050162165  
     88350   0.25965028    -5.296185       0             -5.1099142      0.075017623  
     88400   0.27485952    -5.3093806      0             -5.1121988     -0.051277024  
     88450   0.2940058     -5.3151881      0             -5.1042709     -0.063654667  
     88500   0.29724929    -5.3150308      0             -5.1017867     -0.004772029  
     88550   0.27596336    -5.3106769      0             -5.1127032     -0.023234027  
     88600   0.28040533    -5.3036797      0             -5.1025194     -0.053501902  
     88650   0.26697884    -5.2979433      0             -5.106415      -0.071455946  
     88700   0.26046663    -5.2971599      0             -5.1103035      0.045962776  
     88750   0.27321433    -5.3016542      0             -5.1056527     -0.0078015094 
     88800   0.28359333    -5.3093443      0             -5.1058969      0.0010605512 
     88850   0.30021611    -5.3177975      0             -5.1024251     -0.062077579  
     88900   0.29955896    -5.3230357      0             -5.1081347      0.041858974  
     88950   0.30503178    -5.3270726      0             -5.1082454      0.015771756  
     89000   0.32623608    -5.326167       0             -5.0921281      0.04458536   
     89050   0.3090714     -5.3203893      0             -5.0986642      0.021579555  
     89100   0.30592421    -5.3121259      0             -5.0926586      0.017502066  
     89150   0.29458227    -5.3036944      0             -5.0923636      0.013742022  
     89200   0.27200521    -5.2902841      0             -5.0951499     -0.090856169  
     89250   0.26349007    -5.2812453      0             -5.0922198      0.075797098  
     89300   0.25297528    -5.280202       0             -5.0987197      0.078490604  
     89350   0.2660153     -5.2876265      0             -5.0967894     -0.0509577    
     89400   0.28474598    -5.2979631      0             -5.0936888     -0.086361915  
     89450   0.28919527    -5.3060173      0             -5.0985511     -0.068747391  
     89500   0.2939065     -5.3107454      0             -5.0998994     -0.050116605  
     89550   0.30558867    -5.3128121      0             -5.0935854     -0.027036858  
     89600   0.31324169    -5.3143846      0             -5.0896678      0.034788032  
     89650   0.32205965    -5.3152407      0             -5.0841979     -0.053852081  
     89700   0.31321771    -5.3143185      0             -5.0896188     -0.14660896   
     89750   0.31073746    -5.3114309      0             -5.0885105      0.025949054  
     89800   0.30211741    -5.3071481      0             -5.0904117      0.05290808   
     89850   0.29748389    -5.3011999      0             -5.0877876      0.016892744  
     89900   0.2951397     -5.2984048      0             -5.0866742     -0.041243721  
     89950   0.30882441    -5.2996967      0             -5.0781487     -0.086126856  
     90000   0.30782797    -5.3020246      0             -5.0811915      0.016550043  
     90050   0.30415909    -5.3029458      0             -5.0847447      0.058078878  
     90100   0.29447602    -5.3003757      0             -5.0891212      0.0017707602 
     90150   0.28150877    -5.2954367      0             -5.0934847      0.04467972   
     90200   0.2814329     -5.2902563      0             -5.0883587     -0.0067416415 
     90250   0.26685413    -5.2851401      0             -5.0937012      0.0048489961 
     90300   0.25534537    -5.2802713      0             -5.0970888      0.0081291703 
     90350   0.24685284    -5.2743225      0             -5.0972324     -0.035362025  
     90400   0.23270355    -5.2723392      0             -5.1053997     -0.034211488  
     90450   0.23673551    -5.278319       0             -5.108487       0.036251716  
     90500   0.26047055    -5.2891931      0             -5.1023338     -0.02651523   
     90550   0.28591426    -5.3005652      0             -5.0954528      0.043923174  
     90600   0.28882751    -5.3089003      0             -5.101698      -0.010388978  
     90650   0.29177878    -5.3130881      0             -5.1037686     -0.043693259  
     90700   0.29428171    -5.3129665      0             -5.1018514     -0.0020167168 
     90750   0.27349996    -5.3095651      0             -5.1133586      0.017552283  
     90800   0.25909214    -5.3028287      0             -5.1169582      0.06622543   
     90850   0.24667051    -5.2952674      0             -5.1183081      0.039992877  
     90900   0.22935986    -5.2886199      0             -5.1240791      0.017178865  
     90950   0.22557396    -5.2856043      0             -5.1237795     -0.054970341  
     91000   0.24725093    -5.2875281      0             -5.1101524     -0.010736914  
     91050   0.25270248    -5.294092       0             -5.1128054      0.0027662905 
     91100   0.26349718    -5.3014299      0             -5.1123993     -0.035634572  
     91150   0.27887426    -5.3076695      0             -5.1076075      0.022883364  
     91200   0.26914398    -5.3109552      0             -5.1178736      0.062724715  
     91250   0.25252915    -5.3123098      0             -5.1311476     -0.039216796  
     91300   0.25032162    -5.312504       0             -5.1329255     -0.040479198  
     91350   0.25993482    -5.3139859      0             -5.1275109     -0.01908786   
     91400   0.27998396    -5.3152959      0             -5.1144379      0.036222037  
     91450   0.28008497    -5.3152795      0             -5.114349       0.013241514  
     91500   0.27738336    -5.311133       0             -5.1121406      0.0042716619 
     91550   0.2910597     -5.3137323      0             -5.1049286     -0.024729233  
     91600   0.28943483    -5.3142576      0             -5.1066195     -0.072488463  
     91650   0.27640622    -5.3069334      0             -5.108642      -0.08422088   
     91700   0.27620086    -5.3033466      0             -5.1052025      0.025545718  
     91750   0.27230389    -5.3030657      0             -5.1077172     -0.07945944   
     91800   0.27951823    -5.3106809      0             -5.1101569      0.070034195  
     91850   0.28808415    -5.3149215      0             -5.1082525     -0.042915094  
     91900   0.30830814    -5.3202961      0             -5.0991185      0.082813714  
     91950   0.30703541    -5.3204989      0             -5.1002344      0.059227823  
     92000   0.30882432    -5.3178975      0             -5.0963496     -0.043697693  
     92050   0.31378571    -5.3162949      0             -5.0911877      0.06974226   
     92100   0.30733417    -5.314995       0             -5.0945162      0.013319014  
     92150   0.30528015    -5.3128111      0             -5.0938058      0.012664597  
     92200   0.30269938    -5.3101382      0             -5.0929843      0.029099802  
     92250   0.30864055    -5.3081469      0             -5.0867308      0.042447033  
     92300   0.30005513    -5.3062952      0             -5.0910383      0.042556177  
     92350   0.29530842    -5.3044155      0             -5.0925638      0.029129576  
     92400   0.29993153    -5.3032552      0             -5.0880869      0.023334131  
     92450   0.29724059    -5.3043345      0             -5.0910967     -0.027307607  
     92500   0.29975082    -5.3048993      0             -5.0898607      0.035892746  
     92550   0.29054007    -5.305924       0             -5.0974931      0.10887542   
     92600   0.2928342     -5.3055012      0             -5.0954245      0.0040126434 
     92650   0.28140356    -5.3036922      0             -5.1018157      0.0022741605 
     92700   0.26959698    -5.2972052      0             -5.1037987     -0.028931545  
     92750   0.27070512    -5.2944286      0             -5.1002271     -0.071310353  
     92800   0.254191      -5.2984899      0             -5.1161355     -0.034170292  
     92850   0.25977417    -5.3058314      0             -5.1194717     -0.062593877  
     92900   0.27073618    -5.3110953      0             -5.1168715      0.049518401  
     92950   0.2606056     -5.3122751      0             -5.125319      -0.087096459  
     93000   0.24073807    -5.3094559      0             -5.1367525      0.033484887  
     93050   0.23134557    -5.3062274      0             -5.1402621     -0.063135595  
     93100   0.2277015     -5.3043214      0             -5.1409703      0.031644007  
     93150   0.21533298    -5.3052568      0             -5.1507788     -0.14481007   
     93200   0.22779442    -5.3091863      0             -5.1457686      0.0041788228 
     93250   0.24243048    -5.3141002      0             -5.1401827      0.045392706  
     93300   0.26362769    -5.318911       0             -5.1297867      0.030161356  
     93350   0.26221865    -5.3231901      0             -5.1350768     -0.052435949  
     93400   0.2745112     -5.325835       0             -5.1289031     -0.046791757  
     93450   0.28080717    -5.3276048      0             -5.1261562      0.0029157228 
     93500   0.27228631    -5.3274908      0             -5.132155      -0.0016843049 
     93550   0.27163793    -5.3256549      0             -5.1307842      0.055515066  
     93600   0.25780211    -5.3224402      0             -5.1374952     -0.0079020583 
     93650   0.24837167    -5.3182969      0             -5.1401173      0.0052958177 
     93700   0.22764724    -5.3137085      0             -5.1503964     -0.096695977  
     93750   0.22176952    -5.3114299      0             -5.1523344      0.081206556  
     93800   0.23398924    -5.3116071      0             -5.1437452      0.079702736  
     93850   0.23215468    -5.3141965      0             -5.1476507      0.037318064  
     93900   0.24435525    -5.3178058      0             -5.1425075      0.045279011  
     93950   0.23912767    -5.3220741      0             -5.150526      -0.050092331  
     94000   0.24639184    -5.3255587      0             -5.1487994      0.069153332  
     94050   0.24087887    -5.3267679      0             -5.1539635     -0.013706414  
     94100   0.22214284    -5.3255248      0             -5.1661615     -0.12292098   
     94150   0.21098494    -5.3233618      0             -5.172003      -0.014831264  
     94200   0.19653787    -5.3184086      0             -5.1774141      0.035238577  
     94250   0.19993306    -5.3119355      0             -5.1685052     -0.026332315  
     94300   0.18867562    -5.305711       0             -5.1703568      0.045463146  
     94350   0.19097945    -5.3015602      0             -5.1645532     -0.038799527  
     94400   0.19190295    -5.3012909      0             -5.1636214     -0.06700373   
     94450   0.19800232    -5.3044903      0             -5.1624452     -0.043204905  
     94500   0.2021388     -5.3099915      0             -5.1649788      0.014666005  
     94550   0.22747648    -5.3157848      0             -5.1525952      0.0092400363 
     94600   0.22475191    -5.3210808      0             -5.1598457     -0.069814239  
     94650   0.2299828     -5.3231294      0             -5.1581418      0.029230203  
     94700   0.22896399    -5.3226418      0             -5.1583851      0.0074441505 
     94750   0.22843535    -5.3194653      0             -5.1555878     -0.027128238  
     94800   0.22655893    -5.3126861      0             -5.1501547      0.052469477  
     94850   0.22584164    -5.3061459      0             -5.144129       0.022942367  
     94900   0.22184707    -5.3026795      0             -5.1435283      0.0032228156 
     94950   0.22607263    -5.3033583      0             -5.1411758      0.0091950235 
     95000   0.23572848    -5.3091557      0             -5.1400462     -0.023494794  
     95050   0.25211928    -5.3164606      0             -5.1355924     -0.053816496  
     95100   0.25176283    -5.3229223      0             -5.1423098     -0.025188312  
     95150   0.25725982    -5.3260478      0             -5.1414919      0.010686746  
     95200   0.25339577    -5.3265963      0             -5.1448124     -0.0057988055 
     95250   0.25329255    -5.3255144      0             -5.1438045     -0.034217747  
     95300   0.24328569    -5.3219361      0             -5.147405      -0.072378938  
     95350   0.22259983    -5.3176428      0             -5.1579516     -0.052278339  
     95400   0.21536724    -5.3120828      0             -5.1575802     -0.044676315  
     95450   0.21662175    -5.3079744      0             -5.1525718      0.062347553  
     95500   0.19427695    -5.3054433      0             -5.1660707      0.023628101  
     95550   0.19503264    -5.3045803      0             -5.1646656     -0.0085924124 
     95600   0.20365282    -5.306517       0             -5.1604183      0.022152956  
     95650   0.20607993    -5.3098807      0             -5.1620408      0.064370579  
     95700   0.20934729    -5.3150615      0             -5.1648776     -0.02817271   
     95750   0.20274021    -5.3199787      0             -5.1745346     -0.030905482  
     95800   0.21108778    -5.3240141      0             -5.1725816      0.022714897  
     95850   0.20725241    -5.3264656      0             -5.1777845      0.066378338  
     95900   0.19849416    -5.3257603      0             -5.1833623     -0.0977313    
     95950   0.20479233    -5.3218408      0             -5.1749246     -0.1086308    
     96000   0.18422228    -5.3156239      0             -5.1834645      0.013451349  
     96050   0.17526854    -5.3095033      0             -5.1837672      0.044300615  
     96100   0.16748912    -5.3058957      0             -5.1857404     -0.038200569  
     96150   0.16984415    -5.3060895      0             -5.1842448     -0.0084015881 
     96200   0.1902128     -5.3115428      0             -5.1750858      0.026082471  
     96250   0.2064826     -5.3185415      0             -5.1704126     -0.011533684  
     96300   0.2267289     -5.3248402      0             -5.1621868      0.03368267   
     96350   0.23112968    -5.3291891      0             -5.1633787     -0.11882717   
     96400   0.22635932    -5.331064       0             -5.1686758      0.047732302  
     96450   0.22412606    -5.3308993      0             -5.1701132     -0.0070945733 
     96500   0.21540614    -5.3296844      0             -5.1751539      0.030473272  
     96550   0.20740545    -5.3268001      0             -5.1780093      0.04915192   
     96600   0.20814718    -5.3221804      0             -5.1728574      0.010244671  
     96650   0.20159127    -5.3164916      0             -5.1718718     -0.0029951776 
     96700   0.18140472    -5.3097347      0             -5.1795965     -0.026218705  
     96750   0.16983168    -5.3036907      0             -5.1818549      0.06836031   
     96800   0.16138667    -5.2993274      0             -5.18355        0.035325861  
     96850   0.16933445    -5.2979733      0             -5.1764942     -0.035102588  
     96900   0.1803176     -5.2993614      0             -5.1700031      0.042579523  
     96950   0.18703157    -5.3004458      0             -5.166271      -0.018220166  
     97000   0.2013799     -5.3023533      0             -5.1578852     -0.083027327  
     97050   0.19976306    -5.3050308      0             -5.1617225     -0.047584303  
     97100   0.21398726    -5.3092548      0             -5.1557422      0.018202125  
     97150   0.22090194    -5.3150656      0             -5.1565925      0.042473862  
     97200   0.23234522    -5.3208576      0             -5.1541751      0.034596663  
     97250   0.24437771    -5.3241422      0             -5.1488277     -0.064670168  
     97300   0.24318675    -5.3257675      0             -5.1513075     -0.0075093466 
     97350   0.23755842    -5.3258477      0             -5.1554253     -0.044345001  
     97400   0.2373804     -5.325162       0             -5.1548674     -0.061720915  
     97450   0.23084761    -5.3230989      0             -5.1574908      0.044771705  
     97500   0.2290214     -5.3212388      0             -5.1569409     -0.013228752  
     97550   0.21537512    -5.3187853      0             -5.1642771     -0.016777975  
     97600   0.21913079    -5.3160477      0             -5.1588452     -0.013619149  
     97650   0.22444891    -5.3147861      0             -5.1537684     -0.039596891  
     97700   0.21669822    -5.3136025      0             -5.158145      -0.057730284  
     97750   0.21571879    -5.3139954      0             -5.1592406      0.057939492  
     97800   0.22766829    -5.314333       0             -5.1510058     -0.015589178  
     97850   0.23658629    -5.3120294      0             -5.1423044      0.0041285816 
     97900   0.24490355    -5.3092993      0             -5.1336077      0.055160968  
     97950   0.25035553    -5.3121425      0             -5.1325396     -0.0049213107 
     98000   0.26351323    -5.3147946      0             -5.1257525      0.064142001  
     98050   0.26481589    -5.3104613      0             -5.1204847      0.042035064  
     98100   0.23776643    -5.299739       0             -5.1291674     -0.059808645  
     98150   0.2183503     -5.2907545      0             -5.1341119      0.046679909  
     98200   0.22169577    -5.2831128      0             -5.1240702      0.044784448  
     98250   0.20322689    -5.2717432      0             -5.12595        0.085200592  
     98300   0.20125467    -5.2665026      0             -5.1221242      0.038672407  
     98350   0.19454225    -5.2735688      0             -5.1340059     -0.030804884  
     98400   0.20326523    -5.2863394      0             -5.1405187      0.018660927  
     98450   0.2194407     -5.2943104      0             -5.1368855      0.010265168  
     98500   0.25254133    -5.3113498      0             -5.1301788     -0.016740527  
     98550   0.26216316    -5.3123745      0             -5.1243009     -0.028874061  
     98600   0.23758478    -5.3144771      0             -5.1440359      0.013891069  
     98650   0.22528145    -5.3129678      0             -5.1513529     -0.04802964   
     98700   0.22377898    -5.3194354      0             -5.1588983      0.035339184  
     98750   0.20106845    -5.3024171      0             -5.1581723     -0.016459047  
     98800   0.19920199    -5.3054675      0             -5.1625618     -0.053345787  
     98850   0.18441495    -5.2937119      0             -5.1614142      0.0097913316 
     98900   0.17646262    -5.2891045      0             -5.1625118     -0.043717265  
     98950   0.17656013    -5.2893951      0             -5.1627324      0.0073687039 
     99000   0.16928967    -5.2923104      0             -5.1708634     -0.027227053  
     99050   0.18872328    -5.3013069      0             -5.1659184      0.02365613   
     99100   0.19765146    -5.3079481      0             -5.1661547     -0.045669429  
     99150   0.20893196    -5.3123402      0             -5.1624543      0.05456469   
     99200   0.20758561    -5.3114073      0             -5.1624872     -0.04775765   
     99250   0.1895669     -5.3105134      0             -5.1745197     -0.021156374  
     99300   0.19239812    -5.3106823      0             -5.1726576      0.054478511  
     99350   0.19259107    -5.3103291      0             -5.1721659     -0.029622876  
     99400   0.20464458    -5.3086921      0             -5.1618818     -0.022234294  
     99450   0.20042863    -5.3069526      0             -5.1631668      0.027629722  
     99500   0.20065684    -5.3050629      0             -5.1611135     -0.017314515  
     99550   0.1981926     -5.3018368      0             -5.1596552      0.01403126   
     99600   0.19129063    -5.2977536      0             -5.1605233      0.047130161  
     99650   0.18937652    -5.2929778      0             -5.1571207     -0.0061045724 
     99700   0.1807271     -5.2901197      0             -5.1604677     -0.06745491   
     99750   0.18539134    -5.2907814      0             -5.1577833      0.033062376  
     99800   0.19589745    -5.2976928      0             -5.1571577     -0.061365595  
     99850   0.20449915    -5.3076331      0             -5.1609272      0.0040637363 
     99900   0.22407826    -5.3179724      0             -5.1572206      0.01787533   
     99950   0.22922716    -5.32476        0             -5.1603144     -0.069667475  
    100000   0.23637037    -5.3287188      0             -5.1591487     -0.02476705   
    100001   0.23713814    -5.3287267      0             -5.1586059     -0.022351023  
Loop time of 0.858475 on 1 procs for 100000 steps with 23 atoms

Performance: 10064358.310 tau/day, 116485.629 timesteps/s, 2.679 Matom-step/s
56.4% CPU use with 1 MPI tasks x 1 OpenMP threads

MPI task timing breakdown:
Section |  min time  |  avg time  |  max time  |%varavg| %total
---------------------------------------------------------------
Pair    | 0.056804   | 0.056804   | 0.056804   |   0.0 |  6.62
Bond    | 0.006601   | 0.006601   | 0.006601   |   0.0 |  0.77
Neigh   | 0.007851   | 0.007851   | 0.007851   |   0.0 |  0.91
Comm    | 0.030331   | 0.030331   | 0.030331   |   0.0 |  3.53
Output  | 0.39509    | 0.39509    | 0.39509    |   0.0 | 46.02
Modify  | 0.33024    | 0.33024    | 0.33024    |   0.0 | 38.47
Other   |            | 0.03156    |            |       |  3.68

Nlocal:             23 ave          23 max          23 min
Histogram: 1 0 0 0 0 0 0 0 0 0
Nghost:             11 ave          11 max          11 min
Histogram: 1 0 0 0 0 0 0 0 0 0
Neighs:              0 ave           0 max           0 min
Histogram: 1 0 0 0 0 0 0 0 0 0

Total # of neighbors = 0
Ave neighs/atom = 0
Ave special neighs/atom = 2.4347826
Neighbor list builds = 943
Dangerous builds = 0
Total wall time: 0:00:00
