LAMMPS (2 Aug 2023 - Update 3)
OMP_NUM_THREADS environment is not set. Defaulting to 1 thread. (src/comm.cpp:98)
  using 1 OpenMP thread(s) per MPI task
Loaded 1 plugins from F:\LAMMPS\LAMMPS 64-bit 2Aug2023\plugins
# Script to create a Polymer using Patchy Particles (PP)
# Types of Particles:
#   Cross linker:   PPA
#   Monomer:        PPB

# Initialization
units lj
dimension 3
boundary p p p

# Types of atoms and that stuff
atom_style full
bond_style zero nocoeff
pair_style hybrid lj/cut 2.5 cosine/squared 2.5 zero 2.5

# Get data for box and particles
read_data data.patchyP1.lmp group CL1
Reading data file ...
  orthogonal box = (-5 -5 -5) to (5 5 5)
  1 by 1 by 1 MPI processor grid
WARNING: Atom style in data file atom-ID molecule-ID atom-type q x y z differs from currently defined atom style full (src/read_data.cpp:621)
  reading atoms ...
  5 atoms
  scanning bonds ...
  4 = max bonds/atom
WARNING: Bond style ID parameters in data file differs from currently defined bond style zero (src/read_data.cpp:724)
  reading bonds ...
  4 bonds
Finding 1-2 1-3 1-4 neighbors ...
  special bond factors lj:    0        0        0       
  special bond factors coul:  0        0        0       
     4 = max # of 1-2 neighbors
     3 = max # of 1-3 neighbors
     3 = max # of 1-4 neighbors
     4 = max # of special neighbors
  special bonds CPU = 0.000 seconds
  read_data CPU = 0.006 seconds
read_data data.patchyP2.lmp add append group Mo1
Reading data file ...
  orthogonal box = (-5 -5 -5) to (5 5 5)
  1 by 1 by 1 MPI processor grid
WARNING: Atom style in data file atom-ID molecule-ID atom-type q x y z differs from currently defined atom style full (src/read_data.cpp:621)
  reading atoms ...
  3 atoms
  scanning bonds ...
  2 = max bonds/atom
WARNING: Bond style ID parameters in data file differs from currently defined bond style zero (src/read_data.cpp:724)
  reading bonds ...
  2 bonds
Finding 1-2 1-3 1-4 neighbors ...
  special bond factors lj:    0        0        0       
  special bond factors coul:  0        0        0       
     4 = max # of 1-2 neighbors
     3 = max # of 1-3 neighbors
     3 = max # of 1-4 neighbors
     4 = max # of special neighbors
  special bonds CPU = 0.000 seconds
  read_data CPU = 0.010 seconds
read_data data.patchyP2.lmp add append group Mo2
Reading data file ...
  orthogonal box = (-5 -5 -5) to (5 5 5)
  1 by 1 by 1 MPI processor grid
WARNING: Atom style in data file atom-ID molecule-ID atom-type q x y z differs from currently defined atom style full (src/read_data.cpp:621)
  reading atoms ...
  3 atoms
  scanning bonds ...
  2 = max bonds/atom
WARNING: Bond style ID parameters in data file differs from currently defined bond style zero (src/read_data.cpp:724)
  reading bonds ...
  2 bonds
Finding 1-2 1-3 1-4 neighbors ...
  special bond factors lj:    0        0        0       
  special bond factors coul:  0        0        0       
     4 = max # of 1-2 neighbors
     3 = max # of 1-3 neighbors
     3 = max # of 1-4 neighbors
     4 = max # of special neighbors
  special bonds CPU = 0.000 seconds
  read_data CPU = 0.003 seconds
read_data data.patchyP2.lmp add append group Mo3
Reading data file ...
  orthogonal box = (-5 -5 -5) to (5 5 5)
  1 by 1 by 1 MPI processor grid
WARNING: Atom style in data file atom-ID molecule-ID atom-type q x y z differs from currently defined atom style full (src/read_data.cpp:621)
  reading atoms ...
  3 atoms
  scanning bonds ...
  2 = max bonds/atom
WARNING: Bond style ID parameters in data file differs from currently defined bond style zero (src/read_data.cpp:724)
  reading bonds ...
  2 bonds
Finding 1-2 1-3 1-4 neighbors ...
  special bond factors lj:    0        0        0       
  special bond factors coul:  0        0        0       
     4 = max # of 1-2 neighbors
     3 = max # of 1-3 neighbors
     3 = max # of 1-4 neighbors
     4 = max # of special neighbors
  special bonds CPU = 0.000 seconds
  read_data CPU = 0.002 seconds
read_data data.patchyP2.lmp add append group Mo4
Reading data file ...
  orthogonal box = (-5 -5 -5) to (5 5 5)
  1 by 1 by 1 MPI processor grid
WARNING: Atom style in data file atom-ID molecule-ID atom-type q x y z differs from currently defined atom style full (src/read_data.cpp:621)
  reading atoms ...
  3 atoms
  scanning bonds ...
  2 = max bonds/atom
WARNING: Bond style ID parameters in data file differs from currently defined bond style zero (src/read_data.cpp:724)
  reading bonds ...
  2 bonds
Finding 1-2 1-3 1-4 neighbors ...
  special bond factors lj:    0        0        0       
  special bond factors coul:  0        0        0       
     4 = max # of 1-2 neighbors
     3 = max # of 1-3 neighbors
     3 = max # of 1-4 neighbors
     4 = max # of special neighbors
  special bonds CPU = 0.000 seconds
  read_data CPU = 0.002 seconds
read_data data.patchyP2.lmp add append group Mo5
Reading data file ...
  orthogonal box = (-5 -5 -5) to (5 5 5)
  1 by 1 by 1 MPI processor grid
WARNING: Atom style in data file atom-ID molecule-ID atom-type q x y z differs from currently defined atom style full (src/read_data.cpp:621)
  reading atoms ...
  3 atoms
  scanning bonds ...
  2 = max bonds/atom
WARNING: Bond style ID parameters in data file differs from currently defined bond style zero (src/read_data.cpp:724)
  reading bonds ...
  2 bonds
Finding 1-2 1-3 1-4 neighbors ...
  special bond factors lj:    0        0        0       
  special bond factors coul:  0        0        0       
     4 = max # of 1-2 neighbors
     3 = max # of 1-3 neighbors
     3 = max # of 1-4 neighbors
     4 = max # of special neighbors
  special bonds CPU = 0.000 seconds
  read_data CPU = 0.002 seconds
read_data data.patchyP2.lmp add append group Mo6
Reading data file ...
  orthogonal box = (-5 -5 -5) to (5 5 5)
  1 by 1 by 1 MPI processor grid
WARNING: Atom style in data file atom-ID molecule-ID atom-type q x y z differs from currently defined atom style full (src/read_data.cpp:621)
  reading atoms ...
  3 atoms
  scanning bonds ...
  2 = max bonds/atom
WARNING: Bond style ID parameters in data file differs from currently defined bond style zero (src/read_data.cpp:724)
  reading bonds ...
  2 bonds
Finding 1-2 1-3 1-4 neighbors ...
  special bond factors lj:    0        0        0       
  special bond factors coul:  0        0        0       
     4 = max # of 1-2 neighbors
     3 = max # of 1-3 neighbors
     3 = max # of 1-4 neighbors
     4 = max # of special neighbors
  special bonds CPU = 0.000 seconds
  read_data CPU = 0.008 seconds

displace_atoms Mo1 move 0.0 0.0 3.0 units box
Displacing atoms ...
displace_atoms Mo2 move 0.0 0.0 -3.0 units box
Displacing atoms ...
displace_atoms Mo3 move 0.0 3.0 0.0 units box
Displacing atoms ...
displace_atoms Mo4 move 0.0 -3.0 0.0 units box
Displacing atoms ...
displace_atoms Mo5 move 3.5 0.0 0.0 units box
Displacing atoms ...
displace_atoms Mo6 move -3.5 0.0 0.0 units box
Displacing atoms ...

# Set the patchy particle interaction
fix CLfix CL1 rigid single # ID group-ID style args
  1 rigid bodies with 5 atoms
fix Mofix1 Mo1 rigid single
  1 rigid bodies with 3 atoms
fix Mofix2 Mo2 rigid single
  1 rigid bodies with 3 atoms
fix Mofix3 Mo3 rigid single
  1 rigid bodies with 3 atoms
fix Mofix4 Mo4 rigid single
  1 rigid bodies with 3 atoms
fix Mofix5 Mo5 rigid single
  1 rigid bodies with 3 atoms
fix Mofix6 Mo6 rigid single
  1 rigid bodies with 3 atoms

pair_coeff 1 1 zero 2.24
pair_coeff 2 2 zero 2.24
pair_coeff 3 3 zero 2.24
pair_coeff 1 3 zero 1.68
pair_coeff 1 4 zero 1.68
pair_coeff 2 3 zero 1.68
pair_coeff 2 4 zero 1.68
pair_coeff 1 2 lj/cut 1.0 1.0 1.12 # i-type j-type eps sigma cutoff
pair_coeff 3 4 cosine/squared 10.0 0.5 0.56 wca # i-type j-type eps sigma cutoff wca
pair_coeff 4 4 cosine/squared 10.0 0.5 0.56 wca # i-type j-type eps sigma cutoff wca

# Neighbor list
neighbor 0.3 bin # extra-distance style
#neigh_modify delay 5

minimize 1.0e-4 1.0e-6 1000 10000 # etol ftol maxiter maxeval
Generated 0 of 6 mixed pair_coeff terms from geometric mixing rule
WARNING: More than one fix rigid (src/RIGID/fix_rigid.cpp:709)
WARNING: More than one fix rigid (src/RIGID/fix_rigid.cpp:709)
WARNING: More than one fix rigid (src/RIGID/fix_rigid.cpp:709)
WARNING: More than one fix rigid (src/RIGID/fix_rigid.cpp:709)
WARNING: More than one fix rigid (src/RIGID/fix_rigid.cpp:709)
WARNING: More than one fix rigid (src/RIGID/fix_rigid.cpp:709)
WARNING: More than one fix rigid (src/RIGID/fix_rigid.cpp:709)
Neighbor list info ...
  update: every = 1 steps, delay = 0 steps, check = yes
  max neighbors/atom: 2000, page size: 100000
  master list distance cutoff = 2.54
  ghost atom cutoff = 2.54
  binsize = 1.27, bins = 8 8 8
  6 neighbor lists, perpetual/occasional/extra = 6 0 0
  (1) pair lj/cut, perpetual, skip from (4)
      attributes: half, newton on, cut 1.4200000000000002
      pair build: skip
      stencil: none
      bin: none
  (2) pair cosine/squared, perpetual, skip from (5)
      attributes: half, newton on, cut 0.8600000000000001
      pair build: skip
      stencil: none
      bin: none
  (3) pair zero, perpetual, skip from (6)
      attributes: half, newton on
      pair build: skip
      stencil: none
      bin: none
  (4) neighbor class addition, perpetual, trim from (6)
      attributes: half, newton on, cut 1.4200000000000002
      pair build: trim
      stencil: none
      bin: none
  (5) neighbor class addition, perpetual, trim from (4)
      attributes: half, newton on, cut 0.8600000000000001
      pair build: trim
      stencil: none
      bin: none
  (6) neighbor class addition, perpetual
      attributes: half, newton on
      pair build: half/bin/newton
      stencil: half/bin/3d
      bin: standard
Per MPI rank memory allocation (min/avg/max) = 19.73 | 19.73 | 19.73 Mbytes
   Step          Temp          E_pair         E_mol          TotEng         Press     
         0   0              0              0              0              3.2777948e-311
         1   0              0              0              0              3.2777948e-311
Loop time of 7.3e-05 on 1 procs for 1 steps with 23 atoms

0.0% CPU use with 1 MPI tasks x 1 OpenMP threads

Minimization stats:
  Stopping criterion = search direction is not downhill
  Energy initial, next-to-last, final = 
                     0                  0                  0
  Force two-norm initial, final = 0 0
  Force max component initial, final = 0 0
  Final line search alpha, max atom move = 0 0
  Iterations, force evaluations = 1 0

MPI task timing breakdown:
Section |  min time  |  avg time  |  max time  |%varavg| %total
---------------------------------------------------------------
Pair    | 3e-06      | 3e-06      | 3e-06      |   0.0 |  4.11
Bond    | 1e-06      | 1e-06      | 1e-06      |   0.0 |  1.37
Neigh   | 0          | 0          | 0          |   0.0 |  0.00
Comm    | 1e-06      | 1e-06      | 1e-06      |   0.0 |  1.37
Output  | 0          | 0          | 0          |   0.0 |  0.00
Modify  | 0          | 0          | 0          |   0.0 |  0.00
Other   |            | 6.8e-05    |            |       | 93.15

Nlocal:             23 ave          23 max          23 min
Histogram: 1 0 0 0 0 0 0 0 0 0
Nghost:             18 ave          18 max          18 min
Histogram: 1 0 0 0 0 0 0 0 0 0
Neighs:              0 ave           0 max           0 min
Histogram: 1 0 0 0 0 0 0 0 0 0

Total # of neighbors = 0
Ave neighs/atom = 0
Ave special neighs/atom = 2.4347826
Neighbor list builds = 0
Dangerous builds = 0

fix 1 all langevin 1.0 1.0 50.0 12345
fix 2 all nve

thermo 50
compute t all temp
compute ep all pe
compute ek all ke
compute tm all momentum

dump 1 all atom 50 dump.patchy_pairs2

timestep 0.001
run 100000
Generated 0 of 6 mixed pair_coeff terms from geometric mixing rule
WARNING: More than one fix rigid (src/RIGID/fix_rigid.cpp:709)
WARNING: More than one fix rigid (src/RIGID/fix_rigid.cpp:709)
WARNING: More than one fix rigid (src/RIGID/fix_rigid.cpp:709)
WARNING: More than one fix rigid (src/RIGID/fix_rigid.cpp:709)
WARNING: More than one fix rigid (src/RIGID/fix_rigid.cpp:709)
WARNING: More than one fix rigid (src/RIGID/fix_rigid.cpp:709)
WARNING: More than one fix rigid (src/RIGID/fix_rigid.cpp:709)
WARNING: One or more atoms are time integrated more than once (src/modify.cpp:289)
Per MPI rank memory allocation (min/avg/max) = 18.6 | 18.6 | 18.6 Mbytes
   Step          Temp          E_pair         E_mol          TotEng         Press     
         1   0              0              0              0              0            
        50   0.003526506    0              0              0.0025298847  -0.047703645  
       100   0.0076438695   0              0              0.0054836455   0.01223446   
       150   0.011636517    0              0              0.0083479358   0.06841665   
       200   0.013813895    0              0              0.0099099679   0.042689268  
       250   0.015230083    0              0              0.010925929    0.015970283  
       300   0.018972224    0              0              0.013610508    0.048707571  
       350   0.018879709    0              0              0.013544139   -0.022758507  
       400   0.019698347    0              0              0.014131423    0.055806915  
       450   0.020539865    0              0              0.01473512     0.0021942822 
       500   0.023379265    0              0              0.016772082    0.034852028  
       550   0.022702163    0              0              0.016286334   -0.0045991857 
       600   0.022497463    0              0              0.016139484    0.022643784  
       650   0.022969523    0              0              0.016478136   -0.0437652    
       700   0.02167512     0              0              0.015549543   -0.022237655  
       750   0.025769561    0              0              0.018486859    0.020565505  
       800   0.02573511     0              0              0.018462144   -0.0256344    
       850   0.02120986     0              0              0.015215769   -0.028141436  
       900   0.024676642    0              0              0.017702808    0.047375001  
       950   0.030188995    0              0              0.021657322   -0.032731738  
      1000   0.032637639    0              0              0.023413958   -0.04364008   
      1050   0.038870791    0              0              0.027885568    0.0042133685 
      1100   0.041846419    0              0              0.030020257    0.018846079  
      1150   0.046882822    0              0              0.033633329    0.016667722  
      1200   0.048428573    0              0              0.034742237    0.00017203793
      1250   0.051031007    0              0              0.036609201   -0.05825761   
      1300   0.046286754    0              0              0.033205715    0.053076705  
      1350   0.05084192     0              0              0.036473551   -0.010055801  
      1400   0.054729508    0              0              0.039262473    0.009629083  
      1450   0.055609684    0              0              0.039893904    0.0059116485 
      1500   0.05311507     0              0              0.038104289    0.0059682557 
      1550   0.055333519    0              0              0.039695785   -0.0074934399 
      1600   0.059670243    0              0              0.042806913    0.039795519  
      1650   0.06514451     0              0              0.046734105   -0.030321697  
      1700   0.06693524     0              0              0.048018759   -0.038736824  
      1750   0.065854673    0              0              0.047243569   -0.1358312    
      1800   0.065936023    0              0              0.04730193    -0.001140293  
      1850   0.068384816    0              0              0.049058673   -0.018964147  
      1900   0.075790563    0              0              0.054371491    0.058773042  
      1950   0.082494799    0              0              0.059181051   -0.007861387  
      2000   0.088702751    0              0              0.063634582   -0.039279211  
      2050   0.09377574     0              0              0.0672739      0.018615787  
      2100   0.092631888    0              0              0.066453311    0.040337609  
      2150   0.092983104    0              0              0.06670527     0.0645671    
      2200   0.096430742    0              0              0.069178576   -0.018481825  
      2250   0.093382332    0              0              0.066991673   -0.020893774  
      2300   0.10177704     0              0              0.073013964    0.03723227   
      2350   0.099574747    0              0              0.071434058    0.022646491  
      2400   0.098454277    0              0              0.070630242    0.02258591   
      2450   0.096795471    0              0              0.06944023     0.06891818   
      2500   0.10461674     0              0              0.075051138   -0.016415265  
      2550   0.092225008    0              0              0.066161418    0.041596842  
      2600   0.094124587    0              0              0.06752416    -0.021891933  
      2650   0.088982944    0              0              0.06383559    -0.034450628  
      2700   0.095255341    0              0              0.068335353   -0.048020633  
      2750   0.094003118    0              0              0.067437019    0.012959851  
      2800   0.088512065    0              0              0.063497786   -0.062822277  
      2850   0.090377177    0              0              0.064835801    0.033001136  
      2900   0.082326242    0              0              0.05906013    -0.014781354  
      2950   0.082610418    0              0              0.059263996    0.047535245  
      3000   0.084660752    0              0              0.060734887   -0.04329871   
      3050   0.09448855     0              0              0.067785264    0.0093920435 
      3100   0.097275181    0              0              0.069784369    0.02974143   
      3150   0.1082717      0              0              0.077673177   -0.015868013  
      3200   0.10662607     0              0              0.076492617    0.0048940004 
      3250   0.10698935     0              0              0.076753227   -0.011556771  
      3300   0.11788931     0              0              0.084572764    0.075417041  
      3350   0.12833366     0              0              0.092065454   -0.021291454  
      3400   0.12385144     0              0              0.088849947    0.0094264428 
      3450   0.13787849     0              0              0.098912831    0.098871793  
      3500   0.14044607     0              0              0.10075479     0.085533367  
      3550   0.13878172     0              0              0.099560802    0.0087475193 
      3600   0.14121435     0              0              0.10130595     0.032943207  
      3650   0.55192501    -0.29890768     0              0.097038521   -0.88500631   
      3700   0.35010376    -0.29734561     0             -0.046184211   -0.75322279   
      3750   0.18755088    -0.25880934     0             -0.12426197     1.081484     
      3800   0.34265761    -0.4347309      0             -0.18891131    -0.079676592  
      3850   0.30745052    -0.43344892     0             -0.21288659    -0.088771424  
      3900   0.2246114     -0.39793935     0             -0.23680509     0.30170115   
      3950   0.20525023    -0.39693847     0             -0.24969373    -0.56724039   
      4000   0.21638853    -0.40867375     0             -0.2534385      0.23291146   
      4050   0.20717303    -0.40530334     0             -0.25667922    -0.44390427   
      4100   0.21488501    -0.41450228     0             -0.26034564     0.22545946   
      4150   0.20687593    -0.41244076     0             -0.26402977    -0.32567206   
      4200   0.21750645    -0.42286016     0             -0.26682292     0.19668259   
      4250   0.23185377    -0.43474151     0             -0.26841163    -0.0013414579 
      4300   0.23272356    -0.43463069     0             -0.26767683     0.041944977  
      4350   0.22510205    -0.43026728     0             -0.26878103     0.041394414  
      4400   0.22145761    -0.43309645     0             -0.27422468    -0.050230821  
      4450   0.23306751    -0.43427411     0             -0.2670735     -0.041893269  
      4500   0.24169655    -0.43340358     0             -0.26001258     0.022975672  
      4550   0.24284484    -0.43465295     0             -0.26043818    -0.066856649  
      4600   0.24406321    -0.43472819     0             -0.25963937     0.0075268471 
      4650   0.23634957    -0.43451175     0             -0.26495662     0.0057445643 
      4700   0.24292227    -0.43469478     0             -0.26042445     0.033725523  
      4750   0.24361996    -0.43463265     0             -0.25986181    -0.017469745  
      4800   0.24219236    -0.43478055     0             -0.26103386     0.026895092  
      4850   0.23490681    -0.43468014     0             -0.26616004     0.060926291  
      4900   0.23770245    -0.43470628     0             -0.26418061    -0.011516034  
      4950   0.23584976    -0.43470918     0             -0.26551262     0.018377106  
      5000   0.23123928    -0.43477863     0             -0.26888958    -0.0072539589 
      5050   0.22702384    -0.43464364     0             -0.27177871     0.018639336  
      5100   0.24575788    -0.43477695     0             -0.25847238    -0.026594791  
      5150   0.24107447    -0.43477942     0             -0.26183469     0.045543674  
      5200   0.25229418    -0.43468859     0             -0.25369495     0.022966079  
      5250   0.26133326    -0.43475347     0             -0.24727527    -0.020142917  
      5300   0.25379647    -0.43478014     0             -0.25270876    -0.0039871875 
      5350   0.26830541    -0.43477189     0             -0.24229193     0.010148131  
      5400   0.28080156    -0.43478257     0             -0.23333797     0.02482309   
      5450   0.29732792    -0.4347825      0             -0.22148204    -0.013561609  
      5500   0.28605274    -0.43478259     0             -0.22957084    -0.0085330192 
      5550   0.27536473    -0.43475828     0             -0.23721401    -0.0025239951 
      5600   0.2671399     -0.43473899     0             -0.24309515    -0.023794951  
      5650   0.26442711    -0.43470107     0             -0.24500336     0.0016864338 
      5700   0.28073212    -0.43477364     0             -0.23337886     0.036753336  
      5750   0.30175767    -0.43471431     0             -0.21823598     0.047907635  
      5800   0.30355225    -0.43478062     0             -0.21701487    -0.015046655  
      5850   0.30092358    -0.43473381     0             -0.21885386    -0.081758923  
      5900   0.29950294    -0.43477693     0             -0.21991613     0.070791291  
      5950   0.31039362    -0.43476502     0             -0.21209134     0.04893918   
      6000   0.30560007    -0.4347826      0             -0.21554777     0.0046158841 
      6050   0.31001965    -0.43474022     0             -0.21233482     0.0093152488 
      6100   0.31866707    -0.43472278     0             -0.2061138     -0.063629734  
      6150   0.32095829    -0.43468913     0             -0.20443644     0.054491827  
      6200   0.3211575     -0.43465673     0             -0.20426113     0.0042833279 
      6250   0.32550572    -0.43443861     0             -0.20092363    -0.0051346944 
      6300   0.32078814    -0.43455245     0             -0.20442183    -0.033850518  
      6350   0.31221522    -0.43469178     0             -0.21071129    -0.0048791354 
      6400   0.3087044     -0.43460482     0             -0.21314297     0.0023005362 
      6450   0.30822205    -0.43469623     0             -0.21358041     0.037627822  
      6500   0.2993432     -0.43478197     0             -0.22003576    -0.0097985186 
      6550   0.29201244    -0.43472665     0             -0.22523947    -0.023251607  
      6600   0.30018675    -0.43477503     0             -0.21942367    -0.01131342   
      6650   0.3243232     -0.43477259     0             -0.20210594    -0.060344328  
      6700   0.33836005    -0.43477574     0             -0.19203918     0.023228212  
      6750   0.33991523    -0.43476957     0             -0.19091734    -0.030068154  
      6800   0.34462266    -0.43477824     0             -0.18754894    -0.02043447   
      6850   0.34444202    -0.43478261     0             -0.1876829      0.0037334499 
      6900   0.34017222    -0.43478092     0             -0.19074432    -0.0063774255 
      6950   0.35077871    -0.4346902      0             -0.1830446     -0.056456331  
      7000   0.35447944    -0.43466778     0             -0.18036732     0.038657972  
      7050   0.37831053    -0.43478104     0             -0.16338435     0.026132708  
      7100   0.37945471    -0.43477737     0             -0.16255986    -0.071894837  
      7150   0.3761729     -0.43478226     0             -0.16491909     0.03987275   
      7200   0.38545609    -0.43478215     0             -0.1582593      0.01797277   
      7250   0.37360462    -0.43475062     0             -0.16672992    -0.040157272  
      7300   0.37480221    -0.43478112     0             -0.16590128     0.05340252   
      7350   0.35756213    -0.43462803     0             -0.17811607    -0.04447015   
      7400   0.34647459    -0.43462575     0             -0.18606789    -0.01798609   
      7450   0.33175679    -0.43442108     0             -0.19642164     0.049762072  
      7500   0.32871963    -0.43443592     0             -0.19861532     0.026375799  
      7550   0.32967831    -0.43464576     0             -0.19813741     0.030255264  
      7600   0.32910524    -0.43460549     0             -0.19850825     0.04878911   
      7650   0.33415229    -0.43477749     0             -0.19505954    -0.030084811  
      7700   0.34006779    -0.43474309     0             -0.19078141     0.010328666  
      7750   0.34038531    -0.43472649     0             -0.19053703    -0.038254958  
      7800   0.33462817    -0.43473823     0             -0.19467889    -0.082124134  
      7850   0.34805705    -0.43470843     0             -0.18501532     0.055886789  
      7900   0.35179135    -0.4346185      0             -0.18224644     0.025148831  
      7950   0.35135233    -0.43467249     0             -0.18261538     0.0082583157 
      8000   0.34292731    -0.43476871     0             -0.18875564     0.044938586  
      8050   0.32322525    -0.43476795     0             -0.20288896    -0.00071700421
      8100   0.3311882     -0.43473315     0             -0.19714162    -0.0015299974 
      8150   0.32734627    -0.43461648     0             -0.19978111     0.034391989  
      8200   0.32191563    -0.43460688     0             -0.20366741     0.084936474  
      8250   0.34806061    -0.43459604     0             -0.18490039    -0.002350128  
      8300   0.35699458    -0.43478207     0             -0.17867726     0.064870122  
      8350   0.35351516    -0.43476444     0             -0.18115574     0.060255144  
      8400   0.33436926    -0.43476048     0             -0.19488688     0.035026678  
      8450   0.34692155    -0.43474733     0             -0.18586882     0.00063073697
      8500   0.34961133    -0.4347826      0             -0.18397447     0.043894815  
      8550   0.34454232    -0.43454782     0             -0.18737615     0.0081016746 
      8600   0.34086277    -0.43467806     0             -0.19014607     0.019285683  
      8650   0.34612964    -0.43478095     0             -0.18647056    -0.056747714  
      8700   0.35476028    -0.43471914     0             -0.18021719    -0.012087822  
      8750   0.36714367    -0.4346811      0             -0.17129542     0.0009739134 
      8800   0.36503456    -0.43477452     0             -0.1729019      0.043389275  
      8850   0.36442662    -0.43470326     0             -0.17326677     0.055638661  
      8900   0.35034328    -0.43473384     0             -0.18340062     0.0021134833 
      8950   0.35568945    -0.43478229     0             -0.17961378    -0.023754729  
      9000   0.35453192    -0.43474055     0             -0.18040243     0.01216269   
      9050   0.35902404    -0.43471012     0             -0.1771494      0.01443165   
      9100   0.36800391    -0.43476917     0             -0.17076637    -0.11593404   
      9150   0.36537936    -0.43472685     0             -0.17260688    -0.047204339  
      9200   0.37671925    -0.4347791      0             -0.16452399     0.082444032  
      9250   0.36660879    -0.43478166     0             -0.17177971    -0.010105544  
      9300   0.34671635    -0.4347816      0             -0.18605031     0.029433434  
      9350   0.33025207    -0.43478256     0             -0.1978626     -0.019548902  
      9400   0.33652968    -0.43478043     0             -0.19335696    -0.017346619  
      9450   0.34542994    -0.43477444     0             -0.186966      -0.0043308283 
      9500   0.35162127    -0.43477378     0             -0.18252374     0.080854506  
      9550   0.35417228    -0.43473579     0             -0.18065568     0.077067596  
      9600   0.36694946    -0.43477401     0             -0.17152766    -0.017557906  
      9650   0.37005998    -0.43476571     0             -0.1692879     -0.012831494  
      9700   0.36887734    -0.43474114     0             -0.17011175    -0.0097873102 
      9750   0.37821892    -0.43476356     0             -0.1634326     -0.0053854127 
      9800   0.38631313    -0.43472156     0             -0.15758388     0.0092211435 
      9850   0.4060217     -0.43474658     0             -0.14347015     0.0061655265 
      9900   0.43502026    -0.43478161     0             -0.12270186    -0.0087882556 
      9950   0.44451324    -0.43478221     0             -0.11589228     0.04180998   
     10000   0.44254094    -0.43476402     0             -0.117289       0.02998011   
     10050   0.44901717    -0.4347171      0             -0.11259608    -0.018174187  
     10100   0.44299607    -0.43464922     0             -0.11684769    -0.068581316  
     10150   0.43878753    -0.43474936     0             -0.119967       0.084563175  
     10200   0.43296324    -0.4347778      0             -0.12417374    -0.11110746   
     10250   0.42395068    -0.43478007     0             -0.13064154    -0.0063749934 
     10300   0.42177829    -0.43476988     0             -0.13218981     0.078271558  
     10350   0.4171071     -0.43478118     0             -0.13555218     0.0059675969 
     10400   0.43411471    -0.43477251     0             -0.12334239    -0.045878085  
     10450   0.45113397    -0.43476628     0             -0.11112669    -0.045443775  
     10500   0.4623705     -0.43474628     0             -0.1030457     -0.088045657  
     10550   0.47707956    -0.43478217     0             -0.092529444   -0.077948713  
     10600   0.47639543    -0.43468763     0             -0.092925688   -0.073262934  
     10650   0.46859474    -0.43473828     0             -0.098572483    0.064400933  
     10700   0.47555899    -0.43475514     0             -0.093593259    0.092118679  
     10750   0.48457974    -0.43472923     0             -0.087095942    0.023316323  
     10800   0.48243764    -0.43458955     0             -0.088492976    0.043416515  
     10850   0.49345946    -0.43474783     0             -0.080744298   -0.061430893  
     10900   0.50532099    -0.43476484     0             -0.072251957    0.052114991  
     10950   0.50934258    -0.43477679     0             -0.069378856    0.12741426   
     11000   0.49927703    -0.43477402     0             -0.076597018    0.024024665  
     11050   0.4895799     -0.43477798     0             -0.083557611    0.077161891  
     11100   0.47187835    -0.43474039     0             -0.096218963    0.082261476  
     11150   0.48090234    -0.43477532     0             -0.089780165   -0.11392989   
     11200   0.47424604    -0.43478177     0             -0.094561783   -0.047478898  
     11250   0.48220599    -0.43471931     0             -0.088788922   -0.00048073329
     11300   0.49493392    -0.43462306     0             -0.079561768    0.035576444  
     11350   0.49397761    -0.43477557     0             -0.080400325    0.0022247184 
     11400   0.50047868    -0.43475046     0             -0.075711404    0.05021164   
     11450   0.50615321    -0.4347107      0             -0.071600786   -0.023762888  
     11500   0.51733881    -0.43472966     0             -0.063595295    0.021767107  
     11550   0.51369486    -0.43477932     0             -0.066259094   -0.033527472  
     11600   0.50995328    -0.43477488     0             -0.068938836    0.042900554  
     11650   0.50638471    -0.43478257     0             -0.071506581   -0.0034145821 
     11700   0.50906595    -0.434597       0             -0.069397509   -0.0059724366 
     11750   0.51011938    -0.43451711     0             -0.068561898   -0.036441327  
     11800   0.5040063     -0.43469353     0             -0.073123793   -0.00056569463
     11850   0.4976356     -0.43477515     0             -0.077775695    0.0089637638 
     11900   0.51318392    -0.43470556     0             -0.066551874   -0.05507964   
     11950   0.51639584    -0.43461809     0             -0.064160198   -0.033030319  
     12000   0.51589369    -0.4347804      0             -0.06468275     0.022958844  
     12050   0.50388626    -0.43478081     0             -0.073297194    0.0923898    
     12100   0.48832843    -0.43454081     0             -0.084218245   -0.025638716  
     12150   0.48155226    -0.43474969     0             -0.089288288   -0.092367826  
     12200   0.47953105    -0.4346533      0             -0.090641895   -0.01780969   
     12250   0.49397689    -0.43475103     0             -0.080376302   -0.12167948   
     12300   0.50546689    -0.4346614      0             -0.072043843   -0.10036597   
     12350   0.52080294    -0.43478221     0             -0.061162714    0.00047147195
     12400   0.5141718     -0.43472415     0             -0.065861772   -0.012275089  
     12450   0.50934128    -0.43465483     0             -0.069257822    0.0059248813 
     12500   0.50248275    -0.43474846     0             -0.074271708    0.077454933  
     12550   0.50300276    -0.4347548      0             -0.073905      -0.037775434  
     12600   0.5038706     -0.43477984     0             -0.073307454   -0.032551337  
     12650   0.504743      -0.43469605     0             -0.072597811   -0.037502483  
     12700   0.49517441    -0.43477698     0             -0.079543162   -0.15281622   
     12750   0.49846115    -0.43474826     0             -0.077156565    0.013793278  
     12800   0.4804518     -0.43474294     0             -0.090070999    0.098369242  
     12850   0.4708375     -0.43476911     0             -0.096994377    0.071187399  
     12900   0.46567395    -0.43478122     0             -0.10071078     0.0076406836 
     12950   0.49198061    -0.43473132     0             -0.081788711    0.14873519   
     13000   0.50325206    -0.43478245     0             -0.073753797   -0.01158793   
     13050   0.48133147    -0.43478212     0             -0.089479105    0.018999674  
     13100   0.46888784    -0.43472699     0             -0.098350935    0.02049028   
     13150   0.47348448    -0.43477364     0             -0.095099989   -0.029857409  
     13200   0.47495803    -0.43477127     0             -0.094040509   -0.028842897  
     13250   0.48764787    -0.43471626     0             -0.084881922   -0.017348992  
     13300   0.49287248    -0.43475543     0             -0.081173001    0.0037996725 
     13350   0.49098146    -0.4347762      0             -0.082550377    0.034512874  
     13400   0.4975262     -0.43477112     0             -0.077850153   -0.052963673  
     13450   0.49410686    -0.4347807      0             -0.080312732    0.036610621  
     13500   0.4730404     -0.43478208     0             -0.095427014    0.048456838  
     13550   0.48429887    -0.43475839     0             -0.08732659     0.074921933  
     13600   0.4877274     -0.43478031     0             -0.084888921    0.01188923   
     13650   0.49072668    -0.43476594     0             -0.082722894    0.010858061  
     13700   0.49582961    -0.43476091     0             -0.07905706     0.027206807  
     13750   0.50077688    -0.43474429     0             -0.07549131     0.090186066  
     13800   0.5056121     -0.43468387     0             -0.07196215     0.014378473  
     13850   0.48940321    -0.43477671     0             -0.083683098    0.10937611   
     13900   0.48907721    -0.43478258     0             -0.083922846   -0.080499969  
     13950   0.48740402    -0.43478233     0             -0.085122923    0.0067828614 
     14000   0.49755668    -0.43478083     0             -0.077838      -0.071056595  
     14050   0.50028838    -0.43475637     0             -0.07585384     0.010777912  
     14100   0.5194673     -0.43467907     0             -0.062017747   -0.014205099  
     14150   0.52598443    -0.4347826      0             -0.057445943    0.065668758  
     14200   0.53755736    -0.43455191     0             -0.048912935   -0.025806458  
     14250   0.53822308    -0.43470868     0             -0.048592125   -0.045340915  
     14300   0.53112938    -0.43477218     0             -0.053744582   -0.044524121  
     14350   0.5129548     -0.43469054     0             -0.066701229    0.0043974187 
     14400   0.50939955    -0.43461564     0             -0.069176832    0.0040664531 
     14450   0.51307692    -0.43473468     0             -0.066657765    0.0075265337 
     14500   0.5202081     -0.43477644     0             -0.061583674   -0.048933128  
     14550   0.51030845    -0.43475        0             -0.068659161    0.0054364013 
     14600   0.50928758    -0.43471284     0             -0.069354355   -0.010842805  
     14650   0.50328607    -0.43463072     0             -0.07357767     0.062626043  
     14700   0.51695388    -0.43475329     0             -0.06389507    -0.007988082  
     14750   0.5027668     -0.43477168     0             -0.07409115    -0.04457955   
     14800   0.50735987    -0.43389613     0             -0.06992057     0.073828523  
     14850   0.51062543    -0.43462305     0             -0.068304809   -0.038304929  
     14900   0.49540262    -0.43478251     0             -0.079384985   -0.033323775  
     14950   0.509784      -0.43475046     0             -0.069035853   -0.055934269  
     15000   0.50773504    -0.43477778     0             -0.070533075    0.073850462  
     15050   0.50174262    -0.4347681      0             -0.074822308    0.017045573  
     15100   0.49821456    -0.43477976     0             -0.077364965   -0.0088988496 
     15150   0.51380481    -0.4346117      0             -0.066012597   -0.055115207  
     15200   0.52505492    -0.43478257     0             -0.058112735   -0.019274394  
     15250   0.51207877    -0.43475194     0             -0.067391078    0.083499147  
     15300   0.52386804    -0.43474294     0             -0.058924563    0.062835527  
     15350   0.5238114     -0.43476496     0             -0.058987213   -0.027721989  
     15400   0.50341687    -0.43476428     0             -0.073617395    0.046730892  
     15450   0.49933239    -0.43475506     0             -0.076538345   -0.0059976678 
     15500   0.47899308    -0.43474778     0             -0.091122308    0.019690451  
     15550   0.48197848    -0.4347678      0             -0.08900063    -0.0094193397 
     15600   0.48721221    -0.43477642     0             -0.085254621    0.13243563   
     15650   0.46927139    -0.43477851     0             -0.0981273     -0.073510971  
     15700   0.48890591    -0.43477655     0             -0.084039703    0.022777579  
     15750   0.50459536    -0.43478254     0             -0.072790215   -0.020540865  
     15800   0.48121191    -0.43478185     0             -0.089564608    0.04425442   
     15850   0.48750408    -0.43477971     0             -0.085048524    0.1279141    
     15900   0.47097331    -0.43475817     0             -0.096886013   -0.00082710574
     15950   0.46577828    -0.43477928     0             -0.10063399    -0.06761412   
     16000   0.46701308    -0.43478091     0             -0.099749784    0.036820882  
     16050   0.45781852    -0.43478258     0             -0.10634755     0.08186849   
     16100   0.45304032    -0.43477354     0             -0.10976636    -0.058212361  
     16150   0.46456021    -0.43476403     0             -0.10149257    -0.026034535  
     16200   0.4882496     -0.43478141     0             -0.084515398   -0.036909899  
     16250   0.49138669    -0.4347614      0             -0.082244865    0.12174776   
     16300   0.49822566    -0.43474447     0             -0.077321713    0.02584987   
     16350   0.51446716    -0.43478069     0             -0.065706423   -0.0029034266 
     16400   0.51301733    -0.43477234     0             -0.066738168    0.038285411  
     16450   0.50778804    -0.43478239     0             -0.070499667    0.00087454492
     16500   0.50992018    -0.43476895     0             -0.06895664     0.0063888864 
     16550   0.50237037    -0.43471996     0             -0.074323823    0.054286351  
     16600   0.4918887     -0.43477563     0             -0.081898951   -0.0099529692 
     16650   0.48741981    -0.43477404     0             -0.085103302    0.058002883  
     16700   0.49047044    -0.43475666     0             -0.082897439    0.041753916  
     16750   0.50933574    -0.43477698     0             -0.069383951    0.0026985188 
     16800   0.51606699    -0.43471713     0             -0.064495156   -0.07173382   
     16850   0.52258661    -0.43476455     0             -0.059865466    0.002719144  
     16900   0.53587913    -0.43477207     0             -0.050337044   -0.068203752  
     16950   0.53492703    -0.43477138     0             -0.051019375    0.081376649  
     17000   0.51803122    -0.43477873     0             -0.063147634    0.061827872  
     17050   0.51697477    -0.43477128     0             -0.06389808     0.028371495  
     17100   0.53645157    -0.43474748     0             -0.049901784    0.011856833  
     17150   0.5326388     -0.43476729     0             -0.052656844    0.034995841  
     17200   0.53785765    -0.4347826      0             -0.048928197   -0.015145355  
     17250   0.56028037    -0.43478258     0             -0.032842313    0.035175888  
     17300   0.5445738     -0.43477968     0             -0.044107172    0.057364041  
     17350   0.51368584    -0.43478235     0             -0.066268592    0.093538375  
     17400   0.50970328    -0.43478052     0             -0.069123819    0.001516667  
     17450   0.50896786    -0.43478238     0             -0.069653267    0.061974943  
     17500   0.51330721    -0.43478254     0             -0.066540414    0.005996458  
     17550   0.50239377    -0.43477828     0             -0.07436536    -0.1534268    
     17600   0.48719824    -0.434782       0             -0.085270222    0.017764122  
     17650   0.48800379    -0.43475372     0             -0.084664046   -0.012197698  
     17700   0.50245095    -0.43472652     0             -0.07427258     0.11004736   
     17750   0.50498646    -0.43467445     0             -0.07240155    -0.038408678  
     17800   0.51162896    -0.43472392     0             -0.067685756   -0.013297632  
     17850   0.51071838    -0.43457168     0             -0.068186759    0.0016143115 
     17900   0.51175442    -0.43474275     0             -0.067614587   -0.020805701  
     17950   0.50566328    -0.43475084     0             -0.0719924     -0.056547247  
     18000   0.49491588    -0.43471524     0             -0.079666885   -0.027540786  
     18050   0.5091981     -0.43474415     0             -0.069449859   -0.0026205794 
     18100   0.51172373    -0.43476806     0             -0.067661909    0.024177398  
     18150   0.52181796    -0.43475661     0             -0.060408942   -0.022484847  
     18200   0.51448846    -0.43478009     0             -0.065690546   -0.0393152    
     18250   0.51216617    -0.43474006     0             -0.067316504   -0.043958181  
     18300   0.53102754    -0.43475867     0             -0.053804129    0.013391673  
     18350   0.52388087    -0.43464835     0             -0.05882077     0.047952605  
     18400   0.52200725    -0.43476409     0             -0.060280632    0.035956286  
     18450   0.5062444     -0.4347252      0             -0.071549868   -0.039602675  
     18500   0.51413063    -0.43475081     0             -0.065917971   -0.06233518   
     18550   0.51687335    -0.43476329     0             -0.063962837    0.013718396  
     18600   0.51027837    -0.43476806     0             -0.068698792    0.047447016  
     18650   0.50410991    -0.43478253     0             -0.073138465    0.010476628  
     18700   0.5070111     -0.43477955     0             -0.071054194   -0.013598062  
     18750   0.49727749    -0.43475871     0             -0.078016163   -0.024509802  
     18800   0.50826562    -0.43477699     0             -0.070151653    0.033985205  
     18850   0.51083206    -0.43474911     0             -0.068282633    0.021090467  
     18900   0.49514954    -0.43477521     0             -0.079559239    0.011554621  
     18950   0.49933075    -0.4347826      0             -0.076567058    0.076716958  
     19000   0.51506869    -0.43459871     0             -0.065092913    0.05209406   
     19050   0.52319965    -0.43470828     0             -0.059369403   -0.0087210536 
     19100   0.51649223    -0.43468382     0             -0.064156789   -0.12099868   
     19150   0.48609748    -0.43478252     0             -0.086060418   -0.024739475  
     19200   0.47449697    -0.43452286     0             -0.094122859   -0.023199435  
     19250   0.4760151     -0.43474089     0             -0.093251795   -0.063235369  
     19300   0.48063852    -0.43473203     0             -0.089926135   -0.042223865  
     19350   0.47633475    -0.43475905     0             -0.093040642   -0.037261389  
     19400   0.46436383    -0.43476503     0             -0.10163446    -0.14105983   
     19450   0.46993223    -0.4347013      0             -0.097576007   -0.012325478  
     19500   0.44681549    -0.43468568     0             -0.11414413    -0.066686062  
     19550   0.43593236    -0.43472682     0             -0.12199274     0.011628971  
     19600   0.4428132     -0.43477702     0             -0.11710668     0.0036787512 
     19650   0.43447822    -0.43476436     0             -0.12307347    -0.046995467  
     19700   0.44168204    -0.43455407     0             -0.11769521     0.0024749137 
     19750   0.43975665    -0.43477604     0             -0.11929844     0.058591848  
     19800   0.44148437    -0.43471145     0             -0.1179944     -0.063233986  
     19850   0.43009882    -0.43477975     0             -0.1262306      0.074613263  
     19900   0.42374181    -0.43476368     0             -0.130775      -0.077302543  
     19950   0.42526602    -0.43474231     0             -0.12966017    -0.095188304  
     20000   0.43587745    -0.43477468     0             -0.12207999     0.067494643  
     20050   0.43652442    -0.43476019     0             -0.12160136    -0.0017851644 
     20100   0.43521703    -0.43478256     0             -0.12256165     0.027946841  
     20150   0.42748362    -0.43477776     0             -0.12810473     0.028704323  
     20200   0.44170527    -0.43478067     0             -0.11790515     0.03955743   
     20250   0.4527811     -0.4347652      0             -0.10994397    -0.054277384  
     20300   0.45431164    -0.43476844     0             -0.10884922     0.019019258  
     20350   0.46680917    -0.43468724     0             -0.0998024      0.018718432  
     20400   0.45485384    -0.43478254     0             -0.10847435     0.035259168  
     20450   0.470951      -0.43477373     0             -0.096917583   -0.10003525   
     20500   0.47072263    -0.43475742     0             -0.097065104    0.10925958   
     20550   0.48278619    -0.43474618     0             -0.088399561    0.071943253  
     20600   0.48206772    -0.43469352     0             -0.08886233     0.041740874  
     20650   0.47617472    -0.43470865     0             -0.093105046   -0.039994145  
     20700   0.47010193    -0.43473697     0             -0.097489928    0.024211798  
     20750   0.47341306    -0.43476292     0             -0.095140505    0.012685982  
     20800   0.831593      -0.84488709     0             -0.2483095      0.048510358  
     20850   0.47666191    -0.70563945     0             -0.36368634    -0.13365701   
     20900   0.57686438    -0.85407507     0             -0.44023758     0.011389665  
     20950   0.48744413    -0.82786099     0             -0.47817281     0.12012026   
     21000   0.51632837    -0.86956304     0             -0.49915356    -8.8687396e-05
     21050   0.47638904    -0.85223197     0             -0.51047461     0.058481746  
     21100   0.49984478    -0.86752134     0             -0.50893704    -0.016572281  
     21150   0.49612043    -0.86019269     0             -0.50428021     0.032434669  
     21200   0.51117556    -0.86834358     0             -0.50163068     0.00096823471
     21250   0.50503406    -0.86702595     0             -0.50471891     0.03301521   
     21300   0.50517687    -0.86921923     0             -0.50680974     0.08871069   
     21350   0.48369728    -0.86922285     0             -0.52222263    -0.020839175  
     21400   0.48635827    -0.86849742     0             -0.51958823     0.064530664  
     21450   0.47720564    -0.86949576     0             -0.52715259     0.030603228  
     21500   0.4719656     -0.86906202     0             -0.530478      -0.096710937  
     21550   0.47732769    -0.86953487     0             -0.52710413    -0.016932324  
     21600   0.45879162    -0.86932779     0             -0.54019468     0.014108275  
     21650   0.45297093    -0.86951685     0             -0.54455945     0.081166647  
     21700   0.47406306    -0.86951445     0             -0.52942573     0.053446699  
     21750   0.46373292    -0.86918818     0             -0.53651021     0.029327584  
     21800   0.46469066    -0.86942258     0             -0.53605754     0.021284317  
     21850   0.46932673    -0.86949661     0             -0.5328057     -0.061813297  
     21900   0.46022166    -0.86953026     0             -0.53937125     0.10439047   
     21950   0.45796099    -0.86917874     0             -0.5406415      0.060192236  
     22000   0.45328787    -0.86949146     0             -0.54430668     0.013145704  
     22050   0.45141845    -0.86952679     0             -0.54568312     0.023162987  
     22100   0.45382564    -0.86952716     0             -0.54395659    -0.002774236  
     22150   0.45739937    -0.86934534     0             -0.541211      -0.03470178   
     22200   0.45888175    -0.86940832     0             -0.54021054     0.025790258  
     22250   0.46086802    -0.8693039      0             -0.53868119    -0.014255677  
     22300   0.45563136    -0.86950535     0             -0.54263938     0.14576841   
     22350   0.47721997    -0.86949269     0             -0.52713923    -0.01014457   
     22400   0.49909084    -0.86904331     0             -0.51099988    -0.022964838  
     22450   0.50567453    -0.86939874     0             -0.50663223    -0.064187251  
     22500   0.50759145    -0.86953924     0             -0.50539755    -0.031780282  
     22550   0.50096756    -0.86938843     0             -0.50999866    -0.05815033   
     22600   0.5146101     -0.86952347     0             -0.50034666     0.038825424  
     22650   0.52427969    -0.86946329     0             -0.49334961     0.038511587  
     22700   0.52660197    -0.86943675     0             -0.49165707     0.074766697  
     22750   0.52815099    -0.86913333     0             -0.4902424      0.058076277  
     22800   0.53056672    -0.86951405     0             -0.48889009     0.026539616  
     22850   0.54061855    -0.86948017     0             -0.48164513     0.022356458  
     22900   0.52887366    -0.86956319     0             -0.49015382    -0.042014295  
     22950   0.54095353    -0.86935045     0             -0.48127509     0.0080526437 
     23000   0.54720672    -0.86954016     0             -0.47697882     0.058201465  
     23050   0.55420866    -0.86952815     0             -0.47194367     0.019508096  
     23100   0.55964046    -0.86954272     0             -0.46806152     0.028685993  
     23150   0.53986502    -0.8694877      0             -0.48219324    -0.028851184  
     23200   0.5381343     -0.86947889     0             -0.48342603    -6.7853162e-05
     23250   0.53417379    -0.86954167     0             -0.48633003     0.02602422   
     23300   0.54381426    -0.86945356     0             -0.47932594     0.0068005722 
     23350   0.54323732    -0.86951279     0             -0.47979906     0.05882367   
     23400   0.54615636    -0.86956304     0             -0.47775522    -0.033897304  
     23450   0.54133701    -0.86952741     0             -0.48117695     0.022113665  
     23500   0.55249232    -0.86956166     0             -0.47320847    -0.038829087  
     23550   0.55556829    -0.86951107     0             -0.47095121     0.029412802  
     23600   0.55762266    -0.8695521      0             -0.46951845    -0.080479454  
     23650   0.57426635    -0.86956112     0             -0.45758744     0.022148585  
     23700   0.58172959    -0.86921546     0             -0.45188771    -0.048738287  
     23750   0.57196703    -0.86945348     0             -0.4591293     -0.013056308  
     23800   0.58893275    -0.86929604     0             -0.44680081    -0.0022197226 
     23850   0.5801135     -0.86939838     0             -0.45323        0.06392314   
     23900   0.57883596    -0.86952661     0             -0.45427473     0.0048365257 
     23950   0.58409656    -0.86953288     0             -0.45050708    -0.01180555   
     24000   0.57902776    -0.86942413     0             -0.45403465    -0.0059091376 
     24050   0.57162283    -0.86953786     0             -0.45946061     0.040816545  
     24100   0.57813442    -0.86953216     0             -0.45478355     0.052955938  
     24150   0.59882678    -0.8694664      0             -0.43987327     0.0389178    
     24200   0.61725623    -0.86943415     0             -0.4266199      0.0057278471 
     24250   0.60915408    -0.86947312     0             -0.43247128    -0.038948426  
     24300   0.60429346    -0.8694592      0             -0.43594433     0.017370604  
     24350   0.5977811     -0.86945164     0             -0.44060868    -0.003320948  
     24400   0.62595386    -0.86913969     0             -0.42008583    -0.060913513  
     24450   0.62149464    -0.86937107     0             -0.42351622    -0.024049411  
     24500   0.62177491    -0.86909524     0             -0.42303932    -0.010425074  
     24550   0.61560577    -0.86935376     0             -0.42772354    -0.021792116  
     24600   0.61235548    -0.86945695     0             -0.43015846     0.029338772  
     24650   0.63080526    -0.86918508     0             -0.41665087     0.041424962  
     24700   0.6435108     -0.86947827     0             -0.40782922     0.054044285  
     24750   0.63412152    -0.86947048     0             -0.41455721    -0.087749212  
     24800   0.62195882    -0.86948457     0             -0.42329672     0.018033278  
     24850   0.60868999    -0.86951865     0             -0.43284974     0.013344351  
     24900   0.62382036    -0.86956463     0             -0.42204133    -0.022439818  
     24950   0.62170314    -0.86948169     0             -0.42347726     0.10203795   
     25000   0.63156849    -0.8695342      0             -0.41645245     0.055410462  
     25050   0.63652215    -0.86945719     0             -0.41282174     0.0044470876 
     25100   0.5990313     -0.86948254     0             -0.4397427     -0.047494751  
     25150   0.60168518    -0.86955388     0             -0.43791016     0.012943003  
     25200   0.60258899    -0.86956453     0             -0.43727243     0.045444337  
     25250   0.58752518    -0.86956256     0             -0.4480771      0.0047139064 
     25300   0.59812277    -0.86954343     0             -0.44045536     0.03048819   
     25350   0.60619068    -0.86944232     0             -0.43456639    -0.014305327  
     25400   0.60404452    -0.86955455     0             -0.43621826    -0.018732573  
     25450   0.59700503    -0.86954971     0             -0.44126349    -0.038463751  
     25500   0.60182645    -0.86952577     0             -0.43778071    -0.038211794  
     25550   0.61957277    -0.86953754     0             -0.42506142    -0.017260521  
     25600   0.62909161    -0.86948565     0             -0.4181808     -0.015079857  
     25650   0.65477463    -0.86950522     0             -0.39977559    -0.067696044  
     25700   0.66462503    -0.86954574     0             -0.39274952    -0.031809329  
     25750   0.64449407    -0.86952453     0             -0.40717008    -0.028570256  
     25800   0.66060165    -0.86953624     0             -0.39562637     0.043529783  
     25850   0.66761548    -0.86947725     0             -0.39053571    -0.01080274   
     25900   0.65828803    -0.86954014     0             -0.39729003     0.040174167  
     25950   0.66466843    -0.86937937     0             -0.39255202     0.035897735  
     26000   0.67734768    -0.86950555     0             -0.38358221     0.0060027201 
     26050   0.68969471    -0.86948015     0             -0.37469916     0.040746372  
     26100   0.69765734    -0.86952633     0             -0.36903302     0.016255826  
     26150   0.71619062    -0.86944477     0             -0.35565585     0.062638647  
     26200   0.70450235    -0.86920962     0             -0.36380576    -0.041415012  
     26250   0.70120012    -0.86951206     0             -0.36647719     0.05917697   
     26300   0.71246829    -0.86951145     0             -0.35839289     0.009877964  
     26350   0.70588471    -0.86952463     0             -0.36312908     0.10329723   
     26400   0.70079201    -0.8695577      0             -0.36681561    -0.0066882944 
     26450   0.68396563    -0.86954767     0             -0.37887667    -0.04058066   
     26500   0.66829448    -0.86942685     0             -0.38999821    -0.10666894   
     26550   0.65738108    -0.86931704     0             -0.39771756    -0.041737347  
     26600   0.66112221    -0.86954067     0             -0.39525735    -0.0090938113 
     26650   0.65203144    -0.86954007     0             -0.40177838     0.0064161715 
     26700   0.68369979    -0.86954896     0             -0.37906867    -0.025678722  
     26750   0.69076311    -0.86953336     0             -0.37398591     0.017592428  
     26800   0.6958558     -0.86937752     0             -0.37017662    -0.013364863  
     26850   0.67612428    -0.86951002     0             -0.38446434     0.043363635  
     26900   0.67828275    -0.86955479     0             -0.38296064    -0.0039701304 
     26950   0.70437882    -0.86947325     0             -0.36415801    -0.088939168  
     27000   0.69206358    -0.86926151     0             -0.37278111    -0.002817347  
     27050   0.69781882    -0.8692281      0             -0.36861895    -0.028333277  
     27100   0.71270695    -0.86952382     0             -0.35823405     0.052638757  
     27150   0.71065304    -0.86922542     0             -0.35940911     0.038282714  
     27200   0.71237158    -0.86945522     0             -0.35840605    -0.051211079  
     27250   0.69359267    -0.86932491     0             -0.37174756     0.010968414  
     27300   0.68287295    -0.8693712      0             -0.37948409     0.0024698459 
     27350   0.69271603    -0.86954826     0             -0.3725998      0.061741473  
     27400   0.70071308    -0.86955485     0             -0.36686938     0.029358911  
     27450   0.71083064    -0.86931997     0             -0.35937625     0.053297319  
     27500   0.71000844    -0.8694359      0             -0.36008202    -0.016085998  
     27550   0.69809173    -0.86941563     0             -0.36861069    -0.0043874913 
     27600   0.70252338    -0.86942032     0             -0.36543616     0.017038811  
     27650   0.70380274    -0.86932926     0             -0.3644273      0.024642281  
     27700   0.67781203    -0.86950653     0             -0.38325008    -0.076450014  
     27750   0.67595509    -0.86926318     0             -0.38433888    -0.026397125  
     27800   0.68209473    -0.8694829      0             -0.38015407    -0.033982826  
     27850   0.67492767    -0.86921865     0             -0.38503141    -0.004010238  
     27900   0.67734567    -0.86936072     0             -0.38343882    -0.022647128  
     27950   0.64525358    -0.86888907     0             -0.40598977    -0.023297884  
     28000   0.64989399    -0.86955963     0             -0.40333133     0.029083532  
     28050   0.63710121    -0.86940827     0             -0.4123574     -0.0049631395 
     28100   0.61535309    -0.86954634     0             -0.42809739    -0.018547575  
     28150   0.6309777     -0.86951674     0             -0.41685883     0.032146942  
     28200   0.6385674     -0.86899357     0             -0.41089088    -0.020273433  
     28250   0.64449899    -0.86922263     0             -0.40686465    -0.037220737  
     28300   0.65652262    -0.86943469     0             -0.39845107     0.011407085  
     28350   0.66403259    -0.86942777     0             -0.39305656    -0.025774761  
     28400   0.67343192    -0.86887443     0             -0.38576023     0.020622982  
     28450   0.67109042    -0.86956125     0             -0.38812682    -0.036504054  
     28500   0.67042748    -0.8694727      0             -0.38851385     0.028709185  
     28550   0.68475952    -0.86924205     0             -0.37800153     0.0034877989 
     28600   0.67440366    -0.86938296     0             -0.38557164     0.10203692   
     28650   0.66621589    -0.86934609     0             -0.3914086     -0.0094385857 
     28700   0.66278145    -0.8695355      0             -0.39406186     0.01089446   
     28750   0.68659986    -0.86954731     0             -0.37698654     0.024247051  
     28800   0.68537791    -0.8695469      0             -0.37786275     0.013789143  
     28850   0.68657548    -0.86956218     0             -0.3770189     -0.041378455  
     28900   0.71758807    -0.86955591     0             -0.35476447    -0.023022989  
     28950   0.68917323    -0.86951666     0             -0.37510978     0.015649376  
     29000   0.6933323     -0.86955547     0             -0.3721649      0.045196139  
     29050   0.70427378    -0.86953649     0             -0.3642966     -0.021844196  
     29100   0.68468158    -0.86922903     0             -0.37804441     0.016523498  
     29150   0.69287863    -0.86951285     0             -0.37244774     0.087752699  
     29200   0.69484686    -0.86952834     0             -0.37105125    -0.024358003  
     29250   0.6862317     -0.86955228     0             -0.37725563    -0.014144623  
     29300   1.1950591     -1.249906       0             -0.39258095     0.011334719  
     29350   0.75772471    -1.1116867      0             -0.56810163     0.020761209  
     29400   0.66119731    -1.1270204      0             -0.65268315    -0.034299573  
     29450   0.80962511    -1.3031945      0             -0.72237653     0.054946835  
     29500   0.67661387    -1.2576859      0             -0.77228904     0.036016001  
     29550   0.62439071    -1.2460622      0             -0.79812975    -0.094231923  
     29600   0.65882534    -1.2989495      0             -0.82631393     0.0050599784 
     29650   0.66173861    -1.3023432      0             -0.82761766     0.014109138  
     29700   0.66694352    -1.2971251      0             -0.81866561    -0.025725803  
     29750   0.65536061    -1.2967856      0             -0.82663556     0.03555471   
     29800   0.65655909    -1.2931842      0             -0.82217443    -0.025794591  
     29850   0.66571671    -1.2946406      0             -0.81706124     0.013057282  
     29900   0.65999449    -1.2963039      0             -0.82282956    -0.047860779  
     29950   0.64561972    -1.3024091      0             -0.83924716     0.091410627  
     30000   0.63500685    -1.3018866      0             -0.84633822    -0.043668738  
     30050   0.65514278    -1.3041795      0             -0.83418575    -0.057955561  
     30100   0.66523489    -1.3036175      0             -0.82638376    -0.0081586835 
     30150   0.6719251     -1.3038721      0             -0.82183885    -0.020757791  
     30200   0.66701024    -1.3042056      0             -0.82569827     0.020507893  
     30250   0.67763968    -1.3039104      0             -0.81777758    -0.082466869  
     30300   0.67492896    -1.3042801      0             -0.8200919     -0.056549908  
     30350   0.66587941    -1.3035443      0             -0.82584817    -0.0078667868 
     30400   0.68473337    -1.3043057      0             -0.81308398     0.01594885   
     30450   0.67485876    -1.3039223      0             -0.81978452     0.036941739  
     30500   0.6761649     -1.3040004      0             -0.81892563     0.015031608  
     30550   0.6861784     -1.3039091      0             -0.81165069    -0.031489765  
     30600   0.69601501    -1.3039301      0             -0.80461497    -0.011505573  
     30650   0.70942639    -1.304245       0             -0.79530872    -0.0039213188 
     30700   0.7061894     -1.304049       0             -0.79743485    -0.0033247678 
     30750   0.70470992    -1.3043229      0             -0.79877008     0.021824948  
     30800   0.70571011    -1.3043294      0             -0.79805914    -0.0052492723 
     30850   0.6869002     -1.3043065      0             -0.8115303      0.077926597  
     30900   0.69201694    -1.3043046      0             -0.8078577      0.038405385  
     30950   0.68661681    -1.3042295      0             -0.81165659     0.055531124  
     31000   0.70126103    -1.3043119      0             -0.80123331     0.036645636  
     31050   0.70426509    -1.3040523      0             -0.79881869    -0.028272522  
     31100   0.72027684    -1.3041642      0             -0.78744387    -0.023410415  
     31150   0.73234379    -1.3042777      0             -0.77890059    -0.049616998  
     31200   0.73189519    -1.304315       0             -0.77925974     0.005593433  
     31250   0.73183914    -1.3043465      0             -0.77933151    -0.0020919658 
     31300   0.72027778    -1.3043335      0             -0.78761248     0.039440858  
     31350   0.70409908    -1.3042695      0             -0.79915498     0.042803659  
     31400   0.70557202    -1.3042768      0             -0.79810556     0.012035927  
     31450   0.69526848    -1.3042637      0             -0.80548415    -0.039945578  
     31500   0.69819733    -1.3042332      0             -0.80335255     0.049808338  
     31550   0.68461645    -1.304227       0             -0.81308916    -0.035676847  
     31600   0.67695421    -1.3039744      0             -0.81833332     0.032285632  
     31650   0.6646108     -1.3042292      0             -0.82744316     0.0015060716 
     31700   0.66797337    -1.3042585      0             -0.82506019     0.045499498  
     31750   0.67609212    -1.3039961      0             -0.81897348     0.064632426  
     31800   0.68330069    -1.3041037      0             -0.81390969    -0.00025413421
     31850   0.68615808    -1.3042492      0             -0.8120054      0.0054812457 
     31900   0.69288246    -1.3042847      0             -0.80721689     0.014812432  
     31950   0.69122745    -1.3042881      0             -0.80840749     0.10748136   
     32000   0.70311213    -1.3038607      0             -0.79945415     0.042821345  
     32050   0.68804757    -1.304274       0             -0.81067464     0.027558728  
     32100   0.66165272    -1.304231       0             -0.82956707    -0.0048171284 
     32150   0.67007155    -1.3043363      0             -0.82363275    -0.025588486  
     32200   0.66833239    -1.3042949      0             -0.82483908     0.021631284  
     32250   0.67715157    -1.304301       0             -0.81851833     0.030000324  
     32300   0.6816012     -1.3043125      0             -0.81533769    -0.025515317  
     32350   0.68122985    -1.3042112      0             -0.81550285     0.01890556   
     32400   0.68273621    -1.3043307      0             -0.81454164    -0.039321218  
     32450   0.6917358     -1.3041812      0             -0.80793594    -0.014552295  
     32500   0.6889339     -1.3042102      0             -0.80997505     0.0094915104 
     32550   0.69696189    -1.3042886      0             -0.80429419     0.010354921  
     32600   0.70215435    -1.3040997      0             -0.80038024    -0.029105329  
     32650   0.70788638    -1.3041022      0             -0.79627068     0.0061306697 
     32700   0.70242702    -1.3042369      0             -0.80032184    -0.020572043  
     32750   0.69584085    -1.3038953      0             -0.80470512     0.02389415   
     32800   0.69436687    -1.3041028      0             -0.80597005     0.00238528   
     32850   0.69042139    -1.3040595      0             -0.80875721     0.043187192  
     32900   0.68639775    -1.3477193      0             -0.85530357     0.041864105  
     32950   0.72151029    -1.3455992      0             -0.82799395    -0.078066134  
     33000   0.69214893    -1.3384467      0             -0.84190511     0.014501759  
     33050   0.67026308    -1.3264328      0             -0.84559191     0.0032090163 
     33100   0.68806485    -1.3146506      0             -0.82103885     0.043622983  
     33150   0.69158452    -1.3084434      0             -0.81230668     0.020447905  
     33200   0.72219936    -1.3138874      0             -0.79578787     0.0044844228 
     33250   0.75218105    -1.3262977      0             -0.78668954     0.003029517  
     33300   0.77707018    -1.3380419      0             -0.78057848     0.011161637  
     33350   0.79691073    -1.3450194      0             -0.77332259    -0.039973976  
     33400   0.798169      -1.3471472      0             -0.77454766    -0.040787823  
     33450   0.78587219    -1.3035486      0             -0.73977072     0.025145083  
     33500   0.79305331    -1.3037545      0             -0.73482495    -0.04748076   
     33550   0.78683671    -1.3042287      0             -0.7397589      0.050915977  
     33600   0.80009956    -1.3040886      0             -0.73010417     0.0074032031 
     33650   0.79408235    -1.3040122      0             -0.73434439     0.0037248594 
     33700   0.79556564    -1.3043427      0             -0.73361084     0.02868787   
     33750   0.80792747    -1.3043392      0             -0.72473901     0.046401418  
     33800   0.79451796    -1.304283       0             -0.73430273     0.037168147  
     33850   0.82869466    -1.3042284      0             -0.7097301      0.061605549  
     33900   0.85134224    -1.3042912      0             -0.69354567     0.044420509  
     33950   0.8462717     -1.3042928      0             -0.69718485     0.0042195003 
     34000   0.84271303    -1.3040528      0             -0.69949782    -0.057824732  
     34050   0.85222207    -1.3042583      0             -0.69288162    -0.045351376  
     34100   0.85295228    -1.3041827      0             -0.6922822      0.029525949  
     34150   0.85978924    -1.304283       0             -0.68747763     0.07509817   
     34200   0.8832532     -1.3042795      0             -0.67064134     0.013786107  
     34250   0.87744628    -1.3041523      0             -0.67467999     0.090079509  
     34300   0.8629438     -1.3040377      0             -0.68496929     0.023398787  
     34350   0.84712253    -1.3041         0             -0.69638169    -0.0034343265 
     34400   0.82488499    -1.3042521      0             -0.71248677     0.0063334652 
     34450   0.82150181    -1.3041311      0             -0.71479281    -0.057893416  
     34500   0.7907044     -1.3039992      0             -0.73675474     0.03288679   
     34550   0.7733817     -1.304132       0             -0.74931465    -0.0019909159 
     34600   0.77370785    -1.3037851      0             -0.7487338     -0.091852256  
     34650   0.77030834    -1.3037719      0             -0.75115943     0.059058948  
     34700   0.76838023    -1.3041583      0             -0.75292904    -0.072272943  
     34750   0.76836009    -1.3036728      0             -0.752458      -0.051614379  
     34800   0.75263102    -1.3041675      0             -0.76423651     0.062516958  
     34850   0.76450129    -1.3041698      0             -0.75572326     0.033170151  
     34900   0.77252749    -1.3039107      0             -0.74970619     0.0031364898 
     34950   0.7649463     -1.3042144      0             -0.75544853     0.041588618  
     35000   0.77289455    -1.304149       0             -0.7496812     -0.0082171945 
     35050   0.80066584    -1.3043303      0             -0.72993954    -0.014930302  
     35100   0.77377033    -1.3043116      0             -0.74921549     0.010183714  
     35150   0.77995493    -1.3042212      0             -0.74468836     0.078055714  
     35200   0.78703062    -1.3041329      0             -0.73952397    -0.0073791261 
     35250   0.79350832    -1.3042565      0             -0.73500058    -0.0070232731 
     35300   0.79046025    -1.3043257      0             -0.73725637    -0.00086060977
     35350   0.77897613    -1.3039144      0             -0.74508368     0.0061443089 
     35400   0.78423848    -1.3040434      0             -0.74143754    -0.053329856  
     35450   0.78391066    -1.3042425      0             -0.74187177     0.075773919  
     35500   0.79138117    -1.3041474      0             -0.73641748    -0.024647937  
     35550   0.80181609    -1.304031       0             -0.72881516    -0.1082189    
     35600   0.82923753    -1.3043043      0             -0.70941655    -0.028817703  
     35650   0.80305383    -1.3041639      0             -0.72806004    -0.037036683  
     35700   0.81423386    -1.304082       0             -0.71995768     0.017077799  
     35750   0.81407928    -1.3043118      0             -0.72029837    -0.0060128567 
     35800   0.80428102    -1.3042318      0             -0.7272476      0.018218036  
     35850   0.80921132    -1.3041006      0             -0.7235794     -0.027330404  
     35900   0.8184504     -1.3041391      0             -0.71698987     0.057551685  
     35950   0.83709576    -1.304218       0             -0.70369282     0.038169486  
     36000   0.8409182     -1.3041956      0             -0.70092817     0.053664616  
     36050   0.85373394    -1.3043144      0             -0.69185307    -0.053015912  
     36100   0.856616      -1.3041604      0             -0.68963157     0.031679468  
     36150   0.86881485    -1.3041273      0             -0.68084703    -0.056519553  
     36200   0.87304738    -1.3043069      0             -0.67799031     0.026830818  
     36250   0.89290823    -1.3043308      0             -0.66376618     0.037510962  
     36300   0.87992363    -1.3043312      0             -0.67308168     0.010706804  
     36350   0.83371999    -1.3040221      0             -0.70591858     0.016629084  
     36400   0.81912738    -1.3043442      0             -0.71670936     0.00053654248
     36450   0.83272763    -1.3042619      0             -0.70687038     0.02890642   
     36500   0.82004528    -1.3043056      0             -0.71601227    -0.040830385  
     36550   0.81202178    -1.3042212      0             -0.72168384     0.020363856  
     36600   0.82456315    -1.30413        0             -0.71259558    -0.0049922115 
     36650   0.81940993    -1.3042571      0             -0.71641956     0.0031668563 
     36700   0.82005149    -1.3043399      0             -0.71604206    -0.061479727  
     36750   0.85271347    -1.3043274      0             -0.69259816     0.010248265  
     36800   0.85605762    -1.3042007      0             -0.69007236    -0.03160357   
     36850   0.86864379    -1.3043009      0             -0.68114344     0.055357725  
     36900   0.89423552    -1.304215       0             -0.66269821     0.015845976  
     36950   0.89454627    -1.3042653      0             -0.66252558     0.030645141  
     37000   0.8752401     -1.3040823      0             -0.67619263    -0.008334693  
     37050   0.88302047    -1.3042288      0             -0.67075759     0.040798302  
     37100   0.89143225    -1.3042689      0             -0.66476313     0.03739203   
     37150   0.89845285    -1.3040698      0             -0.65952752    -0.07012567   
     37200   0.90521569    -1.3041104      0             -0.65471654    -3.8599449e-05
     37250   0.87949348    -1.3040572      0             -0.67311621     0.027350177  
     37300   0.87876311    -1.304272       0             -0.67385498    -0.0023557834 
     37350   0.90607568    -1.3042956      0             -0.65428476    -0.013434666  
     37400   0.91199204    -1.3041779      0             -0.64992276     0.0086491877 
     37450   0.91253224    -1.3043217      0             -0.64967902    -0.001018324  
     37500   0.88285045    -1.3042176      0             -0.67086838     0.011462805  
     37550   0.86132433    -1.3474594      0             -0.72955281     0.10587832   
     37600   0.84177588    -1.3418608      0             -0.73797806     0.060128248  
     37650   0.84263927    -1.328179       0             -0.72367696    -0.031327649  
     37700   0.83142887    -1.3939323      0             -0.79747248     0.085477176  
     37750   0.98147288    -1.5901161      0             -0.88601602    -0.095230229  
     37800   1.057211      -1.7437256      0             -0.98529169     0.034402353  
     37850   0.84963572    -1.6653083      0             -1.055787      -0.030861304  
     37900   0.85242732    -1.7102031      0             -1.0986792     -0.051067407  
     37950   0.89474792    -1.7675121      0             -1.1256278      0.085353618  
     38000   0.86584376    -1.7703826      0             -1.1492338     -0.0094531156 
     38050   0.87361862    -1.7118482      0             -1.0851218     -0.0031116021 
     38100   0.87840697    -1.7212065      0             -1.091045      -0.0053745798 
     38150   0.87814318    -1.7359186      0             -1.1059463     -0.027316558  
     38200   0.85866351    -1.737972       0             -1.1219743      0.073357288  
     38250   0.86955841    -1.7342887      0             -1.110475       0.049757486  
     38300   0.8851645     -1.7341089      0             -1.0990996      0.081043177  
     38350   0.85901531    -1.7386085      0             -1.1223583      0.015688058  
     38400   0.84740677    -1.7383968      0             -1.1304746      0.030899857  
     38450   0.84171022    -1.7377291      0             -1.1338935     -0.081858573  
     38500   0.84012203    -1.738221       0             -1.1355248     -0.067129596  
     38550   0.84873347    -1.7388357      0             -1.1299617      0.054209574  
     38600   0.84211384    -1.7388037      0             -1.1346786     -0.046568276  
     38650   0.84452886    -1.7388477      0             -1.1329901      0.015645107  
     38700   0.85012929    -1.738431       0             -1.1285556     -0.10695627   
     38750   0.84337286    -1.7387923      0             -1.1337639      0.0097200969 
     38800   0.81359918    -1.7387852      0             -1.1551162      0.059795637  
     38850   0.80749676    -1.738952       0             -1.1596609     -0.010976995  
     38900   0.82102699    -1.738705       0             -1.1497074     -0.058172927  
     38950   0.82649605    -1.7390805      0             -1.1461594     -0.038969718  
     39000   0.81078116    -1.7387232      0             -1.1570759      0.042812847  
     39050   0.81435307    -1.7390619      0             -1.1548521      0.037012236  
     39100   0.81220695    -1.7387733      0             -1.1561031     -0.0078723888 
     39150   0.7874404     -1.7389641      0             -1.1740612      0.048777514  
     39200   0.78694441    -1.7389725      0             -1.1744254      0.026767746  
     39250   0.77655156    -1.7388623      0             -1.181771       0.069504927  
     39300   0.76905205    -1.7390722      0             -1.1873609      0.12573668   
     39350   0.77386625    -1.7388475      0             -1.1836826      0.057696997  
     39400   0.77163523    -1.7389494      0             -1.185385       0.065304502  
     39450   0.77396201    -1.738748       0             -1.1835144      0.03205527   
     39500   0.77695676    -1.7383811      0             -1.1809991     -0.021968712  
     39550   0.78296455    -1.7385635      0             -1.1768715      0.014065521  
     39600   0.79274548    -1.7388856      0             -1.1701768      0.014320061  
     39650   0.82728829    -1.7388968      0             -1.1454074     -0.01413318   
     39700   0.8269768     -1.7388504      0             -1.1455844     -0.14908365   
     39750   0.82965429    -1.7388892      0             -1.1437024      0.015787765  
     39800   0.82288278    -1.7388544      0             -1.1485254      0.03245683   
     39850   0.82324052    -1.7389587      0             -1.1483731     -0.032208263  
     39900   0.8082387     -1.738827       0             -1.1590036      0.053912418  
     39950   0.81496939    -1.7388219      0             -1.1541699      0.1044562    
     40000   0.81074416    -1.7390456      0             -1.1574248      0.098526255  
     40050   0.80552931    -1.7389898      0             -1.1611101      0.027834098  
     40100   0.79531292    -1.7390788      0             -1.1685283     -0.013298008  
     40150   0.81153852    -1.7390451      0             -1.1568545      0.060611898  
     40200   0.82518564    -1.7389964      0             -1.1470154     -0.033334597  
     40250   0.80580711    -1.7386578      0             -1.1605788      0.042530171  
     40300   0.81773258    -1.738913       0             -1.1522787      0.021088191  
     40350   0.83303845    -1.7388298      0             -1.1412152      0.11799141   
     40400   0.82248697    -1.7386938      0             -1.1486488      0.027850567  
     40450   0.82416719    -1.7389822      0             -1.1477318      0.050142789  
     40500   0.81724895    -1.7388488      0             -1.1525615     -0.0060556425 
     40550   0.81189054    -1.7388772      0             -1.156434       0.10097041   
     40600   0.80828565    -1.7387045      0             -1.1588474      0.015478219  
     40650   0.79723684    -1.7389149      0             -1.1669841     -0.071371293  
     40700   0.79633134    -1.7388501      0             -1.1675689      0.060758805  
     40750   0.79234893    -1.7389095      0             -1.1704853     -0.027870918  
     40800   0.80476678    -1.7383777      0             -1.161045      -0.10002274   
     40850   0.7997865     -1.7389047      0             -1.1651448     -0.089814865  
     40900   0.77450713    -1.7390751      0             -1.1834504      0.030386437  
     40950   0.7767473     -1.7387259      0             -1.1814942      0.012820018  
     41000   0.78311682    -1.7387786      0             -1.1769774     -0.044154639  
     41050   0.80073546    -1.738711       0             -1.1642703      0.018813147  
     41100   0.79920707    -1.739001       0             -1.1656568      0.021664099  
     41150   0.77769863    -1.7390947      0             -1.1811805      0.053662223  
     41200   0.77003843    -1.7390752      0             -1.1866564      0.016879254  
     41250   0.76763735    -1.7389569      0             -1.1882606     -0.024745929  
     41300   0.77088183    -1.7389051      0             -1.1858812     -0.14124901   
     41350   0.758343      -1.7389914      0             -1.1949627      0.099110165  
     41400   0.72997887    -1.7388901      0             -1.2152096      0.0081696654 
     41450   0.73702575    -1.7383851      0             -1.2096492     -0.1716311    
     41500   0.71478684    -1.7388031      0             -1.2260212     -0.12779555   
     41550   0.72090913    -1.738945       0             -1.2217711      0.061974318  
     41600   0.72377448    -1.7388707      0             -1.2196412     -0.036900921  
     41650   0.7422437     -1.7389845      0             -1.2065053     -0.084884042  
     41700   0.7201931     -1.7391141      0             -1.2224538      0.066608091  
     41750   0.72837744    -1.7391004      0             -1.2165687      0.075253985  
     41800   0.7296516     -1.7390554      0             -1.2156097     -0.029937155  
     41850   0.72085946    -1.7388714      0             -1.2217331      0.057310339  
     41900   0.71685838    -1.7386969      0             -1.2244289     -0.054109554  
     41950   0.70756297    -1.7388563      0             -1.2312568      0.066845495  
     42000   0.72040797    -1.738972       0             -1.2221576     -0.041330329  
     42050   0.72455321    -1.7388484      0             -1.2190602      0.10261182   
     42100   0.74405377    -1.7388311      0             -1.2050534      0.071942046  
     42150   0.72884375    -1.739064       0             -1.2161979     -0.048056134  
     42200   0.71958363    -1.7389888      0             -1.2227658      0.027671427  
     42250   0.70479068    -1.7389612      0             -1.2333505      0.05212551   
     42300   0.72388803    -1.7390309      0             -1.2197199      0.11697224   
     42350   0.72611112    -1.7387859      0             -1.2178801     -0.11664741   
     42400   0.73658716    -1.7389774      0             -1.2105561     -0.00088818967
     42450   0.75515734    -1.7386962      0             -1.1969529      0.11794664   
     42500   0.76708727    -1.738962       0             -1.1886603      0.022216978  
     42550   0.78159627    -1.7390942      0             -1.1783838     -0.0067875744 
     42600   0.76503934    -1.7390662      0             -1.1902337      0.044683628  
     42650   0.76716873    -1.7389273      0             -1.1885671     -0.14885313   
     42700   0.76693247    -1.7387631      0             -1.1885724     -0.045678386  
     42750   0.76137473    -1.7391111      0             -1.1929075     -0.016315363  
     42800   0.75409609    -1.7389665      0             -1.1979845      0.0064937982 
     42850   0.74209279    -1.7389007      0             -1.2065298      0.077514151  
     42900   0.7261433     -1.739109       0             -1.2181801     -0.12073642   
     42950   0.72597903    -1.7390309      0             -1.2182199      0.16914288   
     43000   0.7270731     -1.7390331      0             -1.2174372      0.0080368469 
     43050   0.7360153     -1.7389341      0             -1.2109231      0.062144817  
     43100   0.72755805    -1.7387971      0             -1.2168533      0.0022085773 
     43150   0.74694345    -1.7389524      0             -1.2031016      0.01583814   
     43200   0.75763661    -1.738883       0             -1.1953611      0.024795117  
     43250   0.76995092    -1.7387485      0             -1.1863924      0.025184003  
     43300   0.78462784    -1.739041       0             -1.1761558      0.011084309  
     43350   0.91127778    -1.9242739      0             -1.2705312     -0.056905739  
     43400   0.92437604    -2.088921       0             -1.4257817     -0.011888294  
     43450   0.84250385    -2.0986148      0             -1.4942099      0.027180662  
     43500   0.80425187    -2.1238603      0             -1.546897      -0.020910759  
     43550   0.83816458    -2.1649925      0             -1.5637005     -0.09726682   
     43600   0.81500843    -2.1639118      0             -1.5792319     -0.0855291    
     43650   0.78717025    -2.1631163      0             -1.5984072      0.10644192   
     43700   0.79667389    -2.1721817      0             -1.6006548      0.023654251  
     43750   0.79568519    -2.1726904      0             -1.6018727      0.071001188  
     43800   0.80665717    -2.1709532      0             -1.5922644     -0.004025937  
     43850   0.81165048    -2.1728142      0             -1.5905432     -0.0038193384 
     43900   0.79760913    -2.173498       0             -1.6013002     -0.06456183   
     43950   0.7871997     -2.1737173      0             -1.608987      -0.016359621  
     44000   0.76774634    -2.1727789      0             -1.6220044     -0.13029899   
     44050   0.76833721    -2.1735305      0             -1.6223321     -0.055572691  
     44100   0.77795765    -2.1734988      0             -1.6153987     -0.010577098  
     44150   0.7936695     -2.1736022      0             -1.6042306      0.047842441  
     44200   0.77930692    -2.1735469      0             -1.6144789     -0.034055493  
     44250   0.75015463    -2.1738689      0             -1.6357144     -0.037999135  
     44300   0.75175997    -2.1738517      0             -1.6345456      0.021727289  
     44350   0.74828419    -2.173813       0             -1.6370004     -0.020171668  
     44400   0.73186218    -2.1736433      0             -1.6486117     -0.0019267399 
     44450   0.73187649    -2.1737391      0             -1.6486973      0.010183664  
     44500   0.71001235    -2.1735963      0             -1.6642396      0.015154276  
     44550   0.72534342    -2.1736197      0             -1.6532647     -0.066098071  
     44600   0.72439664    -2.1736201      0             -1.6539443     -0.12279297   
     44650   0.7313471     -2.1733435      0             -1.6486815     -0.084514732  
     44700   0.73940888    -2.1737313      0             -1.6432858     -0.089169379  
     44750   0.75313504    -2.1736798      0             -1.6333873      0.027956819  
     44800   0.7345904     -2.1736696      0             -1.6466808     -0.13095595   
     44850   0.74433463    -2.1737116      0             -1.6397324      0.077975393  
     44900   0.74049687    -2.1735728      0             -1.6423467      0.0029071205 
     44950   0.75816877    -2.1737054      0             -1.6298017      0.050887233  
     45000   0.74548999    -2.1732323      0             -1.6384242     -0.063489307  
     45050   0.74836476    -2.1735394      0             -1.6366691      0.00016409016
     45100   0.75038847    -2.1732697      0             -1.6349475     -0.00056965816
     45150   0.75565138    -2.1730792      0             -1.6309814      0.06110145   
     45200   0.7619983     -2.1734235      0             -1.6267725     -0.008478803  
     45250   0.73127037    -2.1736656      0             -1.6490586     -0.087159253  
     45300   0.71637401    -2.1734437      0             -1.6595232     -0.06415874   
     45350   0.70026636    -2.1736297      0             -1.6712647      0.028231348  
     45400   0.68761149    -2.1737357      0             -1.6804492     -0.092427969  
     45450   0.6830386     -2.1736993      0             -1.6836933     -0.025352919  
     45500   0.66276157    -2.1737897      0             -1.6983303      0.026017079  
     45550   0.66347096    -2.1738368      0             -1.6978685     -0.065381581  
     45600   0.66125071    -2.1734999      0             -1.6991244     -0.038164324  
     45650   0.66972438    -2.173817       0             -1.6933626      0.027063037  
     45700   0.68180547    -2.1734745      0             -1.6843531     -0.0092991165 
     45750   0.66984486    -2.1736192      0             -1.6930783      0.049702857  
     45800   0.65320933    -2.1735453      0             -1.7049386      0.047627479  
     45850   0.6599168     -2.1737943      0             -1.7003757     -0.067649104  
     45900   0.64291805    -2.1736765      0             -1.7124527      0.073279187  
     45950   0.62733342    -2.173718       0             -1.7236745     -0.0048671824 
     46000   0.60885748    -2.1738942      0             -1.7371051      0.011810379  
     46050   0.60062923    -2.1738489      0             -1.7429627     -0.028727131  
     46100   0.58872249    -2.1737909      0             -1.7514465     -0.058771844  
     46150   0.60272086    -2.1737065      0             -1.7413198     -0.072047448  
     46200   0.60628741    -2.173636       0             -1.7386907      0.023082946  
     46250   0.60467994    -2.1746979      0             -1.7409057      0.058556444  
     46300   0.87550859    -2.5173109      0             -1.8892287      0.032194299  
     46350   0.80463011    -2.5770786      0             -1.999844      -0.041469758  
     46400   0.67176835    -2.561047       0             -2.0791262     -0.083293407  
     46450   0.6506608     -2.5751663      0             -2.1083879     -0.065381004  
     46500   0.63572449    -2.5809707      0             -2.1249075      0.099558088  
     46550   0.65794623    -2.5977907      0             -2.1257858     -0.053894105  
     46600   0.66882387    -2.6018316      0             -2.1220232     -0.070291282  
     46650   0.67679669    -2.6034158      0             -2.1178877      0.054064345  
     46700   0.67925266    -2.6001237      0             -2.1128338      0.084479892  
     46750   0.69603431    -2.6048195      0             -2.1054906      0.062677754  
     46800   0.70638723    -2.6065161      0             -2.09976        0.010052303  
     46850   0.69105856    -2.6067644      0             -2.111005       0.0029265139 
     46900   0.65744001    -2.6078833      0             -2.1362415     -0.11466342   
     46950   0.63918704    -2.6075105      0             -2.1489633      0.030250311  
     47000   0.64039678    -2.6082829      0             -2.1488678     -0.095391504  
     47050   0.64557297    -2.6081127      0             -2.1449842      0.037291515  
     47100   0.63535029    -2.608159       0             -2.1523642      0.012619848  
     47150   0.61785678    -2.60831        0             -2.165065       0.047014191  
     47200   0.59990441    -2.6083966      0             -2.1780304      0.014986966  
     47250   0.59967774    -2.6084176      0             -2.178214      -0.1218091    
     47300   0.62394567    -2.6082058      0             -2.1605926     -0.12527414   
     47350   0.64726134    -2.6085152      0             -2.1441756     -0.014609676  
     47400   0.64475302    -2.608383       0             -2.1458428     -0.020147797  
     47450   0.62868315    -2.6083226      0             -2.1573108     -0.11138142   
     47500   0.63295073    -2.6081755      0             -2.1541021     -0.0013080281 
     47550   0.61905586    -2.6073702      0             -2.1632649      0.035613125  
     47600   0.61874499    -2.6047753      0             -2.160893       0.134034     
     47650   0.61394648    -2.6005696      0             -2.1601298     -0.047775806  
     47700   0.61272608    -2.5942721      0             -2.1547077     -0.004127741  
     47750   0.6172366     -2.5961854      0             -2.1533852     -0.0024762654 
     47800   0.64973063    -2.6067823      0             -2.1406712      0.048785444  
     47850   0.64688875    -2.6054548      0             -2.1413825      0.0050855297 
     47900   0.61962612    -2.5992187      0             -2.1547043     -0.040358569  
     47950   0.63389156    -2.603484       0             -2.1487357     -0.18837103   
     48000   0.62618625    -2.6078078      0             -2.1585872     -0.009318963  
     48050   0.61911472    -2.6007862      0             -2.1566387      0.13946029   
     48100   0.60949926    -2.5974203      0             -2.1601709     -0.076841121  
     48150   0.61954356    -2.6051721      0             -2.160717       0.073176902  
     48200   0.61276548    -2.6077536      0             -2.168161       0.0079857432 
     48250   0.59303727    -2.6046395      0             -2.1791997      0.020703027  
     48300   0.61880197    -2.605349       0             -2.1614259     -0.078257645  
     48350   0.62218297    -2.6079161      0             -2.1615675     -0.05961257   
     48400   0.60664329    -2.6012059      0             -2.1660053      0.021387781  
     48450   0.60923755    -2.6051236      0             -2.1680619      0.063769233  
     48500   0.59841663    -2.6035292      0             -2.1742303     -0.080913806  
     48550   0.58824524    -2.6029666      0             -2.1809646     -0.0045972008 
     48600   0.59463736    -2.6034982      0             -2.1769105     -0.018359865  
     48650   0.58330227    -2.6068604      0             -2.1884044      0.023861772  
     48700   0.55965299    -2.6036174      0             -2.2021272     -0.0029610459 
     48750   0.5711916     -2.608218       0             -2.1984501     -0.052078498  
     48800   0.55367041    -2.6056852      0             -2.2084868      0.001657416  
     48850   0.52354694    -2.6072389      0             -2.2316509      0.012523353  
     48900   0.52728988    -2.6076495      0             -2.2293764      0.018781932  
     48950   0.50676173    -2.6075002      0             -2.2439538     -0.0031922619 
     49000   0.50336501    -2.6079536      0             -2.2468439     -0.023615744  
     49050   0.50359814    -2.6068986      0             -2.2456217     -0.070022912  
     49100   0.50843513    -2.6081167      0             -2.2433698     -0.038131282  
     49150   0.50553731    -2.6079199      0             -2.2452518     -0.11747249   
     49200   0.50174399    -2.607599       0             -2.2476522     -0.020697659  
     49250   0.51230827    -2.6078311      0             -2.2403056      0.054772421  
     49300   0.53425994    -2.6080723      0             -2.2247989      0.042372932  
     49350   0.53512004    -2.6084678      0             -2.2245774      0.013203528  
     49400   0.5308706     -2.6079029      0             -2.227061       0.066295351  
     49450   0.52244157    -2.6082         0             -2.233405       0.057750805  
     49500   0.51099093    -2.607729       0             -2.2411486     -0.125359     
     49550   0.52073664    -2.6082256      0             -2.2346536     -0.084473089  
     49600   0.51239673    -2.6084112      0             -2.2408223      0.070027836  
     49650   0.51161035    -2.6082335      0             -2.2412087      0.10996623   
     49700   0.50331612    -2.6084422      0             -2.2473676      0.078235388  
     49750   0.49255838    -2.608175       0             -2.2548179     -0.11833357   
     49800   0.4778034     -2.6084587      0             -2.2656867     -0.013708495  
     49850   0.47441202    -2.6080974      0             -2.2677583      0.0061257943 
     49900   0.48560471    -2.6082671      0             -2.2598985     -0.053291998  
     49950   0.48547205    -2.6084689      0             -2.2601955     -0.060815045  
     50000   0.47909711    -2.6082302      0             -2.2645301      0.057856995  
     50050   0.46927686    -2.608175       0             -2.2715199      0.0014339007 
     50100   0.47433372    -2.6080374      0             -2.2677545     -0.088724113  
     50150   0.47685343    -2.6085069      0             -2.2664164      0.044322296  
     50200   0.48090606    -2.6082312      0             -2.2632334      0.044526513  
     50250   0.48451884    -2.6084         0             -2.2608104      0.073067403  
     50300   0.48089979    -2.6084164      0             -2.263423       0.076925276  
     50350   0.49071432    -2.6085535      0             -2.2565193     -0.14610067   
     50400   0.47867562    -2.6085965      0             -2.2651988      0.011325233  
     50450   0.47105585    -2.6084838      0             -2.2705525     -0.0071808945 
     50500   0.48362579    -2.6086717      0             -2.2617228      0.082404074  
     50550   0.50264553    -2.6085792      0             -2.2479857      0.034262768  
     50600   0.50857766    -2.6080814      0             -2.2432322     -0.039654389  
     50650   0.52010795    -2.608223       0             -2.2351021     -0.050095775  
     50700   0.5176179     -2.6079899      0             -2.2366553      0.098721537  
     50750   0.53470497    -2.6082794      0             -2.2246868     -0.008990984  
     50800   0.51077028    -2.6080322      0             -2.2416101     -0.067088005  
     50850   0.51239772    -2.608523       0             -2.2409333     -0.019401092  
     50900   0.52009373    -2.6077087      0             -2.234598      -0.053995981  
     50950   0.52320155    -2.6077347      0             -2.2323945      0.071016808  
     51000   0.50479478    -2.6081592      0             -2.2460238     -0.04321716   
     51050   0.49326956    -2.6080564      0             -2.2541892     -0.044554918  
     51100   0.48358124    -2.6085374      0             -2.2616204     -0.022308681  
     51150   0.48330641    -2.6085014      0             -2.2617816     -0.10871699   
     51200   0.48442695    -2.6085416      0             -2.261018      -0.073584719  
     51250   0.48756897    -2.6083509      0             -2.2585732      0.018711304  
     51300   0.48381225    -2.6085475      0             -2.2614648      0.010087763  
     51350   0.49572682    -2.6083613      0             -2.2527312     -0.055334689  
     51400   0.51874556    -2.6086299      0             -2.2364864     -0.030912593  
     51450   0.51857387    -2.6080754      0             -2.236055      -0.069030013  
     51500   0.51994235    -2.6085146      0             -2.2355125      0.041231576  
     51550   0.53762404    -2.6084236      0             -2.2227368      0.0038002092 
     51600   0.54638713    -2.607959       0             -2.2159857     -0.057467306  
     51650   0.56774885    -2.6076366      0             -2.2003385     -0.077855116  
     51700   0.55761186    -2.6477508      0             -2.2477249      0.12649384   
     51750   0.53191318    -2.6272601      0             -2.2456702     -0.0050736171 
     51800   0.50105932    -2.5934718      0             -2.2340162      0.18039122   
     51850   0.91435232    -2.9204102      0             -2.2644618     -0.43183584   
     51900   0.85314863    -2.9585642      0             -2.3465228      0.40987102   
     51950   0.72002556    -2.9604625      0             -2.4439224     -0.02946177   
     52000   0.7233255     -3.0013297      0             -2.4824223      0.3110113    
     52050   0.73969253    -3.0481508      0             -2.5175018      0.096514645  
     52100   0.70524182    -3.0215157      0             -2.5155814     -0.13250506   
     52150   0.70306209    -3.0340679      0             -2.5296973     -0.00073772924
     52200   0.66538612    -3.0327476      0             -2.5554053     -0.04963989   
     52250   0.62972165    -3.019232       0             -2.5674751     -0.2298176    
     52300   0.63964703    -3.0777148      0             -2.6188376      0.18372573   
     52350   0.62444903    -3.0755479      0             -2.6275736     -0.090563897  
     52400   0.59288817    -3.0651677      0             -2.6398349     -0.37296159   
     52450   0.58211642    -3.0581609      0             -2.6405556     -0.0059146546 
     52500   0.56555806    -3.0537901      0             -2.6480637      0.12639351   
     52550   0.55280993    -3.05639        0             -2.6598089     -0.070124882  
     52600   0.57069913    -3.0628238      0             -2.6534092     -0.28486792   
     52650   0.57144091    -3.072594       0             -2.6626472      0.0022502684 
     52700   0.56149425    -3.0801412      0             -2.6773301      0.048094699  
     52750   0.55326876    -3.0839842      0             -2.687074      -0.10937233   
     52800   0.57606215    -3.0849553      0             -2.6716933     -0.11672767   
     52850   0.5781256     -3.0859073      0             -2.6711651      0.0065221178 
     52900   0.58004349    -3.0865577      0             -2.6704396      0.032290943  
     52950   0.6092529     -3.0415229      0             -2.6044501     -0.0036042847 
     53000   0.62914907    -3.0861483      0             -2.6348022     -0.17593218   
     53050   0.62916298    -3.0857558      0             -2.6343998      0.080466171  
     53100   0.62226418    -3.0829861      0             -2.6365792     -0.012758903  
     53150   0.60478854    -3.0755804      0             -2.6417104     -0.099899793  
     53200   0.56148858    -3.0608208      0             -2.6580138     -0.14791808   
     53250   0.52418875    -3.0425427      0             -2.6664942      0.0026312489 
     53300   0.54422114    -3.0373641      0             -2.6469446     -0.018388335  
     53350   0.55269882    -3.051593       0             -2.6550917     -0.011636965  
     53400   0.56453882    -3.0705096      0             -2.6655143      0.034263256  
     53450   0.58487433    -3.081453       0             -2.6618692      9.4353157e-05
     53500   0.61358431    -3.0858659      0             -2.6456859      0.032018786  
     53550   0.61216173    -3.04319        0             -2.6040305     -0.04956602   
     53600   0.62716459    -3.0431727      0             -2.5932503      0.011356786  
     53650   0.6217456     -3.0431088      0             -2.597074      -0.10143496   
     53700   0.63193109    -3.0429729      0             -2.589631      -0.0098722021 
     53750   0.64473969    -3.0428841      0             -2.5803535     -0.086636768  
     53800   0.63949396    -3.0430602      0             -2.5842928     -0.015154002  
     53850   0.62988233    -3.0842949      0             -2.6324228      0.021748112  
     53900   0.62059771    -3.0752567      0             -2.6300453      0.017421909  
     53950   0.58074329    -3.0452487      0             -2.6286285      0.00076613185
     54000   0.50089429    -2.9918093      0             -2.632472       0.14685863   
     54050   0.4684809     -2.9797545      0             -2.6436704      0.16704145   
     54100   0.56766925    -3.03229        0             -2.625049       0.044208318  
     54150   0.60862318    -3.070669       0             -2.634048      -0.14609779   
     54200   0.623044      -3.0834726      0             -2.6365062      0.011653904  
     54250   0.62915321    -3.086299       0             -2.63495       -0.03503866   
     54300   0.62943582    -3.0430174      0             -2.5914656     -0.01986505   
     54350   0.63642211    -3.0431732      0             -2.5866095      0.13004104   
     54400   0.62470777    -3.043314       0             -2.5951541     -0.10322399   
     54450   0.65133573    -3.0433169      0             -2.5760543     -0.02130585   
     54500   0.66226135    -3.042947       0             -2.5678465     -0.034436715  
     54550   0.65672617    -3.0432248      0             -2.5720951     -0.040086659  
     54600   0.63886112    -3.0430617      0             -2.5847483     -0.048141462  
     54650   0.66378988    -3.0866248      0             -2.6104277      0.0017112123 
     54700   0.66515974    -3.0851959      0             -2.6080161     -0.005657448  
     54750   0.66486149    -3.0814091      0             -2.6044433     -0.13280546   
     54800   0.66194971    -3.0720789      0             -2.5972019      0.0042726309 
     54850   0.63970802    -3.0542954      0             -2.5953744      0.0066536494 
     54900   0.6180229     -3.0341449      0             -2.5907807      0.04061696   
     54950   0.60321352    -3.0265569      0             -2.5938168      0.054094743  
     55000   0.62241549    -3.0354021      0             -2.5888867      0.0033856657 
     55050   0.64646977    -3.0515137      0             -2.5877419      0.091498212  
     55100   0.65044213    -3.0617868      0             -2.5951653     -0.018314376  
     55150   0.64518413    -3.0690651      0             -2.6062156     -0.092834969  
     55200   0.63801612    -3.0729876      0             -2.6152803      0.025071407  
     55250   0.63281373    -3.075211       0             -2.6212359      0.005945326  
     55300   0.62347115    -3.0762181      0             -2.6289453     -0.074423358  
     55350   0.61754506    -3.0768939      0             -2.6338725      0.067620428  
     55400   0.60851684    -3.1191583      0             -2.6826136     -0.094586511  
     55450   0.59675427    -3.114595       0             -2.6864887     -0.032532993  
     55500   0.61081284    -3.1076214      0             -2.6694296      0.011278755  
     55550   0.57607029    -3.0997537      0             -2.6864858      0.09899182   
     55600   0.56212472    -3.0941128      0             -2.6908494     -0.068237622  
     55650   0.55714707    -3.0928115      0             -2.693119       0.056432833  
     55700   0.56843844    -3.0972241      0             -2.6894313      0.037246282  
     55750   0.57186902    -3.1057346      0             -2.6954807     -0.022187927  
     55800   0.57764014    -3.1140752      0             -2.6996812     -0.028688754  
     55850   0.57640772    -3.1205051      0             -2.7069952     -0.073249149  
     55900   0.59786351    -3.08141        0             -2.652508      -0.0047833219 
     55950   0.58962048    -3.0835138      0             -2.6605252     -0.017551993  
     56000   0.57070095    -3.0849338      0             -2.6755179     -0.11690322   
     56050   0.56951184    -3.0856912      0             -2.6771284      0.026149916  
     56100   0.58175861    -3.0860514      0             -2.6687029     -0.0394436    
     56150   0.59287934    -3.0856976      0             -2.6603712     -0.00077891794
     56200   0.59852603    -3.085487       0             -2.6561096     -0.049608156  
     56250   0.57942287    -3.0851468      0             -2.6694739      0.0089235042 
     56300   0.56199065    -3.0841702      0             -2.681003      -0.09810597   
     56350   0.54851122    -3.0827961      0             -2.6892989     -0.066158164  
     56400   0.56858661    -3.0807014      0             -2.6728023      0.031162183  
     56450   0.56551081    -3.0775694      0             -2.6718768     -0.085188658  
     56500   0.56020871    -3.0745382      0             -2.6726494      0.011575879  
     56550   0.54459762    -3.0719933      0             -2.6813037     -0.046639347  
     56600   0.5320597     -3.0706496      0             -2.6889546      0.083767226  
     56650   0.5350362     -3.0721365      0             -2.6883062     -0.011901542  
     56700   0.52668575    -3.0740151      0             -2.6961753      0.0056743997 
     56750   0.53479457    -3.075873       0             -2.692216       0.1220378    
     56800   0.53089791    -3.0775624      0             -2.6967008     -0.12762173   
     56850   0.53180045    -3.078379       0             -2.69687        0.069899176  
     56900   0.53658577    -3.0781007      0             -2.6931588      0.025485634  
     56950   0.5104875     -3.0780081      0             -2.7117888     -0.071046723  
     57000   0.49628685    -3.0777569      0             -2.721725      -0.012870189  
     57050   0.48354119    -3.0769802      0             -2.7300919      0.045122499  
     57100   0.48716702    -3.0770085      0             -2.7275191     -0.024095942  
     57150   0.46965738    -3.0789359      0             -2.7420078     -0.026220505  
     57200   0.47368126    -3.0808578      0             -2.741043      -0.033603964  
     57250   0.47606434    -3.0835166      0             -2.7419922      0.029717493  
     57300   0.48650512    -3.0853431      0             -2.7363285      0.026625958  
     57350   0.50385641    -3.0860281      0             -2.7245659     -0.07611549   
     57400   0.50494132    -3.0424398      0             -2.6801993      0.012482393  
     57450   0.49803739    -3.042469       0             -2.6851813     -0.003973442  
     57500   0.50519772    -3.0422712      0             -2.6798467     -0.14810734   
     57550   0.51485666    -3.0424779      0             -2.6731242     -0.07323663   
     57600   0.51250939    -3.08634        0             -2.7186702     -0.0075177886 
     57650   0.50153912    -3.0840354      0             -2.7242356     -0.015751969  
     57700   0.50355644    -3.0777319      0             -2.7164849      0.055923973  
     57750   0.48257652    -3.0654462      0             -2.71925       -0.024921282  
     57800   0.4774461     -3.0523001      0             -2.7097845      0.099152575  
     57850   0.47669164    -3.0489533      0             -2.7069789      0.10602278   
     57900   0.51916224    -3.058632       0             -2.6861895      0.056960469  
     57950   0.54121497    -3.0721697      0             -2.6839068     -0.0003879267 
     58000   0.54878379    -3.0806977      0             -2.687005      -0.034364654  
     58050   0.54496318    -3.0851815      0             -2.6942296     -0.014521585  
     58100   0.53653955    -3.042962       0             -2.6580532      0.0028331065 
     58150   0.53950683    -3.0432369      0             -2.6561994      0.001330994  
     58200   0.53740187    -3.0428336      0             -2.6573062     -0.015759382  
     58250   0.54483196    -3.0431034      0             -2.6522457     -0.15376856   
     58300   0.53375489    -3.0428934      0             -2.6599823     -0.016598907  
     58350   0.53316792    -3.043105       0             -2.660615      -0.034479441  
     58400   0.52823487    -3.0431186      0             -2.6641675     -0.001973335  
     58450   0.53422464    -3.041975       0             -2.6587268      0.034028956  
     58500   0.53842633    -3.0433566      0             -2.6570942     -0.1006578    
     58550   0.53822065    -3.0432268      0             -2.657112       0.0094756474 
     58600   0.54207699    -3.0863616      0             -2.6974803     -0.075905623  
     58650   0.53891271    -3.0843925      0             -2.6977812     -0.024618913  
     58700   0.54810493    -3.078697       0             -2.6854913     -0.013228669  
     58750   0.53332237    -3.067852       0             -2.6852512     -0.11437405   
     58800   0.51202479    -3.0553178      0             -2.6879956     -0.00053848878
     58850   0.49480116    -3.0508789      0             -2.6959129      0.035557986  
     58900   0.49981247    -3.0595549      0             -2.7009938      0.075983877  
     58950   0.52279749    -3.0728941      0             -2.6978437      0.010770882  
     59000   0.53151457    -3.0825204      0             -2.7012164      0.021829873  
     59050   0.52739481    -3.0860944      0             -2.7077459     -0.04475889   
     59100   0.52646879    -3.042999       0             -2.6653149      0.018642245  
     59150   0.53411649    -3.0433833      0             -2.6602128      0.051541988  
     59200   0.54075634    -3.0432364      0             -2.6553025      0.0008707282 
     59250   0.54035075    -3.0432209      0             -2.655578      -0.016421446  
     59300   0.53431351    -3.0429752      0             -2.6596633     -0.010810599  
     59350   0.52734164    -3.043027       0             -2.6647167     -0.0094797672 
     59400   0.53339561    -3.0431646      0             -2.6605112      0.077467875  
     59450   0.5211728     -3.0432068      0             -2.669322      -0.12098073   
     59500   0.53202877    -3.043364       0             -2.6616912     -0.002187957  
     59550   0.5533471     -3.0433903      0             -2.6464239      0.021659896  
     59600   0.54441938    -3.043049       0             -2.6524873     -0.0067355262 
     59650   0.54222324    -3.0865538      0             -2.6975675      0.052231836  
     59700   0.53506845    -3.0857096      0             -2.7018561      0.10350851   
     59750   0.54107011    -3.0842244      0             -2.6960654     -0.097353035  
     59800   0.53075154    -3.0828669      0             -2.7021104     -0.034937947  
     59850   0.51707218    -3.0819441      0             -2.711001       0.033007239  
     59900   0.52302982    -3.0817246      0             -2.7065076     -0.11255403   
     59950   0.52062626    -3.0826754      0             -2.7091826      0.047166067  
     60000   0.52957939    -3.0837796      0             -2.7038639      0.023167661  
     60050   0.54405299    -3.0851219      0             -2.694823       0.010931464  
     60100   0.54187927    -3.0860355      0             -2.697296      -0.043871737  
     60150   0.55528551    -3.086272       0             -2.687915      -0.15740655   
     60200   0.54234871    -3.0866639      0             -2.6975877     -0.019033417  
     60250   0.52401006    -3.0867201      0             -2.7107998     -0.066501597  
     60300   0.50848068    -3.0868236      0             -2.722044      -0.01095475   
     60350   0.50741898    -3.0865582      0             -2.7225403     -0.01233015   
     60400   0.5001334     -3.0867293      0             -2.7279379      0.067496723  
     60450   0.49134199    -3.0866623      0             -2.7341778      0.038482596  
     60500   0.49377506    -3.0865488      0             -2.7323189     -0.025372612  
     60550   0.50781417    -3.0866217      0             -2.7223203      0.060886787  
     60600   0.52127472    -3.0867229      0             -2.7127649     -0.010953227  
     60650   0.52775159    -3.0867051      0             -2.7081007     -0.13076745   
     60700   0.51684222    -3.0866249      0             -2.7158468      0.0059065224 
     60750   0.53336874    -3.0866055      0             -2.7039714     -0.0041619454 
     60800   0.55105654    -3.0863657      0             -2.6910425      0.087169965  
     60850   0.55111017    -3.0860915      0             -2.6907299      0.0086022474 
     60900   0.55883309    -3.0858109      0             -2.6849089     -0.014204565  
     60950   0.55479599    -3.0852157      0             -2.6872099      0.024552543  
     61000   0.55888915    -3.0843632      0             -2.6834209     -0.049756932  
     61050   0.56871774    -3.0838908      0             -2.6758976     -0.0018470882 
     61100   0.56914017    -3.0831397      0             -2.6748435      0.05073957   
     61150   0.5601423     -3.0820601      0             -2.6802189     -0.029770316  
     61200   0.56102905    -3.0812112      0             -2.6787338      0.071405948  
     61250   0.56335415    -3.0803845      0             -2.6762391     -0.10271377   
     61300   0.58520268    -3.080385       0             -2.6605657      0.032705152  
     61350   0.57461271    -3.0804408      0             -2.6682187      0.10253809   
     61400   0.57992286    -3.0805066      0             -2.664475       0.1031388    
     61450   0.57101728    -3.0808217      0             -2.6711789      0.090882662  
     61500   0.58632128    -3.0822432      0             -2.6616214      0.03063566   
     61550   0.59427137    -3.0837925      0             -2.6574674      0.071448888  
     61600   0.60837603    -3.0850103      0             -2.6485666     -0.064364362  
     61650   0.60129015    -3.0858269      0             -2.6544666     -0.067914876  
     61700   0.59976494    -3.0861869      0             -2.6559207      0.032470454  
     61750   0.62257203    -3.0861169      0             -2.6394891      0.018816908  
     61800   0.61006537    -3.0862231      0             -2.6485675      0.10100183   
     61850   0.58306113    -3.0865323      0             -2.6682493     -0.040661196  
     61900   0.59068478    -3.0858256      0             -2.6620735     -0.035952321  
     61950   0.60066875    -3.0843357      0             -2.6534211     -0.008199186  
     62000   0.59853135    -3.0819287      0             -2.6525475      0.10685851   
     62050   0.6063243     -3.0772297      0             -2.642258       0.0702417    
     62100   0.6078508     -3.0723361      0             -2.6362692     -0.090557277  
     62150   0.59546994    -3.0680621      0             -2.6408771      0.067894053  
     62200   0.60129443    -3.0630015      0             -2.6316381      0.035023569  
     62250   0.60833451    -3.0662468      0             -2.6298329      0.034228829  
     62300   0.59274458    -3.0697371      0             -2.6445073      0.042687767  
     62350   0.61325089    -3.0753053      0             -2.6353645     -0.066789237  
     62400   0.63255332    -3.079733       0             -2.6259447      0.069792021  
     62450   0.63924199    -3.0839867      0             -2.6254        -0.037986252  
     62500   0.65744962    -3.0859406      0             -2.614292      -0.070962369  
     62550   0.66244403    -3.0867257      0             -2.6114941     -0.063054097  
     62600   0.67718154    -3.043413       0             -2.5576088      0.047904192  
     62650   0.65740813    -3.0433965      0             -2.5717777      0.0014260992 
     62700   0.66532621    -3.0429202      0             -2.5656209     -0.096065497  
     62750   0.68099333    -3.0433082      0             -2.5547695      0.15004863   
     62800   0.68048474    -3.0433192      0             -2.5551453      0.027214928  
     62850   0.71480921    -3.0432182      0             -2.5304203     -0.095075726  
     62900   0.71542242    -3.0864809      0             -2.5732431      0.062444569  
     62950   0.72429987    -3.0857378      0             -2.5661314      0.057918669  
     63000   0.69506359    -3.0841308      0             -2.5854982      0.075036422  
     63050   0.69305752    -3.0808147      0             -2.5836213     -0.0053942556 
     63100   0.68794755    -3.0774296      0             -2.583902       0.032759454  
     63150   0.68693017    -3.074323       0             -2.5815252     -0.056135242  
     63200   0.69888902    -3.0728716      0             -2.5714947      0.070921083  
     63250   0.68695279    -3.0734444      0             -2.5806305      0.12897452   
     63300   0.68404518    -3.0754672      0             -2.5847391      0.024970498  
     63350   0.68251677    -3.0754396      0             -2.585808       0.080277918  
     63400   0.6652236     -3.0766796      0             -2.599454       0.035880459  
     63450   0.64775097    -3.0787835      0             -2.6140925      0.01982414   
     63500   0.66091566    -3.0780177      0             -2.6038825      0.057309744  
     63550   0.65478499    -3.0769887      0             -2.6072517     -0.02346287   
     63600   0.65695055    -3.0762603      0             -2.6049697      0.014910657  
     63650   0.66213215    -3.0770003      0             -2.6019924      0.0083220454 
     63700   0.64699757    -3.0786877      0             -2.6145373     -0.04718283   
     63750   0.62984408    -3.0806564      0             -2.6288117      0.082466956  
     63800   0.64142432    -3.0824991      0             -2.6223468      0.090956999  
     63850   0.65046633    -3.0839964      0             -2.6173575     -0.20090093   
     63900   0.67058551    -3.084903       0             -2.6038308      0.014368971  
     63950   0.68111477    -3.08578        0             -2.5971541      0.045327162  
     64000   0.66925654    -3.085757       0             -2.6056382      0.02881979   
     64050   0.67005199    -3.0861211      0             -2.6054316     -0.055263626  
     64100   0.66794867    -3.0865419      0             -2.6073613     -0.09460486   
     64150   0.69628534    -3.0433555      0             -2.5438465     -0.11098417   
     64200   0.70781047    -3.0432799      0             -2.5355028     -0.0048248914 
     64250   0.7009634     -3.0434031      0             -2.5405381     -0.12731215   
     64300   0.7168237     -3.0431497      0             -2.5289066      0.044882797  
     64350   0.70949923    -3.0866427      0             -2.5776541     -0.17626395   
     64400   0.73504845    -3.0864696      0             -2.5591522      0.047894356  
     64450   0.72683604    -3.0857849      0             -2.564359       0.042229374  
     64500   0.72549489    -3.0839467      0             -2.563483      -0.096254089  
     64550   0.71486376    -3.0812406      0             -2.5684035     -0.012960439  
     64600   0.7015036     -3.077141       0             -2.5738885      0.048753157  
     64650   0.70962636    -3.0740591      0             -2.5649793      0.077434341  
     64700   0.71993825    -3.0725588      0             -2.5560813      0.026017133  
     64750   0.74111342    -3.0728974      0             -2.5412291      0.16210212   
     64800   0.73552664    -3.0754015      0             -2.547741       0.051277382  
     64850   0.75830695    -3.0790072      0             -2.5350044      0.10957935   
     64900   0.74837884    -3.0826001      0             -2.5457196      0.022777328  
     64950   0.75306955    -3.0849385      0             -2.544693      -0.043858469  
     65000   0.74992896    -3.0860857      0             -2.5480931      0.084495251  
     65050   0.74095099    -3.0857122      0             -2.5541604      0.030902954  
     65100   0.75504615    -3.0863437      0             -2.5446802     -0.015884574  
     65150   0.74903293    -3.0863483      0             -2.5489986      0.014488499  
     65200   0.75170745    -3.0862364      0             -2.546968       0.0040627582 
     65250   0.74237495    -3.0858783      0             -2.5533049      0.074372372  
     65300   0.74541003    -3.085252       0             -2.5505013     -0.0025208013 
     65350   0.73023602    -3.083396       0             -2.559531      -0.040722348  
     65400   0.7400348     -3.0807695      0             -2.549875       0.026351898  
     65450   0.73600457    -3.0768429      0             -2.5488396     -0.079935828  
     65500   0.70810845    -3.0735862      0             -2.5655954      0.1177385    
     65550   0.69872438    -3.0719708      0             -2.570712       0.067075088  
     65600   0.6823514     -3.0727691      0             -2.5832561      0.075059444  
     65650   0.68525205    -3.0755447      0             -2.5839509      0.049348112  
     65700   0.6850806     -3.078577       0             -2.5871061      0.019574839  
     65750   0.669274      -3.0812843      0             -2.601153       0.094496024  
     65800   0.70617054    -3.0833252      0             -2.5767246      0.072563998  
     65850   0.69700813    -3.0851423      0             -2.5851147      0.092328081  
     65900   0.69129513    -3.0857824      0             -2.5898532      0.018879764  
     65950   0.67847006    -3.08638        0             -2.5996515     -0.0040639512 
     66000   0.67635557    -3.0862277      0             -2.6010161     -0.09127166   
     66050   0.68357992    -3.0855367      0             -2.5951424     -0.12531185   
     66100   0.69948805    -3.0863104      0             -2.5845038      0.11261411   
     66150   0.70030122    -3.0859023      0             -2.5835123      0.03832782   
     66200   0.69160511    -3.0850168      0             -2.5888653      0.10585411   
     66250   0.69385307    -3.0832638      0             -2.5854996     -0.0034391077 
     66300   0.68496011    -3.0802717      0             -2.5888872      0.024675994  
     66350   0.67292153    -3.0765208      0             -2.5937727      0.1189705    
     66400   0.66586122    -3.0727916      0             -2.5951086     -0.14306985   
     66450   0.67812821    -3.0688522      0             -2.5823689     -0.0072169346 
     66500   0.68000635    -3.0672199      0             -2.5793893     -0.022147104  
     66550   0.67995311    -3.0686453      0             -2.5808528      0.017593996  
     66600   0.70192642    -3.0726585      0             -2.5691026     -0.00079720026
     66650   0.71242095    -3.0779695      0             -2.5668849      0.09361589   
     66700   0.71218221    -3.0818992      0             -2.5709858     -0.094765334  
     66750   0.68648079    -3.0843079      0             -2.5918326     -0.002158722  
     66800   0.69830567    -3.0858296      0             -2.5848712      0.041737697  
     66850   0.67526821    -3.0866528      0             -2.6022213      0.1425415    
     66900   0.69809872    -3.0432835      0             -2.5424736     -0.03330009   
     66950   0.70533694    -3.0430098      0             -2.5370072     -0.040607257  
     67000   0.71139632    -3.0432736      0             -2.5329241     -0.013874863  
     67050   0.71512462    -3.043334       0             -2.5303098      0.043982994  
     67100   0.72354649    -3.0863029      0             -2.5672369     -0.011378899  
     67150   0.71433655    -3.0860866      0             -2.5736278     -0.0059257634 
     67200   0.715974      -3.0856743      0             -2.5720408      0.041978412  
     67250   0.74186932    -3.084558       0             -2.5523474     -0.13565422   
     67300   0.74749069    -3.0820826      0             -2.5458393      0.056923478  
     67350   0.72083463    -3.0779759      0             -2.5608554     -0.033106225  
     67400   0.72113962    -3.0712975      0             -2.5539582      0.12365895   
     67450   0.72531724    -3.0646507      0             -2.5443144      0.14879068   
     67500   0.72749805    -3.0607519      0             -2.5388511      0.055100427  
     67550   0.72644504    -3.0616656      0             -2.5405202      0.051802513  
     67600   0.74946977    -3.0692785      0             -2.5316154     -0.069316555  
     67650   0.75878757    -3.0773409      0             -2.5329933      0.080747028  
     67700   0.75445289    -3.0824361      0             -2.5411981      0.0043772131 
     67750   0.74861317    -3.0857221      0             -2.5486735     -0.012546954  
     67800   0.73423039    -3.0427396      0             -2.5160091     -0.15806227   
     67850   0.74699424    -3.0432884      0             -2.5074012      0.035073831  
     67900   0.74410627    -3.042565       0             -2.5087496     -0.059441225  
     67950   0.75575928    -3.0428381      0             -2.500663      -0.10435654   
     68000   0.75400167    -3.0431366      0             -2.5022223     -0.014259171  
     68050   0.76389261    -3.0433609      0             -2.495351       0.09913482   
     68100   0.75096027    -3.042824       0             -2.5040916     -0.10423963   
     68150   0.73417989    -3.0859821      0             -2.5592878      0.12698755   
     68200   0.739819      -3.0831991      0             -2.5524594      0.066910413  
     68250   0.73561007    -3.0772354      0             -2.5495152     -0.11277776   
     68300   0.72545184    -3.0688157      0             -2.5483829      0.022305187  
     68350   0.71361988    -3.0629811      0             -2.5510364      0.13542446   
     68400   0.70656506    -3.0620892      0             -2.5552056     -0.035406461  
     68450   0.74630135    -3.0680763      0             -2.5326862      0.13382902   
     68500   0.73188914    -3.0755589      0             -2.550508      -0.018378056  
     68550   0.75119364    -3.0814865      0             -2.5425867     -0.074586537  
     68600   0.7861075     -3.0850092      0             -2.5210625      0.087580309  
     68650   0.77078503    -3.0859192      0             -2.5329647     -0.0019466178 
     68700   0.73611926    -3.0431456      0             -2.5150601      0.024926771  
     68750   0.7175771     -3.0431201      0             -2.5283365      0.017737592  
     68800   0.71670018    -3.0430713      0             -2.5289168     -0.10638233   
     68850   0.70227915    -3.0431998      0             -2.5393909      0.00078294818
     68900   0.7072605     -3.0432577      0             -2.5358751      0.064613234  
     68950   0.70143255    -3.0864485      0             -2.5832469      0.029863043  
     69000   0.70144211    -3.085723       0             -2.5825146      0.096354253  
     69050   0.72079098    -3.0851811      0             -2.568092      -0.046134245  
     69100   0.71512869    -3.0831981      0             -2.570171      -0.10020586   
     69150   0.71072261    -3.0806699      0             -2.5708037     -0.069329555  
     69200   0.69222014    -3.0776042      0             -2.5810115      0.099277127  
     69250   0.68682762    -3.0759126      0             -2.5831884      0.042914553  
     69300   0.6994415     -3.076671       0             -2.5748978      0.030789733  
     69350   0.71072996    -3.0795521      0             -2.5696806      0.035564846  
     69400   0.70254978    -3.0830228      0             -2.5790197      0.0066625914 
     69450   0.68786531    -3.0852127      0             -2.5917441      0.081109207  
     69500   0.69105771    -3.0865487      0             -2.5907899      0.09481653   
     69550   0.69179361    -3.0430592      0             -2.5467725      0.069451558  
     69600   0.68484322    -3.0430282      0             -2.5517277     -0.11316783   
     69650   0.66488676    -3.0431467      0             -2.5661627      0.0015884405 
     69700   0.67948256    -3.0431824      0             -2.5557276      0.088601607  
     69750   0.67040522    -3.0428345      0             -2.5618916      0.0075516673 
     69800   0.67372934    -3.0430428      0             -2.5597152     -0.005754594  
     69850   0.66110659    -3.0426382      0             -2.5683661      0.00039778799
     69900   0.66338308    -3.0427778      0             -2.5668726     -0.01460579   
     69950   0.67106858    -3.0427778      0             -2.5613591      0.029697887  
     70000   0.65734587    -3.0431697      0             -2.5715954     -0.020786599  
     70050   0.66580866    -3.0427913      0             -2.5651459     -0.0018936057 
     70100   0.64857846    -3.0859974      0             -2.6207128     -0.041574063  
     70150   0.62695475    -3.0852505      0             -2.6354786     -0.14012018   
     70200   0.62126511    -3.083233       0             -2.6375428      0.14837717   
     70250   0.60635066    -3.0791024      0             -2.6441117     -0.15721924   
     70300   0.61775899    -3.0748976      0             -2.6317226     -0.025533887  
     70350   0.61337772    -3.0713294      0             -2.6312975      0.04452748   
     70400   0.6342229     -3.0709112      0             -2.6159252     -0.013538446  
     70450   0.63534509    -3.0736227      0             -2.6178316     -0.05870424   
     70500   0.62796412    -3.0775899      0             -2.6270939     -0.065088365  
     70550   0.63545841    -3.0813586      0             -2.6254862     -0.05296167   
     70600   0.62691229    -3.0840328      0             -2.6342914     -0.026683772  
     70650   0.62855527    -3.0858722      0             -2.6349521     -0.027830188  
     70700   0.65532644    -3.0866093      0             -2.6164838     -0.11304935   
     70750   0.65832484    -3.0432389      0             -2.5709624     -0.0059612874 
     70800   0.66442324    -3.0430445      0             -2.566393       0.052483753  
     70850   0.66121322    -3.0430889      0             -2.5687403      0.10363555   
     70900   0.67009181    -3.0431106      0             -2.5623926      0.026183126  
     70950   0.66960107    -3.0431552      0             -2.5627892     -0.019307133  
     71000   0.67192624    -3.0433325      0             -2.5612985      0.17399809   
     71050   0.65346052    -3.043199       0             -2.5744121     -0.06559915   
     71100   0.64818039    -3.0432774      0             -2.5782784      0.01811816   
     71150   0.64208096    -3.0429053      0             -2.582282       0.1083049    
     71200   0.64412618    -3.0861297      0             -2.6240392     -0.013130842  
     71250   0.63045199    -3.0836105      0             -2.6313297      0.030224606  
     71300   0.62291982    -3.0795393      0             -2.632662      -0.098942616  
     71350   0.60596397    -3.0738485      0             -2.6391352     -0.037738829  
     71400   0.60667451    -3.0675974      0             -2.6323744     -0.00091532339
     71450   0.60652805    -3.065199       0             -2.630081      -0.018797681  
     71500   0.61221707    -3.0650451      0             -2.6258459     -0.090916976  
     71550   0.64099412    -3.0711534      0             -2.6113098      0.14246215   
     71600   0.64722642    -3.0775795      0             -2.6132649      0.05281925   
     71650   0.63833415    -3.082988       0             -2.6250526     -0.13722427   
     71700   0.64493065    -3.0858598      0             -2.6231922      0.087373476  
     71750   0.64706683    -3.0431962      0             -2.5789961      0.064881949  
     71800   0.64654349    -3.0431737      0             -2.579349      -0.067104691  
     71850   0.62930135    -3.0433846      0             -2.5919293      0.0083198032 
     71900   0.62648644    -3.0433902      0             -2.5939543      0.083175072  
     71950   0.59825948    -3.043193       0             -2.6140068     -0.019789852  
     72000   0.59379854    -3.0433724      0             -2.6173865     -0.06768382   
     72050   0.57676968    -3.0428601      0             -2.6290906     -0.017608566  
     72100   0.56762888    -3.0431298      0             -2.6359178     -0.062975722  
     72150   0.5517152     -3.0431521      0             -2.6473564     -0.061479397  
     72200   0.54588549    -3.0426703      0             -2.6510568     -0.098214428  
     72250   0.54678224    -3.0422001      0             -2.6499432     -0.10219837   
     72300   0.527778      -3.0432823      0             -2.6646589      0.13697936   
     72350   0.52509028    -3.0430779      0             -2.6663827      0.067274999  
     72400   0.54407794    -3.0431436      0             -2.6528268     -0.073044745  
     72450   0.54701255    -3.0431604      0             -2.6507384     -0.066891004  
     72500   0.55331335    -3.0423299      0             -2.6453877     -0.047839093  
     72550   0.54999104    -3.0865192      0             -2.6919604     -0.071334706  
     72600   0.56264582    -3.0854649      0             -2.6818277     -0.041100187  
     72650   0.56926229    -3.0834245      0             -2.6750407     -0.09515879   
     72700   0.57196345    -3.0804754      0             -2.6701538     -0.10898781   
     72750   0.56785626    -3.0777801      0             -2.670405       0.063652019  
     72800   0.57876091    -3.0774605      0             -2.6622625     -0.083292846  
     72850   0.56488865    -3.0790425      0             -2.6737962      0.016307166  
     72900   0.55952036    -3.0812544      0             -2.6798594      0.097930277  
     72950   0.57212628    -3.0838899      0             -2.6734514      0.033421379  
     73000   0.58473298    -3.085819       0             -2.6663367      0.044827904  
     73050   0.60572706    -3.0865523      0             -2.652009       0.01854973   
     73100   0.61233422    -3.0431377      0             -2.6038545     -0.017231941  
     73150   0.59802143    -3.0428956      0             -2.6138803     -0.040309578  
     73200   0.61105332    -3.0426253      0             -2.6042609     -0.027501146  
     73250   0.59874431    -3.0433175      0             -2.6137835     -0.069056625  
     73300   0.57961194    -3.0426644      0             -2.6268559     -0.042377952  
     73350   0.57845598    -3.0417084      0             -2.6267292      0.018214547  
     73400   0.57952552    -3.0412705      0             -2.625524       0.018739001  
     73450   0.57508014    -3.0429911      0             -2.6304336      0.042122573  
     73500   0.57086603    -3.0429116      0             -2.6333773      0.14993019   
     73550   0.57930945    -3.0427132      0             -2.6271217     -0.0082007181 
     73600   0.55794572    -3.0431818      0             -2.6429164     -0.08491073   
     73650   0.55867275    -3.0432525      0             -2.6424656      0.0096951866 
     73700   0.5654355     -3.0432237      0             -2.6375852     -0.052720224  
     73750   0.57272363    -3.043148       0             -2.632281      -0.049294736  
     73800   0.56050445    -3.0430079      0             -2.6409069     -0.022921635  
     73850   0.56617712    -3.0859486      0             -2.6797781     -0.060696921  
     73900   0.56548409    -3.0858785      0             -2.6802051      0.031608484  
     73950   0.55838429    -3.0830793      0             -2.6824992      0.11180037   
     74000   0.55177715    -3.0793547      0             -2.6835146     -0.036802172  
     74050   0.56896473    -3.074653       0             -2.6664827      0.076195263  
     74100   0.7092809     -3.2765444      0             -2.7677125      0.083043493  
     74150   0.73091155    -3.3994153      0             -2.8750657     -0.12175158   
     74200   0.62855972    -3.4003722      0             -2.9494489     -0.028355529  
     74250   0.6461774     -3.4675084      0             -3.0039464      0.098120161  
     74300   0.63312077    -3.4753496      0             -3.0211543      0.029425822  
     74350   0.60076355    -3.4710162      0             -3.0400337     -0.0019695485 
     74400   0.61668472    -3.4859056      0             -3.0435013     -0.054034977  
     74450   0.59157835    -3.4887747      0             -3.0643815      0.036483771  
     74500   0.56273336    -3.4928882      0             -3.0891882      0.036184925  
     74550   0.54040232    -3.4866258      0             -3.0989459      0.12944903   
     74600   0.53115556    -3.4867545      0             -3.1057081     -0.068464838  
     74650   0.50945492    -3.4797337      0             -3.1142551      0.10595713   
     74700   0.50335211    -3.4794703      0             -3.1183699     -0.013045909  
     74750   0.47705605    -3.4768666      0             -3.1346307      0.1280226    
     74800   0.48021025    -3.4789465      0             -3.1344478     -0.056267705  
     74850   0.47704976    -3.4827203      0             -3.1404889      0.23347906   
     74900   0.48297554    -3.4861662      0             -3.1396837     -0.020508347  
     74950   0.4894592     -3.4893811      0             -3.1382474     -0.06212412   
     75000   0.50082684    -3.4928345      0             -3.1335457      0.14472138   
     75050   0.50182782    -3.4963146      0             -3.1363076     -0.0023821457 
     75100   0.50734124    -3.4995946      0             -3.1356324      0.063404022  
     75150   0.50996121    -3.5016165      0             -3.1357747     -0.038543068  
     75200   0.52370987    -3.5025802      0             -3.1268753     -0.045669603  
     75250   0.53174962    -3.5038736      0             -3.122401       0.055135305  
     75300   0.52432356    -3.5042547      0             -3.1281096      0.0072219608 
     75350   0.534012      -3.5037587      0             -3.1206632      0.078925564  
     75400   0.54938201    -3.5031986      0             -3.1090767      0.079217487  
     75450   0.53532618    -3.5021016      0             -3.1180632      0.033030392  
     75500   0.53309292    -3.4997652      0             -3.1173289      0.0032708189 
     75550   0.53247011    -3.4980873      0             -3.1160978      0.044191046  
     75600   0.51423979    -3.4957597      0             -3.1268486     -0.013089931  
     75650   0.52262701    -3.4928103      0             -3.1178822     -0.094150334  
     75700   0.52616244    -3.4900862      0             -3.1126218      0.034008471  
     75750   0.51576456    -3.4878757      0             -3.1178707     -0.00040244723
     75800   0.5087903     -3.4862327      0             -3.1212309     -0.011719178  
     75850   0.50300104    -3.4859635      0             -3.1251149     -0.031273963  
     75900   0.48473549    -3.4865813      0             -3.1388363     -0.031509414  
     75950   0.48476239    -3.4882097      0             -3.1404454      0.011705939  
     76000   0.49961296    -3.4907587      0             -3.1323407      0.011210824  
     76050   0.50477269    -3.4937763      0             -3.1316568     -0.022658661  
     76100   0.49894743    -3.4969197      0             -3.1389792      0.038322931  
     76150   0.50461116    -3.4998205      0             -3.1378169      0.017550047  
     76200   0.51116336    -3.5024748      0             -3.1357706     -0.066400079  
     76250   0.51429197    -3.5038598      0             -3.1349112      0.016054126  
     76300   0.52024405    -3.5040172      0             -3.1307987      0.16348539   
     76350   0.52040615    -3.5031656      0             -3.1298307     -0.15311328   
     76400   0.50464175    -3.5007904      0             -3.1387648      0.010885794  
     76450   0.49368367    -3.4972531      0             -3.1430887      0.057157131  
     76500   0.48126026    -3.4923912      0             -3.1471393      0.07924785   
     76550   0.46395685    -3.4876281      0             -3.1547895     -0.10274968   
     76600   0.46184508    -3.4842959      0             -3.1529722      0.065165929  
     76650   0.47331391    -3.4831045      0             -3.1435532     -0.076695544  
     76700   0.47998073    -3.4853072      0             -3.1409732      0.03290729   
     76750   0.48274999    -3.4885956      0             -3.1422749     -0.055876447  
     76800   0.47326399    -3.492791       0             -3.1532755     -0.028402145  
     76850   0.45138556    -3.4958797      0             -3.1720597     -0.06339964   
     76900   0.4532599     -3.4971526      0             -3.1719879     -0.052654193  
     76950   0.45033681    -3.4968211      0             -3.1737534     -0.067549269  
     77000   0.44672011    -3.4951164      0             -3.1746432      0.063437436  
     77050   0.42743511    -3.4932036      0             -3.1865654      0.046966961  
     77100   0.43012786    -3.4912883      0             -3.1827184     -0.06777008   
     77150   0.42400873    -3.4897568      0             -3.1855766      0.072245288  
     77200   0.43758712    -3.4902754      0             -3.1763542      0.044806129  
     77250   0.43226424    -3.4921735      0             -3.1820709     -0.040378656  
     77300   0.40967435    -3.4948956      0             -3.2009988     -0.040336864  
     77350   0.41156663    -3.4969122      0             -3.2016579      0.053356148  
     77400   0.41342265    -3.4984214      0             -3.2018356     -0.093709308  
     77450   0.39829397    -3.4991261      0             -3.2133935      0.0065366143 
     77500   0.40409149    -3.4986417      0             -3.20875        0.090609092  
     77550   0.40336588    -3.4972126      0             -3.2078414     -0.026809777  
     77600   0.41995949    -3.4946176      0             -3.1933423     -0.02318956   
     77650   0.42251811    -3.4916981      0             -3.1885873     -0.11452361   
     77700   0.42945229    -3.4889283      0             -3.1808429      0.042550075  
     77750   0.42394583    -3.4863276      0             -3.1821925     -0.058089781  
     77800   0.43070354    -3.4855554      0             -3.1765724     -0.043116763  
     77850   0.42237051    -3.4884024      0             -3.1853974      0.00064572494
     77900   0.42388392    -3.4912732      0             -3.1871826     -0.045550475  
     77950   0.42132865    -3.4950905      0             -3.192833      -0.071872678  
     78000   0.42841292    -3.4978558      0             -3.1905161     -0.012155482  
     78050   0.44276502    -3.4998525      0             -3.1822167     -0.024526407  
     78100   0.43316187    -3.5007849      0             -3.1900383      0.018069891  
     78150   0.4402359     -3.5014108      0             -3.1855894     -0.00018949081
     78200   0.41489716    -3.5009346      0             -3.203291       0.034615687  
     78250   0.41763991    -3.5000684      0             -3.2004572      0.038669136  
     78300   0.42534263    -3.4980291      0             -3.192892       0.067727854  
     78350   0.41906181    -3.495248       0             -3.1946167     -0.0086215359 
     78400   0.4184178     -3.4925602      0             -3.1923909     -0.059035175  
     78450   0.4325461     -3.4907995      0             -3.1804946      0.094535876  
     78500   0.42862496    -3.4891549      0             -3.1816631     -0.015611664  
     78550   0.42970677    -3.488628       0             -3.1803601      0.10877185   
     78600   0.43738233    -3.488947       0             -3.1751727     -0.017327206  
     78650   0.43061178    -3.4898135      0             -3.1808963      0.02757841   
     78700   0.43037787    -3.4911084      0             -3.1823591     -0.0016909993 
     78750   0.42337323    -3.491613       0             -3.1878887     -0.10941219   
     78800   0.42802447    -3.4916391      0             -3.1845781      0.0084141171 
     78850   0.41676886    -3.4908106      0             -3.1918243     -0.041185455  
     78900   0.40797582    -3.4894003      0             -3.196722      -0.054831307  
     78950   0.42279026    -3.4875883      0             -3.1842823      0.018870982  
     79000   0.41478869    -3.4866848      0             -3.189119       0.053907271  
     79050   0.4112497     -3.4869349      0             -3.191908      -0.030852292  
     79100   0.42429172    -3.4890411      0             -3.1846579      0.056728055  
     79150   0.44641461    -3.4926585      0             -3.1724045     -0.030381686  
     79200   0.4429854     -3.4966065      0             -3.1788127      0.084199576  
     79250   0.45584368    -3.4999792      0             -3.1729609     -0.092458277  
     79300   0.46474393    -3.5019148      0             -3.1685115      0.09288157   
     79350   0.4750569     -3.501894       0             -3.1610923     -0.085845825  
     79400   0.46088236    -3.5012883      0             -3.1706553      0.077384314  
     79450   0.44420511    -3.4990362      0             -3.1803673      0.10279072   
     79500   0.44575381    -3.4949449      0             -3.175165      -0.14183387   
     79550   0.43053977    -3.4897872      0             -3.1809217     -0.015060312  
     79600   0.41989902    -3.4855559      0             -3.184324       0.024255989  
     79650   0.42160615    -3.4830024      0             -3.1805458     -0.076661842  
     79700   0.41825281    -3.4844221      0             -3.1843712     -0.02205794   
     79750   0.41131449    -3.4880537      0             -3.1929803     -0.0036414239 
     79800   0.40471676    -3.4924811      0             -3.2021408      0.073407363  
     79850   0.40025677    -3.4967153      0             -3.2095745      7.2338222e-05
     79900   0.40649807    -3.4997893      0             -3.2081711      0.051884863  
     79950   0.42477629    -3.5004054      0             -3.1956746     -0.11313682   
     80000   0.41948725    -3.4991239      0             -3.1981874     -0.11614001   
     80050   0.41802754    -3.4952596      0             -3.1953703      0.024789562  
     80100   0.41715234    -3.4904498      0             -3.1911883     -0.0095876383 
     80150   0.41014894    -3.4851762      0             -3.1909389     -0.058436971  
     80200   0.40895371    -3.4815561      0             -3.1881763      0.02752458   
     80250   0.39850213    -3.4801618      0             -3.1942798      0.015664504  
     80300   0.3938565     -3.482429       0             -3.1998797     -0.013241214  
     80350   0.40928374    -3.4876891      0             -3.1940725     -0.046280495  
     80400   0.41735191    -3.4932739      0             -3.1938693      0.15517759   
     80450   0.41862843    -3.498238       0             -3.1979176     -0.057147121  
     80500   0.42349827    -3.5019233      0             -3.1981093     -0.023574237  
     80550   0.41794039    -3.5042024      0             -3.2043756      0.00083512385
     80600   0.4237146     -3.5048834      0             -3.2009143     -0.041778221  
     80650   0.41912139    -3.5041644      0             -3.2034904      0.075813345  
     80700   0.40480127    -3.5014674      0             -3.2110665     -0.0071114769 
     80750   0.39324212    -3.4976918      0             -3.2155833      0.026143079  
     80800   0.39567214    -3.4925996      0             -3.2087478      0.055571276  
     80850   0.3738917     -3.4865723      0             -3.2183457      0.075026896  
     80900   0.36633928    -3.4810351      0             -3.2182265      0.062911636  
     80950   0.36208261    -3.4788195      0             -3.2190646     -0.021122948  
     81000   0.36757864    -3.4793437      0             -3.215646      -0.034563494  
     81050   0.37721248    -3.4828336      0             -3.2122247     -0.026464722  
     81100   0.38173412    -3.4877289      0             -3.2138761      0.0018962429 
     81150   0.37785132    -3.493013       0             -3.2219457      0.041240245  
     81200   0.38475407    -3.4964206      0             -3.2204014     -0.014620202  
     81250   0.38425723    -3.4993767      0             -3.2237139     -0.026142822  
     81300   0.38694032    -3.4993442      0             -3.2217566      0.1368507    
     81350   0.3760504     -3.4987793      0             -3.229004      -0.023984121  
     81400   0.37104978    -3.4994225      0             -3.2332346      0.074309367  
     81450   0.36062441    -3.4987168      0             -3.240008       0.051085321  
     81500   0.36321244    -3.4974668      0             -3.2369013     -0.11358632   
     81550   0.35486086    -3.4981144      0             -3.2435403     -0.043917374  
     81600   0.34838347    -3.4976581      0             -3.2477309     -0.035618455  
     81650   0.34325368    -3.4972854      0             -3.2510382      0.043891155  
     81700   0.33188639    -3.4972744      0             -3.259182       0.016119295  
     81750   0.33966792    -3.4963188      0             -3.252644      -0.0891138    
     81800   0.34825829    -3.4952401      0             -3.2454026      0.13883702   
     81850   0.32739726    -3.493728       0             -3.2588561     -0.049533475  
     81900   0.3296102     -3.4913446      0             -3.2548852      0.081216072  
     81950   0.32487558    -3.488757       0             -3.2556941      0.058276768  
     82000   0.32550414    -3.4867631      0             -3.2532492      0.074848204  
     82050   0.33152813    -3.485371       0             -3.2475356      0.063431679  
     82100   0.34178267    -3.4850801      0             -3.2398882      0.023184573  
     82150   0.34774098    -3.4869015      0             -3.2374352      0.045271631  
     82200   0.35280622    -3.4907489      0             -3.2376488     -0.071962225  
     82250   0.36122865    -3.4949757      0             -3.2358335     -0.030973233  
     82300   0.35725568    -3.4993044      0             -3.2430123     -0.012881181  
     82350   0.3688775     -3.5020079      0             -3.2373784     -0.054138846  
     82400   0.36789374    -3.5030298      0             -3.2391061     -0.0092962086 
     82450   0.36061002    -3.5016936      0             -3.2429951     -0.051779105  
     82500   0.34333545    -3.4993038      0             -3.2529979      0.029802664  
     82550   0.3322675     -3.4953235      0             -3.2569577      0.041265006  
     82600   0.31192198    -3.4903986      0             -3.2666285      0.059084804  
     82650   0.2827942     -3.4851743      0             -3.2823002     -0.050851278  
     82700   0.27047394    -3.4816275      0             -3.2875918      0.016108618  
     82750   0.26768023    -3.4802913      0             -3.2882598     -0.052177147  
     82800   0.26526142    -3.481702       0             -3.2914058      0.038374895  
     82850   0.27730015    -3.4862119      0             -3.2872792      0.049700878  
     82900   0.28880863    -3.4921689      0             -3.2849801     -0.036889848  
     82950   0.3053908     -3.4967072      0             -3.2776225      0.081414668  
     83000   0.30924832    -3.5009185      0             -3.2790664     -0.13420842   
     83050   0.30607006    -3.503379       0             -3.283807       0.0043184584 
     83100   0.30827057    -3.5038932      0             -3.2827425      0.070574309  
     83150   0.29781114    -3.5026804      0             -3.2890333      0.0055875256 
     83200   0.28511673    -3.4988789      0             -3.2943386      0.060683734  
     83250   0.28863011    -3.4935239      0             -3.2864631      0.021376262  
     83300   0.28771094    -3.4869529      0             -3.2805516     -0.0042400615 
     83350   0.27117829    -3.4815064      0             -3.2869655      0.018614607  
     83400   0.28600111    -3.4802989      0             -3.2751241      0.099248416  
     83450   0.28169793    -3.4824615      0             -3.2803739      0.023052525  
     83500   0.30582724    -3.488097       0             -3.2686992      0.079990932  
     83550   0.32663881    -3.4940532      0             -3.2597253      0.074695727  
     83600   0.34026976    -3.4990935      0             -3.2549869      0.0044757641 
     83650   0.34313265    -3.5029676      0             -3.2568073      0.0031798746 
     83700   0.33473368    -3.5046611      0             -3.264526      -0.088691527  
     83750   0.33298157    -3.5042778      0             -3.2653998      0.07402457   
     83800   0.33561337    -3.5026043      0             -3.2618382      0.03928086   
     83850   0.32574277    -3.4997043      0             -3.2660193     -0.022851505  
     83900   0.31050198    -3.495872       0             -3.2731205     -0.029517619  
     83950   0.30608796    -3.4924699      0             -3.272885      -0.011741935  
     84000   0.30107948    -3.4898617      0             -3.2738699     -0.015218662  
     84050   0.29524728    -3.488979       0             -3.2771712     -0.009686165  
     84100   0.31218715    -3.4898474      0             -3.2658871     -0.025244439  
     84150   0.32202425    -3.4921981      0             -3.2611807     -0.050278764  
     84200   0.34421841    -3.4947034      0             -3.2477641     -0.069736311  
     84250   0.3596981     -3.4975924      0             -3.2395481      0.12885384   
     84300   0.35780059    -3.498793       0             -3.24211        0.050117173  
     84350   0.35151607    -3.4986056      0             -3.246431      -0.0073915249 
     84400   0.35103616    -3.4983002      0             -3.2464699      0.029557486  
     84450   0.34590733    -3.4959246      0             -3.2477737      0.07821107   
     84500   0.34625691    -3.4943263      0             -3.2459246     -0.0027260325 
     84550   0.34498405    -3.4915682      0             -3.2440796      0.04959142   
     84600   0.35269021    -3.488795       0             -3.2357781     -0.049255158  
     84650   0.35953801    -3.4899022      0             -3.2319728      0.071789969  
     84700   0.38831583    -3.4919629      0             -3.2133885     -0.088287942  
     84750   0.40466572    -3.4950298      0             -3.2047262     -0.037740896  
     84800   0.41039317    -3.4982969      0             -3.2038844      0.10260683   
     84850   0.40323809    -3.4996982      0             -3.2104187      0.077125287  
     84900   0.40132215    -3.500143       0             -3.212238      -0.13373848   
     84950   0.38731342    -3.4994146      0             -3.2215593     -0.0051300259 
     85000   0.39467961    -3.4980213      0             -3.2148816      0.01965357   
     85050   0.40301351    -3.4957686      0             -3.2066502     -0.0053088347 
     85100   0.38329644    -3.4930507      0             -3.2180771      0.0062194807 
     85150   0.38886854    -3.4904255      0             -3.2114546      0.01087722   
     85200   0.39171812    -3.4883272      0             -3.207312      -0.03206144   
     85250   0.38456846    -3.4874255      0             -3.2115394      0.076105505  
     85300   0.38341085    -3.489008       0             -3.2139524     -0.073354485  
     85350   0.37460719    -3.491464       0             -3.2227241     -0.12127009   
     85400   0.39385315    -3.4952028      0             -3.212656      -0.01386842   
     85450   0.40657948    -3.4982667      0             -3.2065901     -0.12860772   
     85500   0.39807202    -3.5014684      0             -3.215895      -0.013844483  
     85550   0.40306485    -3.50297        0             -3.2138148     -0.082500217  
     85600   0.40746437    -3.5044795      0             -3.2121681      0.017994635  
     85650   0.41830505    -3.5040596      0             -3.2039712      0.005519005  
     85700   0.42424937    -3.5014087      0             -3.1970559      0.040546876  
     85750   0.41565946    -3.4967951      0             -3.1986046     -0.020869002  
     85800   0.41133041    -3.4897859      0             -3.1947011     -0.014716923  
     85850   0.39846177    -3.4826039      0             -3.1967509      0.028339673  
     85900   0.3844708     -3.4770269      0             -3.2012109      0.082324249  
     85950   0.36983845    -3.4759739      0             -3.210655       0.0031198046 
     86000   0.36220526    -3.4790734      0             -3.2192305     -0.043594336  
     86050   0.37351718    -3.4854569      0             -3.2174989     -0.022029352  
     86100   0.39743412    -3.4927285      0             -3.2076127     -0.011820888  
     86150   0.41180368    -3.4975205      0             -3.2020961      0.0036416217 
     86200   0.43633246    -3.5007348      0             -3.1877137      0.017468984  
     86250   0.43348012    -3.5013368      0             -3.190362      -0.02182321   
     86300   0.44090599    -3.4999733      0             -3.1836712      0.032568155  
     86350   0.45422255    -3.4964433      0             -3.170588      -0.0043207404 
     86400   0.44920542    -3.4914614      0             -3.1692054     -0.042841693  
     86450   0.45343855    -3.4863043      0             -3.1610114      0.033383368  
     86500   0.43306094    -3.4826057      0             -3.1719315     -0.055621851  
     86550   0.43222165    -3.4816446      0             -3.1715726      0.010484507  
     86600   0.44235579    -3.4839444      0             -3.1666022     -0.00049834206
     86650   0.46025914    -3.4891189      0             -3.158933      -0.065703898  
     86700   0.47671139    -3.4943646      0             -3.152376      -0.033507342  
     86750   0.46885248    -3.4981436      0             -3.1617929      0.046021715  
     86800   0.45482977    -3.5005709      0             -3.17428        0.082016256  
     86850   0.47977325    -3.5015174      0             -3.1573322     -0.034693932  
     86900   0.47054116    -3.5020023      0             -3.1644401     -0.0015995662 
     86950   0.4592021     -3.50074        0             -3.1713124     -0.016575179  
     87000   0.45186617    -3.4989278      0             -3.1747629      0.057488053  
     87050   0.42260043    -3.495779       0             -3.1926091     -0.006069096  
     87100   0.41589738    -3.491819       0             -3.1934578     -0.050955493  
     87150   0.43155048    -3.487527       0             -3.1779364     -0.052537185  
     87200   0.41355658    -3.4835448      0             -3.1868629     -0.041458937  
     87250   0.40689931    -3.4816439      0             -3.1897379      0.022278721  
     87300   0.42287291    -3.4819049      0             -3.1785395      0.022261068  
     87350   0.44117495    -3.4858496      0             -3.1693546     -0.013054417  
     87400   0.46129361    -3.4912364      0             -3.1603084      0.06563612   
     87450   0.46723211    -3.4966961      0             -3.1615079     -0.058770191  
     87500   0.47894643    -3.5005797      0             -3.1569877     -0.026993735  
     87550   0.47631785    -3.5033643      0             -3.161658      -0.0048465706 
     87600   0.47510181    -3.5045664      0             -3.1637325     -0.043251525  
     87650   0.47347405    -3.5045047      0             -3.1648385     -0.0090586024 
     87700   0.47661107    -3.5033217      0             -3.1614051     -0.044149274  
     87750   0.46688586    -3.5002002      0             -3.1652604      0.061691866  
     87800   0.44941826    -3.4968504      0             -3.1744416      0.0018715017 
     87850   0.43932846    -3.4913861      0             -3.1762157     -0.049893942  
     87900   0.44011377    -3.4859782      0             -3.1702444     -0.012604312  
     87950   0.425723      -3.481111       0             -3.1757011      0.11524874   
     88000   0.42182581    -3.4802127      0             -3.1775985      0.055803141  
     88050   0.41414905    -3.4821428      0             -3.1850358      0.00048087103
     88100   0.42177291    -3.486564       0             -3.1839878      0.0065169577 
     88150   0.42332178    -3.4911162      0             -3.1874289     -0.060801814  
     88200   0.40522557    -3.4944074      0             -3.2037021      0.10791063   
     88250   0.39832155    -3.4950712      0             -3.2093188     -0.0079660093 
     88300   0.40180922    -3.4942451      0             -3.2059907     -0.053295493  
     88350   0.3811401     -3.4926406      0             -3.2192141      0.0056591663 
     88400   0.37036229    -3.4888668      0             -3.2231721      0.086835723  
     88450   0.37645409    -3.4845239      0             -3.214459      -0.018656776  
     88500   0.37412503    -3.4809442      0             -3.2125501     -0.020933865  
     88550   0.37100157    -3.4808492      0             -3.2146959      0.027733089  
     88600   0.37059941    -3.4834069      0             -3.2175421      0.0098262527 
     88650   0.37390379    -3.4890499      0             -3.2208146     -0.01519309   
     88700   0.38456802    -3.4942375      0             -3.2183517      0.063611746  
     88750   0.41158736    -3.4989075      0             -3.2036383      0.0057528114 
     88800   0.41003754    -3.5023362      0             -3.2081789      0.010308071  
     88850   0.40313749    -3.5035146      0             -3.2143073     -0.018179976  
     88900   0.38538853    -3.5026906      0             -3.2262162     -0.01028728   
     88950   0.39040805    -3.4993056      0             -3.2192303     -0.057859599  
     89000   0.39452732    -3.4944472      0             -3.2114167      0.055746744  
     89050   0.38440188    -3.48737        0             -3.2116034     -0.045424081  
     89100   0.37709684    -3.4806865      0             -3.2101605      0.035489628  
     89150   0.35984581    -3.4756541      0             -3.2175039      0.039032657  
     89200   0.36014504    -3.4744984      0             -3.2161335     -0.023269404  
     89250   0.36961972    -3.4759166      0             -3.2107546      0.076485922  
     89300   0.38026016    -3.4798605      0             -3.2070651      0.070561268  
     89350   0.39496054    -3.4854036      0             -3.2020624     -0.034863476  
     89400   0.40931158    -3.4909759      0             -3.1973394     -0.056795456  
     89450   0.41305001    -3.4958953      0             -3.1995768     -0.093766398  
     89500   0.41895631    -3.4991074      0             -3.1985518      0.038842744  
     89550   0.4264285     -3.5008462      0             -3.1949301     -0.072264237  
     89600   0.42746215    -3.5009725      0             -3.1943149     -0.016526735  
     89650   0.43176801    -3.4980566      0             -3.18831       -0.073898983  
     89700   0.41347914    -3.49337        0             -3.1967436      0.008015583  
     89750   0.39661078    -3.4844519      0             -3.1999268      0.011193929  
     89800   0.38597266    -3.4747122      0             -3.1978188     -0.025241848  
     89850   0.37986811    -3.4687396      0             -3.1962255     -0.032180639  
     89900   0.38522455    -3.4690995      0             -3.1927427     -0.10959816   
     89950   0.39485778    -3.4756543      0             -3.1923867      0.10011629   
     90000   0.41709813    -3.4849874      0             -3.1857649     -0.044017417  
     90050   0.45219894    -3.4930514      0             -3.1686478     -0.0032523359 
     90100   0.44936862    -3.4983544      0             -3.1759813      0.043378524  
     90150   0.43102139    -3.5008331      0             -3.1916221      0.025856374  
     90200   0.42353045    -3.501231       0             -3.1973939     -0.094697927  
     90250   0.41141636    -3.49946        0             -3.2043135      0.10696407   
     90300   0.40740173    -3.4955745      0             -3.203308      -0.00097265937
     90350   0.39801905    -3.4899196      0             -3.2043842      0.052529538  
     90400   0.39050292    -3.4832395      0             -3.2030961      0.054385128  
     90450   0.38120878    -3.4764251      0             -3.2029492     -0.036153106  
     90500   0.36394005    -3.4717897      0             -3.2107023      0.019800013  
     90550   0.35447696    -3.4696634      0             -3.2153647     -0.026908733  
     90600   0.35969459    -3.4711351      0             -3.2130933     -0.00084623995
     90650   0.36124661    -3.4763017      0             -3.2171465      0.025006461  
     90700   0.36624392    -3.4827308      0             -3.2199906      0.0072495223 
     90750   0.39127566    -3.4892377      0             -3.2085399      0.015051342  
     90800   0.42073706    -3.4955173      0             -3.1936842      0.025428097  
     90850   0.43075872    -3.5004786      0             -3.1914561      0.024467743  
     90900   0.43679269    -3.5035293      0             -3.1901781      0.023844482  
     90950   0.43251466    -3.5044259      0             -3.1941437     -0.067210409  
     91000   0.44847923    -3.502712       0             -3.1809769      0.023783667  
     91050   0.45287321    -3.4987322      0             -3.1738449     -0.044918089  
     91100   0.45629685    -3.4918338      0             -3.1644904     -0.0095056897 
     91150   0.45496543    -3.483646       0             -3.1572578      0.064052032  
     91200   0.44092275    -3.4757181      0             -3.1594039     -0.017412918  
     91250   0.44031085    -3.4717819      0             -3.1559067     -0.024244278  
     91300   0.4443062     -3.4735395      0             -3.1547981     -0.022624973  
     91350   0.42771875    -3.4815881      0             -3.1747464     -0.064196285  
     91400   0.45242477    -3.4907906      0             -3.166225       0.068209922  
     91450   0.48777625    -3.497543       0             -3.1476166      0.0025171119 
     91500   0.49715347    -3.5027094      0             -3.1460558      0.039625028  
     91550   0.49176965    -3.5045749      0             -3.1517836     -0.041020839  
     91600   0.4879643     -3.5048312      0             -3.1547698     -0.054004918  
     91650   0.47763537    -3.5034425      0             -3.1607911     -0.037892591  
     91700   0.48410588    -3.5008629      0             -3.1535696      0.071801831  
     91750   0.48475501    -3.496474       0             -3.1487149     -0.084978934  
     91800   0.476297      -3.4912144      0             -3.1495231      0.083105332  
     91850   0.46287613    -3.4857688      0             -3.1537055     -0.002010343  
     91900   0.47807318    -3.4823421      0             -3.1393765      0.0083345371 
     91950   0.47188966    -3.4808682      0             -3.1423386     -0.047703446  
     92000   0.46764694    -3.4827588      0             -3.147273      -0.038534898  
     92050   0.4744653     -3.4877761      0             -3.1473988     -0.012450966  
     92100   0.4964053     -3.4937779      0             -3.137661      -0.024852923  
     92150   0.50043048    -3.4992932      0             -3.1402887     -0.043742125  
     92200   0.50803565    -3.5021649      0             -3.1377046      0.064579982  
     92250   0.49700333    -3.5036328      0             -3.147087      -0.052089176  
     92300   0.48402374    -3.5022957      0             -3.1550612      0.11570031   
     92350   0.49402327    -3.4990328      0             -3.1446248     -0.035428442  
     92400   0.49317307    -3.4933312      0             -3.1395332      0.0036174401 
     92450   0.48890751    -3.4857418      0             -3.1350039      0.06581211   
     92500   0.47214713    -3.4785768      0             -3.1398625     -0.040131765  
     92550   0.45374206    -3.4755793      0             -3.1500687     -0.06624641   
     92600   0.44774249    -3.4778758      0             -3.1566692     -0.017261791  
     92650   0.45655497    -3.4840701      0             -3.1565415      0.037900064  
     92700   0.47897364    -3.490942       0             -3.1473305     -0.021865251  
     92750   0.49774479    -3.4975053      0             -3.1404275     -0.055417181  
     92800   0.50725413    -3.5012103      0             -3.1373106      0.052534705  
     92850   0.50023285    -3.5028038      0             -3.1439411      0.0018645437 
     92900   0.51231258    -3.5022392      0             -3.1347106      0.097906176  
     92950   0.52137696    -3.4995244      0             -3.1254931     -0.024302586  
     93000   0.51479694    -3.4943105      0             -3.1249997     -0.00341444   
     93050   0.50411936    -3.4872801      0             -3.1256293     -0.036695143  
     93100   0.49321043    -3.4809889      0             -3.127164      -0.021600659  
     93150   0.47712039    -3.4763585      0             -3.1340764     -0.013590933  
     93200   0.48949032    -3.4744953      0             -3.1233392     -0.0059615125 
     93250   0.50388517    -3.4760254      0             -3.1145425     -0.056962743  
     93300   0.51513674    -3.4809131      0             -3.1113584     -0.062998238  
     93350   0.52387608    -3.4882778      0             -3.1124537     -0.018956591  
     93400   0.53384528    -3.4953745      0             -3.1123985      0.08559168   
     93450   0.55009887    -3.5004595      0             -3.1058233      0.027021913  
     93500   0.55971901    -3.5037194      0             -3.1021819      0.01681316   
     93550   0.57202871    -3.5044348      0             -3.0940664      0.043843157  
     93600   0.56622355    -3.5035941      0             -3.0973903     -0.061444617  
     93650   0.56411377    -3.499634       0             -3.0949437     -0.028636359  
     93700   0.53593053    -3.494009       0             -3.1095371     -0.098705199  
     93750   0.53491713    -3.4869733      0             -3.1032284      0.0095894391 
     93800   0.51577764    -3.4806777      0             -3.1106633      0.050791894  
     93850   0.51015983    -3.4771491      0             -3.1111649     -0.0024399016 
     93900   0.50551819    -3.4792079      0             -3.1165535     -0.024981255  
     93950   0.53210191    -3.4842994      0             -3.1025741      0.024139106  
     94000   0.54782832    -3.489412       0             -3.0964047      0.03096521   
     94050   0.55767069    -3.4941294      0             -3.0940613      0.037526541  
     94100   0.5515287     -3.4960104      0             -3.1003486     -0.092757487  
     94150   0.53972848    -3.4968384      0             -3.1096419      0.016992919  
     94200   0.52411812    -3.4956466      0             -3.1196488     -0.043346786  
     94250   0.5185803     -3.49298        0             -3.120955       0.049402166  
     94300   0.52261162    -3.4896069      0             -3.1146899     -0.0026156789 
     94350   0.51891975    -3.4868899      0             -3.1146214     -0.026767559  
     94400   0.51092901    -3.4857144      0             -3.1191784     -0.039313798  
     94450   0.51319196    -3.4871749      0             -3.1190155     -0.10834724   
     94500   0.51591011    -3.4907973      0             -3.1206879     -0.040057795  
     94550   0.54630123    -3.494826       0             -3.1029142      0.0064350259 
     94600   0.55281704    -3.4992662      0             -3.1026801      0.021403677  
     94650   0.54994655    -3.5011858      0             -3.1066589      0.0026538205 
     94700   0.55118323    -3.5013606      0             -3.1059465      0.022508338  
     94750   0.55750298    -3.4990301      0             -3.0990823     -0.043350159  
     94800   0.54739187    -3.4939308      0             -3.1012366      0.0058195664 
     94850   0.53176499    -3.4859305      0             -3.1044469     -0.015491455  
     94900   0.52708218    -3.4758495      0             -3.0977253      0.021509215  
     94950   0.51887903    -3.4658493      0             -3.09361        0.021801831  
     95000   0.51005589    -3.460706       0             -3.0947964      0.0070081642 
     95050   0.5205465     -3.4626598      0             -3.0892242     -0.033916349  
     95100   0.53465674    -3.4722217      0             -3.0886636     -0.035537374  
     95150   0.57552624    -3.482691       0             -3.0698134     -0.10172455   
     95200   0.62474707    -3.4918925      0             -3.0437044      0.023234173  
     95250   0.64768665    -3.4978684      0             -3.0332236      0.034998925  
     95300   0.61454525    -3.5022876      0             -3.0614182     -0.034351755  
     95350   0.62941352    -3.5020786      0             -3.0505428      0.076226902  
     95400   0.62103818    -3.5010456      0             -3.0555182     -0.017921017  
     95450   0.61930632    -3.4984301      0             -3.0541451      0.11254969   
     95500   0.60129109    -3.4927612      0             -3.0614002     -0.059353504  
     95550   0.59337565    -3.4850975      0             -3.0594149      0.084812238  
     95600   0.58862338    -3.4761526      0             -3.0538793     -0.00015145588
     95650   0.58777043    -3.4699921      0             -3.0483307      0.11055508   
     95700   0.59874317    -3.4694483      0             -3.0399152      0.027171986  
     95750   0.58892014    -3.4747322      0             -3.052246       0.030745552  
     95800   0.5939285     -3.4823209      0             -3.0562418     -0.028479923  
     95850   0.59763799    -3.4895656      0             -3.0608253     -0.14096444   
     95900   0.59429496    -3.4942846      0             -3.0679425     -0.013136055  
     95950   0.59472395    -3.495457       0             -3.0688073      0.028418017  
     96000   0.60340694    -3.4943462      0             -3.0614673      0.07063954   
     96050   0.60658699    -3.4896768      0             -3.0545166     -0.031244091  
     96100   0.60472489    -3.4820071      0             -3.0481828      0.059994312  
     96150   0.60175343    -3.472496       0             -3.0408033      0.084226077  
     96200   0.60185613    -3.4671306      0             -3.0353642     -0.021000054  
     96250   0.59191932    -3.4678795      0             -3.0432417      0.099187398  
     96300   0.63277322    -3.4758642      0             -3.0219182      0.017886035  
     96350   0.63551708    -3.4866083      0             -3.0306938     -0.0011120616 
     96400   0.625838      -3.4917929      0             -3.0428221     -0.052051234  
     96450   0.62053092    -3.4910013      0             -3.0458378      0.018699474  
     96500   0.60408576    -3.4851331      0             -3.0517672      0.12398304   
     96550   0.5963867     -3.4739594      0             -3.0461168     -0.078437364  
     96600   0.57899408    -3.4636838      0             -3.0483185     -0.015974564  
     96650   0.56519821    -3.4596825      0             -3.0542142      0.044816889  
     96700   0.56757905    -3.4669719      0             -3.0597956     -0.032008481  
     96750   0.5686231     -3.476759       0             -3.0688337      0.10481797   
     96800   0.58108055    -3.4870615      0             -3.0701994      0.038912882  
     96850   0.60275625    -3.4936381      0             -3.061226       0.047907295  
     96900   0.61194344    -3.4975618      0             -3.0585589      0.016352616  
     96950   0.63879165    -3.4975129      0             -3.0392493     -0.02625574   
     97000   0.62707158    -3.4928926      0             -3.0430369      0.026926266  
     97050   0.6214128     -3.4842285      0             -3.0384324      0.054546302  
     97100   0.601664      -3.4706717      0             -3.0390432      0.0064393572 
     97150   0.58205588    -3.4547598      0             -3.037198       0.099219977  
     97200   0.56193388    -3.4439071      0             -3.0407806     -0.09389225   
     97250   0.57421044    -3.4474656      0             -3.035532      -0.039234665  
     97300   0.61638932    -3.4609852      0             -3.0187928     -0.045201107  
     97350   0.63000598    -3.4768633      0             -3.0249025     -0.025248553  
     97400   0.63226882    -3.4912333      0             -3.0376492     -0.073275463  
     97450   0.67468406    -3.4999804      0             -3.0159679      0.041710746  
     97500   0.6722324     -3.5041706      0             -3.0219169     -0.064776197  
     97550   0.67236057    -3.50331        0             -3.0209644     -0.047446074  
     97600   0.66875914    -3.4979272      0             -3.0181652     -0.030335482  
     97650   0.6748757     -3.4860472      0             -3.0018973     -0.056939864  
     97700   0.63352565    -3.4688987      0             -3.0144129     -0.060242262  
     97750   0.59949692    -3.4526149      0             -3.022541      -0.040698345  
     97800   0.59785529    -3.4486823      0             -3.0197861      0.010380104  
     97850   0.62132581    -3.4608323      0             -3.0150986      0.051400081  
     97900   0.62310584    -3.479955       0             -3.0329443      0.089779346  
     97950   0.64391014    -3.4936869      0             -3.0317513     -0.019737513  
     98000   0.64241447    -3.5002646      0             -3.0394021      0.0059531809 
     98050   0.65944202    -3.5003105      0             -3.0272325      0.055564217  
     98100   0.64209135    -3.495961       0             -3.0353303     -0.0039164543 
     98150   0.64294395    -3.4861389      0             -3.0248965     -0.034397417  
     98200   0.62787342    -3.472357       0             -3.021926       0.0047214412 
     98250   0.60399474    -3.4606234      0             -3.0273228      0.13679688   
     98300   0.5978077     -3.4585698      0             -3.0297077     -0.029166559  
     98350   0.59320878    -3.4668144      0             -3.0412515      0.031937591  
     98400   0.6174333     -3.4794945      0             -3.0365532      0.080897674  
     98450   0.63129557    -3.4890718      0             -3.0361859      0.0018671353 
     98500   0.64101912    -3.494615       0             -3.0347535     -0.044741402  
     98550   0.6267482     -3.4954338      0             -3.0458101     -0.13864672   
     98600   0.62548732    -3.4918032      0             -3.043084      -0.061962354  
     98650   0.59455852    -3.4838747      0             -3.0573436     -0.011726251  
     98700   0.57639693    -3.4727767      0             -3.0592746      0.088297566  
     98750   0.55613019    -3.4635805      0             -3.0646176     -0.0027485234 
     98800   0.55063424    -3.4615124      0             -3.0664922      0.043894686  
     98850   0.5625998     -3.4687908      0             -3.0651866     -0.014236452  
     98900   0.57720167    -3.4787078      0             -3.0646283     -0.072488757  
     98950   0.57624214    -3.4887575      0             -3.0753664      0.058887019  
     99000   0.57690772    -3.4950353      0             -3.0811667      0.098406202  
     99050   0.58165194    -3.4975503      0             -3.0802782     -0.0050915326 
     99100   0.58952435    -3.4953376      0             -3.0724179     -0.051691731  
     99150   0.57149441    -3.4888248      0             -3.0788397     -0.0042960533 
     99200   0.54707439    -3.4786306      0             -3.0861642      0.036947134  
     99250   0.52603494    -3.4680249      0             -3.090652       0.040544246  
     99300   0.49663563    -3.4630441      0             -3.106762      -0.047390828  
     99350   0.5054456     -3.4675981      0             -3.1049958     -0.062833227  
     99400   0.50703848    -3.4779606      0             -3.1142156      0.056022159  
     99450   0.52127615    -3.4887652      0             -3.1148062      0.0036856669 
     99500   0.52434697    -3.497276       0             -3.1211141      0.096363011  
     99550   0.52558436    -3.5023274      0             -3.1252778      0.052914501  
     99600   0.51773392    -3.5035277      0             -3.1321099      0.0027867161 
     99650   0.5139914     -3.5032121      0             -3.1344792      0.083609894  
     99700   0.50154385    -3.4982641      0             -3.1384609      0.041890808  
     99750   0.49624024    -3.4909916      0             -3.1349932      0.12786436   
     99800   0.47614099    -3.4812439      0             -3.1396645      0.059091173  
     99850   0.45638603    -3.4711977      0             -3.1437903     -0.056408435  
     99900   0.44296379    -3.4644214      0             -3.146643      -0.011733584  
     99950   0.43101902    -3.4662557      0             -3.1570464     -0.050722582  
    100000   0.44616476    -3.4736862      0             -3.1536115     -0.019019589  
    100001   0.44573465    -3.4737792      0             -3.1540131     -0.095043717  
Loop time of 1.47241 on 1 procs for 100000 steps with 23 atoms

Performance: 5867914.866 tau/day, 67915.681 timesteps/s, 1.562 Matom-step/s
53.1% CPU use with 1 MPI tasks x 1 OpenMP threads

MPI task timing breakdown:
Section |  min time  |  avg time  |  max time  |%varavg| %total
---------------------------------------------------------------
Pair    | 0.10223    | 0.10223    | 0.10223    |   0.0 |  6.94
Bond    | 0.008737   | 0.008737   | 0.008737   |   0.0 |  0.59
Neigh   | 0.018837   | 0.018837   | 0.018837   |   0.0 |  1.28
Comm    | 0.057673   | 0.057673   | 0.057673   |   0.0 |  3.92
Output  | 0.69166    | 0.69166    | 0.69166    |   0.0 | 46.97
Modify  | 0.51193    | 0.51193    | 0.51193    |   0.0 | 34.77
Other   |            | 0.08135    |            |       |  5.52

Nlocal:             23 ave          23 max          23 min
Histogram: 1 0 0 0 0 0 0 0 0 0
Nghost:             75 ave          75 max          75 min
Histogram: 1 0 0 0 0 0 0 0 0 0
Neighs:              0 ave           0 max           0 min
Histogram: 1 0 0 0 0 0 0 0 0 0

Total # of neighbors = 0
Ave neighs/atom = 0
Ave special neighs/atom = 2.4347826
Neighbor list builds = 1025
Dangerous builds = 0
Total wall time: 0:00:01
