LAMMPS (27 Jun 2024)
OMP_NUM_THREADS environment is not set. Defaulting to 1 thread. (src/comm.cpp:98)
  using 1 OpenMP thread(s) per MPI task
package omp 0
using multi-threaded neighbor list subroutines
# Script to create a shear deformationgiven a data file

units lj
dimension 3
boundary p p p

# Styles of atoms and that stuff
atom_style bond
bond_style zero nocoeff
pair_style hybrid/overlay/omp zero 0.0 lj/cut/omp 1.12 table/omp linear 5000000 threebody/table
newton on

read_data data.hydrogel extra/bond/per/atom 4 extra/special/per/atom 5
Reading data file ...
  orthogonal box = (-9.99857 -9.99857 -9.99857) to (9.99857 9.99857 9.99857)
  2 by 2 by 2 MPI processor grid
  reading atoms ...
  4950 atoms
  reading velocities ...
  4950 velocities
  scanning bonds ...
  8 = max bonds/atom
  orthogonal box = (-9.99857 -9.99857 -9.99857) to (9.99857 9.99857 9.99857)
  2 by 2 by 2 MPI processor grid
  reading bonds ...
  3450 bonds
Finding 1-2 1-3 1-4 neighbors ...
  special bond factors lj:    0        0        0       
  special bond factors coul:  0        0        0       
     4 = max # of 1-2 neighbors
     3 = max # of 1-3 neighbors
     3 = max # of 1-4 neighbors
     9 = max # of special neighbors
  special bonds CPU = 0.001 seconds
  read_data CPU = 0.029 seconds

change_box all triclinic
Changing box ...
  triclinic box = (-9.99857 -9.99857 -9.99857) to (9.99857 9.99857 9.99857) with tilt (0 0 0)

# Coefficients
include potential.in
bond_coeff * nocoeff
pair_coeff 1 3 zero
pair_coeff 1 4 zero
pair_coeff 2 3 zero
pair_coeff 2 4 zero
pair_coeff 3 3 zero
pair_coeff 1 1 lj/cut/omp 1.0 1.0 1.12 # i-type j-type pair-style eps sigma cutoff
pair_coeff 2 2 lj/cut/omp 1.0 1.0 1.12 # i-type j-type pair-style eps sigma cutoff
pair_coeff 1 2 lj/cut/omp 1.0 1.0 1.12 # i-type j-type pair-style eps sigma cutoff
pair_modify shift yes
pair_coeff 3 4 table/omp sysFiles/pachTab.table POT 0.6 #0.75
Reading pair table potential file sysFiles/pachTab.table with DATE: 2024-07-08
WARNING: 2 of 5000000 force values in table POT are inconsistent with -dE/dr.
WARNING:  Should only be flagged at inflection points (src/pair_table.cpp:466)
pair_coeff 4 4 table/omp sysFiles/pachTab.table POT 0.6 #0.75
Reading pair table potential file sysFiles/pachTab.table with DATE: 2024-07-08
WARNING: 2 of 5000000 force values in table POT are inconsistent with -dE/dr.
WARNING:  Should only be flagged at inflection points (src/pair_table.cpp:466)
pair_coeff * * threebody/table swapMech.3b NULL NULL PA PB

# Molecules
include molDeform.in
molecule CL sysFiles/molecule.patchy.CL
Read molecule template CL:
# Patchy Cross-Linker
  1 molecules
  0 fragments
  5 atoms with max type 3
  4 bonds with max type 1
  0 angles with max type 0
  0 dihedrals with max type 0
  0 impropers with max type 0
molecule MO sysFiles/molecule.patchy.MO
Read molecule template MO:
# Patchy Monomer
  1 molecules
  0 fragments
  3 atoms with max type 4
  2 bonds with max type 1
  0 angles with max type 0
  0 dihedrals with max type 0
  0 impropers with max type 0

# Create patchy particles
group CrossLinker type 1 3
1125 atoms in group CrossLinker
group Monomer type 2 4
3825 atoms in group Monomer
group Patches type 3 4
3450 atoms in group Patches
group CL type 1
225 atoms in group CL
group MO type 2
1275 atoms in group MO
group PA type 3
900 atoms in group PA
group CM type 1 2
1500 atoms in group CM
fix pCL CrossLinker rigid/small/omp molecule #langevin 1.0 1.0 100.0 ${seed3}
  create bodies CPU = 0.000 seconds
  225 rigid bodies with 1125 atoms
  0.46400431 = max distance from body owner to body atom
fix pMO Monomer rigid/small/omp molecule #langevin 1.0 1.0 100.0 ${seed3}
  create bodies CPU = 0.000 seconds
  1275 rigid bodies with 3825 atoms
  0.5 = max distance from body owner to body atom

# Neighbor list
neighbor 1.8 bin # extra-distance style
neigh_modify exclude molecule/intra CrossLinker
neigh_modify exclude molecule/intra Monomer

fix BrDy all rigid/nve/small molecule langevin 0.05 0.05 0.25 12345 # Brownian Dynamics: langevin + nve
  create bodies CPU = 0.000 seconds
  1500 rigid bodies with 4950 atoms
  0.5 = max distance from body owner to body atom
fix_modify BrDy virial no

thermo ${sstep}
thermo 10000

# Compute global kinetic and potential energy and temperature
compute t all temp
compute ep all pe
compute ek all ke
compute stressVirial all pressure t ke pair
variable tilt equal v_shear_rate*step*dt
compute blAll Patches pair table/omp 3 epair
compute blCl PA pair table/omp 3 epair


# DUMPS and FIXES

# Save atom positions
dump dumpID all atom ${Nsave} info/patchyParticles_shear.dumpf
dump dumpID all atom 500 info/patchyParticles_shear.dumpf
dump_modify dumpID pbc yes # remap atoms via periodic boundary conditions
#dump_modify dumpID delay ${steps}

# Save global energies and temperature
group Energy empty
0 atoms in group Energy
group BL1 empty
0 atoms in group BL1
group BL2 empty
0 atoms in group BL2
fix fixEng Energy ave/time 1 10 10 c_t c_ep c_ek file info/energy_shear.fixf

fix fixBLg BL1 ave/time 1 10 10 c_blAll file info/bondlenPatch_shear.fixf
fix fixBLc BL2 ave/time 1 10 10 c_blCl file info/bondlenCL_shear.fixf


# Save Stress tensor
group Stress empty
0 atoms in group Stress
fix fixStress5 Stress ave/time 1 ${Nave} ${Nave} v_tilt c_stressVirial[*] file info/stressVirial_shear.fixf
fix fixStress5 Stress ave/time 1 1000 ${Nave} v_tilt c_stressVirial[*] file info/stressVirial_shear.fixf
fix fixStress5 Stress ave/time 1 1000 1000 v_tilt c_stressVirial[*] file info/stressVirial_shear.fixf

# RUN SIMULATION

# Introduce deformation
fix shear all deform 1 xy erate ${shear_rate} remap x flip yes
fix shear all deform 1 xy erate 0.02 remap x flip yes

# Run deformation
timestep ${tstep}
timestep 0.001
run ${shear_it}
run 600000

CITE-CITE-CITE-CITE-CITE-CITE-CITE-CITE-CITE-CITE-CITE-CITE-CITE

Your simulation uses code contributions which should be cited:

- Type Label Framework: https://doi.org/10.1021/acs.jpcb.3c08419

@Article{Gissinger24,
 author = {Jacob R. Gissinger, Ilia Nikiforov, Yaser Afshar, Brendon Waters, Moon-ki Choi, Daniel S. Karls, Alexander Stukowski, Wonpil Im, Hendrik Heinz, Axel Kohlmeyer, and Ellad B. Tadmor},
 title = {Type Label Framework for Bonded Force Fields in LAMMPS},
 journal = {J. Phys. Chem. B},
 year =    2024,
 volume =  128,
 number =  13,
 pages =   {3282â€“-3297}
}

CITE-CITE-CITE-CITE-CITE-CITE-CITE-CITE-CITE-CITE-CITE-CITE-CITE

WARNING: Using a manybody potential with bonds/angles/dihedrals and special_bond exclusions (src/pair.cpp:242)
Hybrid pair style last /omp style table/omp
Last active /omp style is pair_style table/omp
WARNING: More than one fix rigid command (src/RIGID/fix_rigid_small.cpp:529)
WARNING: More than one fix rigid command (src/RIGID/fix_rigid_small.cpp:529)
WARNING: More than one fix rigid command (src/RIGID/fix_rigid_small.cpp:529)
WARNING: One or more atoms are time integrated more than once (src/modify.cpp:296)
Neighbor list info ...
  update: every = 1 steps, delay = 0 steps, check = yes
  max neighbors/atom: 2000, page size: 100000
  master list distance cutoff = 2.92
  ghost atom cutoff = 2.92
  binsize = 1.46, bins = 14 14 14
  6 neighbor lists, perpetual/occasional/extra = 6 0 0
  (1) pair zero, perpetual, skip from (5)
      attributes: half, newton on, omp
      pair build: skip/omp
      stencil: none
      bin: none
  (2) pair lj/cut/omp, perpetual, skip from (5)
      attributes: half, newton on, omp
      pair build: skip/omp
      stencil: none
      bin: none
  (3) pair table/omp, perpetual, skip from (5)
      attributes: half, newton on, omp, cut 2.4
      pair build: skip/omp
      stencil: none
      bin: none
  (4) pair threebody/table, perpetual, skip from (6)
      attributes: full, newton on, omp, cut 2.4
      pair build: skip/omp
      stencil: none
      bin: none
  (5) neighbor class addition, perpetual
      attributes: half, newton on, omp
      pair build: half/bin/newton/tri/omp
      stencil: half/bin/3d/tri
      bin: standard
  (6) neighbor class addition, perpetual
      attributes: full, newton on, omp, cut 2.4
      pair build: full/bin/omp
      stencil: full/bin/3d
      bin: standard
Per MPI rank memory allocation (min/avg/max) = 25.24 | 25.26 | 25.27 Mbytes
   Step          Temp          E_pair         E_mol          TotEng         Press          Volume    
         0   0.70959369     0.94093874     0              0.98372939     0.011051992    7996.5685    
     10000   0.65087666     0.98192301     0              1.0211728     -4740.5212      7996.5685    
     20000   0.66785252     1.0047448      0              1.0450184     -22813.132      7996.5685    
     30000   0.64690984     1.0184031      0              1.0574137     -56575.5        7996.5685    
     40000   0.6336011      1.0028497      0              1.0410577     -114126.78      7996.5685    
     50000   0.67133979     0.94615745     0              0.98664127    -198411.58      7996.5685    
     60000   0.67534054     0.92269788     0              0.96342296    -307151.4       7996.5685    
     70000   0.63638434     0.88838519     0              0.9267611     -468930.78      7996.5685    
     80000   0.66665833     0.87117542     0              0.91137693    -600569.42      7996.5685    
     90000   0.69478225     0.83112386     0              0.87302134    -827549.4       7996.5685    
    100000   0.66841051     0.84145409     0              0.88176127    -1112836.4      7996.5685    
    110000   0.69952269     0.76793857     0              0.81012191    -1436568.2      7996.5685    
    120000   0.65179163     0.78466527     0              0.82397028    -1827310        7996.5685    
    130000   0.67477317     0.76273461     0              0.80342547    -2052881.1      7996.5685    
    140000   0.65768698     0.74262445     0              0.78228497    -2517741.8      7996.5685    
    150000   0.68179076     0.75864987     0              0.79976392    -3136129.3      7996.5685    
    160000   0.65988407     0.72902616     0              0.76881917    -3735577.5      7996.5685    
    170000   0.6826685      0.74763311     0              0.78880009    -4511655        7996.5685    
    180000   0.66676828     0.76070082     0              0.80090897    -4673272.2      7996.5685    
    190000   0.6533279      0.74104252     0              0.78044017    -5533510.1      7996.5685    
    200000   0.67683931     0.75265341     0              0.79346887    -6404005.7      7996.5685    
    210000   0.6688206      0.73488018     0              0.77521209    -7377502.4      7996.5685    
    220000   0.64664414     0.72347984     0              0.76247444    -8484131.8      7996.5685    
    230000   0.66903467     0.73260683     0              0.77295165    -8385156        7996.5685    
    240000   0.67575991     0.7498798      0              0.79063017    -9552842.5      7996.5685    
    250000   0.66099592     0.71691576     0              0.75677582    -10850982       7996.5685    
    260000   0.67016318     0.75157662     0              0.79198949    -12310786       7996.5685    
    270000   0.65615569     0.76753309     0              0.80710127    -13679051       7996.5685    
    280000   0.65345507     0.82715255     0              0.86655787    -13403043       7996.5685    
    290000   0.68150766     0.8078519      0              0.84894888    -15033090       7996.5685    
    300000   0.66685029     0.80730333     0              0.84751643    -16620072       7996.5685    
    310000   0.65116081     0.80802554     0              0.84729251    -18687621       7996.5685    
    320000   0.6635032      0.83923909     0              0.87925034    -20239613       7996.5685    
    330000   0.66523844     0.88527501     0              0.9253909     -19850572       7996.5685    
    340000   0.67494976     0.88670918     0              0.9274107     -21507668       7996.5685    
    350000   0.68335256     0.88523368     0              0.92644191    -23476526       7996.5685    
    360000   0.67372367     0.88022207     0              0.92084965    -25062231       7996.5685    
    370000   0.67974678     0.86995157     0              0.91094236    -27285453       7996.5685    
    380000   0.65551224     0.88458859     0              0.92411797    -24164243       7996.5685    
    390000   0.67297197     0.84190059     0              0.88248284    -26559243       7996.5685    
    400000   0.64940718     0.85205496     0              0.89121618    -28844676       7996.5685    
    410000   0.68272793     0.83231203     0              0.87348259    -29779333       7996.5685    
    420000   0.67350699     0.86731886     0              0.90793337    -31280591       7996.5685    
    430000   0.66322931     0.86769695     0              0.90769169    -27428296       7996.5685    
    440000   0.66704901     0.86191404     0              0.90213911    -27128374       7996.5685    
    450000   0.67457867     0.85355559     0              0.89423473    -29110006       7996.5685    
    460000   0.66680859     0.86799445     0              0.90820503    -30191380       7996.5685    
    470000   0.68536369     0.88277621     0              0.92410572    -31664139       7996.5685    
    480000   0.6741331      0.87466192     0              0.91531419    -26931754       7996.5685    
    490000   0.65743041     0.88433026     0              0.9239753     -27284237       7996.5685    
    500000   0.66806133     0.9003621      0              0.94064823    -28634964       7996.5685    
    510000   0.70709647     0.90983258     0              0.95247264    -29531497       7996.5685    
    520000   0.66893724     0.93161786     0              0.9719568     -30867226       7996.5685    
    530000   0.666617       0.8892916      0              0.92949063    -25845574       7996.5685    
    540000   0.6613894      0.88736476     0              0.92724855    -25746716       7996.5685    
    550000   0.69197498     0.82495884     0              0.86668703    -25950403       7996.5685    
    560000   0.67168616     0.87036314     0              0.91086786    -1.4244547e+08  7996.5685    
    570000   0.69104364     0.8843311      0              0.92600312    -25814156       7996.5685    
    580000   0.68120862     0.84983714     0              0.89091608    -21063749       7996.5685    
    590000   0.68582852     0.85000432     0              0.89136186    -22048459       7996.5685    
    600000   0.66483112     0.84884516     0              0.88893649    -1.0379977e+09  7996.5685    
Loop time of 469.958 on 8 procs for 600000 steps with 4950 atoms

Performance: 110307.701 tau/day, 1276.710 timesteps/s, 6.320 Matom-step/s
91.0% CPU use with 8 MPI tasks x 1 OpenMP threads

MPI task timing breakdown:
Section |  min time  |  avg time  |  max time  |%varavg| %total
---------------------------------------------------------------
Pair    | 84.128     | 91.682     | 100.63     |  55.3 | 19.51
Bond    | 0.084186   | 0.10293    | 0.11889    |   3.3 |  0.02
Neigh   | 4.7809     | 4.7828     | 4.7849     |   0.1 |  1.02
Comm    | 61.247     | 69.73      | 76.551     |  59.5 | 14.84
Output  | 0.69866    | 0.80668    | 0.91018    |   7.9 |  0.17
Modify  | 292.58     | 293.82     | 294.68     |   3.9 | 62.52
Other   |            | 9.034      |            |       |  1.92

Nlocal:         618.75 ave         811 max         376 min
Histogram: 1 0 1 1 0 1 1 0 1 2
Nghost:           1706 ave        1807 max        1527 min
Histogram: 1 0 1 0 0 0 2 0 2 2
Neighs:              0 ave           0 max           0 min
Histogram: 8 0 0 0 0 0 0 0 0 0

Total # of neighbors = 0
Ave neighs/atom = 0
Ave special neighs/atom = 2.4545455
Neighbor list builds = 825
Dangerous builds = 12

# Stop deformation
unfix shear

# Relax time
run ${rlxT1}
run 50000
WARNING: Using a manybody potential with bonds/angles/dihedrals and special_bond exclusions (src/pair.cpp:242)
Hybrid pair style last /omp style table/omp
Last active /omp style is pair_style table/omp
WARNING: More than one fix rigid command (src/RIGID/fix_rigid_small.cpp:529)
WARNING: More than one fix rigid command (src/RIGID/fix_rigid_small.cpp:529)
WARNING: More than one fix rigid command (src/RIGID/fix_rigid_small.cpp:529)
WARNING: One or more atoms are time integrated more than once (src/modify.cpp:296)
Per MPI rank memory allocation (min/avg/max) = 26.27 | 26.32 | 26.41 Mbytes
   Step          Temp          E_pair         E_mol          TotEng         Press     
    600000   0.66483112     0.84884599     0              0.88893732    -0.0098526063 
    610000   0.69224814     0.8922935      0              0.93403816    -4930.978     
    620000   0.67093569     0.91811013     0              0.95856958    -19442.565    
    630000   0.6711839      0.92103353     0              0.96150796    -53919.646    
    640000   0.66782042     0.9279816      0              0.96825319    -99854.176    
    650000   0.6735953      0.93612977     0              0.9767496     -167841.04    
Loop time of 39.3358 on 8 procs for 50000 steps with 4950 atoms

Performance: 109823.498 tau/day, 1271.105 timesteps/s, 6.292 Matom-step/s
91.8% CPU use with 8 MPI tasks x 1 OpenMP threads

MPI task timing breakdown:
Section |  min time  |  avg time  |  max time  |%varavg| %total
---------------------------------------------------------------
Pair    | 4.3281     | 7.8992     | 11.076     |  87.6 | 20.08
Bond    | 0.0064036  | 0.0079677  | 0.0090876  |   1.0 |  0.02
Neigh   | 0.11949    | 0.11963    | 0.11974    |   0.0 |  0.30
Comm    | 3.5451     | 6.8229     | 10.288     |  94.0 | 17.35
Output  | 0.061133   | 0.070655   | 0.078658   |   2.3 |  0.18
Modify  | 23.373     | 23.647     | 23.976     |   3.6 | 60.12
Other   |            | 0.7681     |            |       |  1.95

Nlocal:         618.75 ave         813 max         386 min
Histogram: 1 1 1 0 0 1 1 0 1 2
Nghost:           1717 ave        1860 max        1542 min
Histogram: 1 1 0 0 0 1 3 1 0 1
Neighs:              0 ave           0 max           0 min
Histogram: 8 0 0 0 0 0 0 0 0 0

Total # of neighbors = 0
Ave neighs/atom = 0
Ave special neighs/atom = 2.4545455
Neighbor list builds = 19
Dangerous builds = 0

# Introduce deformation
fix shear all deform 1 xy erate ${shear_rate} remap x flip yes
fix shear all deform 1 xy erate 0.02 remap x flip yes

# Re-run deformation
timestep ${tstep}
timestep 0.001
run ${shear_it}
run 600000
WARNING: Using a manybody potential with bonds/angles/dihedrals and special_bond exclusions (src/pair.cpp:242)
Hybrid pair style last /omp style table/omp
Last active /omp style is pair_style table/omp
WARNING: More than one fix rigid command (src/RIGID/fix_rigid_small.cpp:529)
WARNING: More than one fix rigid command (src/RIGID/fix_rigid_small.cpp:529)
WARNING: More than one fix rigid command (src/RIGID/fix_rigid_small.cpp:529)
WARNING: One or more atoms are time integrated more than once (src/modify.cpp:296)
Per MPI rank memory allocation (min/avg/max) = 26.29 | 26.33 | 26.42 Mbytes
   Step          Temp          E_pair         E_mol          TotEng         Press          Volume    
    650000   0.6735953      0.93612977     0              0.9767496      0.0060963919   7996.5685    
    660000   0.68349739     0.9929964      0              1.0342134     -5419.3521      7996.5685    
    670000   0.65074844     0.94159262     0              0.98083472    -25536.932      7996.5685    
    680000   0.66502588     0.90062625     0              0.94072932    -67139.876      7996.5685    
    690000   0.67214239     0.95053073     0              0.99106295    -133526.98      7996.5685    
    700000   0.68025696     0.91820619     0              0.95922775    -222921.64      7996.5685    
    710000   0.66977261     0.93848764     0              0.97887696    -352109.34      7996.5685    
    720000   0.67472398     0.92237444     0              0.96306234    -500065.85      7996.5685    
    730000   0.70062918     0.91887843     0              0.96112849    -671970.89      7996.5685    
    740000   0.66019479     0.89281221     0              0.93262396    -915228.46      7996.5685    
    750000   0.66439587     0.8870582      0              0.92712328    -1200417.1      7996.5685    
    760000   0.67386862     0.89421651     0              0.93485283    -1543075        7996.5685    
    770000   0.69301395     0.90013123     0              0.94192207    -1919326.1      7996.5685    
    780000   0.66991075     0.8741611      0              0.91455875    -2168110.4      7996.5685    
    790000   0.68128689     0.88560231     0              0.92668598    -2654887.4      7996.5685    
    800000   0.67362859     0.92139385     0              0.96201569    -3257604.9      7996.5685    
    810000   0.67756612     0.8488923      0              0.88975159    -3834584.8      7996.5685    
    820000   0.6585193      0.83151752     0              0.87122823    -4541678.8      7996.5685    
    830000   0.66859454     0.8270615      0              0.86737978    -4859685.2      7996.5685    
    840000   0.6916888      0.86066216     0              0.90237309    -5657375.4      7996.5685    
    850000   0.68202501     0.85417594     0              0.89530411    -6439059.9      7996.5685    
    860000   0.65813387     0.87115069     0              0.91083815    -7426327.3      7996.5685    
    870000   0.65378102     0.87448933     0              0.91391431    -8425661.4      7996.5685    
    880000   0.68634098     0.8856967      0              0.92708514    -8738167.7      7996.5685    
    890000   0.65328645     0.91598444     0              0.95537959    -9854672.1      7996.5685    
    900000   0.6794137      0.86663829     0              0.90760899    -11087881       7996.5685    
    910000   0.66149127     0.87796423     0              0.91785415    -12299400       7996.5685    
    920000   0.68285865     0.89038847     0              0.93156692    -13508196       7996.5685    
    930000   0.66627525     0.94719979     0              0.98737821    -14006219       7996.5685    
    940000   0.67704704     0.94183378     0              0.98266177    -15531774       7996.5685    
    950000   0.68991673     0.97937474     0              1.0209788     -17255236       7996.5685    
    960000   0.6671641      1.0207126      0              1.0609446     -18303147       7996.5685    
    970000   0.68044216     0.91164049     0              0.95267322    -20125430       7996.5685    
    980000   0.70066008     0.89911558     0              0.9413675     -20474089       7996.5685    
    990000   0.68167028     0.92928286     0              0.97038964    -22066963       7996.5685    
   1000000   0.66026407     0.91947044     0              0.95928637    -23494874       7996.5685    
   1010000   0.67404907     0.9338056      0              0.9744528     -24990873       7996.5685    
   1020000   0.68161617     0.89465775     0              0.93576127    -26235909       7996.5685    
   1030000   0.67571476     0.90346763     0              0.94421528    -25972963       7996.5685    
   1040000   0.68046774     0.94666134     0              0.98769561    -27170715       7996.5685    
   1050000   0.6719682      0.92655069     0              0.96707241    -28943749       7996.5685    
   1060000   0.67059426     1.0046062      0              1.0450451     -30025870       7996.5685    
   1070000   0.68078795     0.98343111     0              1.0244847     -29845248       7996.5685    
   1080000   0.65311421     1.0291335      0              1.0685182     -29489442       7996.5685    
   1090000   0.67079341     0.99647107     0              1.0369219     -31190945       7996.5685    
   1100000   0.65851435     1.0498094      0              1.0895198     -31968934       7996.5685    
   1110000   0.67501234     1.037415       0              1.0781202     -32725121       7996.5685    
   1120000   0.67342728     1.0469151      0              1.0875248     -33331650       7996.5685    
   1130000   0.68128248     1.045909       0              1.0869924     -31498274       7996.5685    
   1140000   0.67511975     0.96983686     0              1.0105486     -32753522       7996.5685    
   1150000   0.68637653     1.0322381      0              1.0736286     -31302251       7996.5685    
   1160000   0.67420119     0.984457       0              1.0251134     -31638819       7996.5685    
   1170000   0.66944399     0.98097629     0              1.0213458     -30386797       7996.5685    
   1180000   0.65998505     0.986273       0              1.0260721     -27938925       7996.5685    
   1190000   0.6695831      0.93988747     0              0.98026536    -26879959       7996.5685    
   1200000   0.678952       1.0418346      0              1.0827774     -26244326       7996.5685    
   1210000   0.67804564     1.0226755      0              1.0635637     -26807314       7996.5685    
   1220000   0.68408172     1.0405735      0              1.0818257     -26156170       7996.5685    
   1230000   0.67074272     1.0087677      0              1.0492155     -24620942       7996.5685    
   1240000   0.66568676     0.98483342     0              1.0249764     -22617569       7996.5685    
   1250000   0.67018989     0.99614358     0              1.0365581     -21230455       7996.5685    
Loop time of 488.947 on 8 procs for 600000 steps with 4950 atoms

Performance: 106023.798 tau/day, 1227.127 timesteps/s, 6.074 Matom-step/s
91.3% CPU use with 8 MPI tasks x 1 OpenMP threads

MPI task timing breakdown:
Section |  min time  |  avg time  |  max time  |%varavg| %total
---------------------------------------------------------------
Pair    | 86.157     | 97.454     | 104.05     |  56.3 | 19.93
Bond    | 0.075519   | 0.095877   | 0.10858    |   3.4 |  0.02
Neigh   | 5.4053     | 5.4077     | 5.4102     |   0.1 |  1.11
Comm    | 74.23      | 80.683     | 92.164     |  62.2 | 16.50
Output  | 0.72965    | 0.8354     | 0.93739    |   7.6 |  0.17
Modify  | 294.21     | 295.12     | 295.78     |   3.2 | 60.36
Other   |            | 9.351      |            |       |  1.91

Nlocal:         618.75 ave         790 max         398 min
Histogram: 1 0 0 0 3 1 0 1 1 1
Nghost:        1763.25 ave        1945 max        1619 min
Histogram: 2 1 0 1 0 2 0 0 1 1
Neighs:              0 ave           0 max           0 min
Histogram: 8 0 0 0 0 0 0 0 0 0

Total # of neighbors = 0
Ave neighs/atom = 0
Ave special neighs/atom = 2.4545455
Neighbor list builds = 825
Dangerous builds = 12

# Stop deformation
unfix shear

# Relax time
run ${rlxT2}
run 100000
WARNING: Using a manybody potential with bonds/angles/dihedrals and special_bond exclusions (src/pair.cpp:242)
Hybrid pair style last /omp style table/omp
Last active /omp style is pair_style table/omp
WARNING: More than one fix rigid command (src/RIGID/fix_rigid_small.cpp:529)
WARNING: More than one fix rigid command (src/RIGID/fix_rigid_small.cpp:529)
WARNING: More than one fix rigid command (src/RIGID/fix_rigid_small.cpp:529)
WARNING: One or more atoms are time integrated more than once (src/modify.cpp:296)
Per MPI rank memory allocation (min/avg/max) = 26.27 | 26.32 | 26.41 Mbytes
   Step          Temp          E_pair         E_mol          TotEng         Press     
   1250000   0.67018989     0.99614455     0              1.036559      -0.022235445  
   1260000   0.65347821     0.96235225     0              1.001759      -5353.9987    
   1270000   0.67772716     0.98418943     0              1.0250584     -22875.37     
   1280000   0.66307556     1.0705236      0              1.1105091     -60158.528    
   1290000   0.66634919     1.0268294      0              1.0670123     -111046.31    
   1300000   0.68734531     1.0694745      0              1.1109235     -179978.04    
   1310000   0.68206155     1.1060469      0              1.1471773     -250646.03    
   1320000   0.66185724     1.1030829      0              1.1429949     -370643.05    
   1330000   0.68558641     1.1430388      0              1.1843818     -475511.04    
   1340000   0.67292266     1.1095287      0              1.1501079     -632648.32    
   1350000   0.65804074     1.1224132      0              1.1620951     -736974.98    
Loop time of 77.2046 on 8 procs for 100000 steps with 4950 atoms

Performance: 111910.502 tau/day, 1295.260 timesteps/s, 6.412 Matom-step/s
91.2% CPU use with 8 MPI tasks x 1 OpenMP threads

MPI task timing breakdown:
Section |  min time  |  avg time  |  max time  |%varavg| %total
---------------------------------------------------------------
Pair    | 10.208     | 16.855     | 21.688     |  79.6 | 21.83
Bond    | 0.012274   | 0.015292   | 0.019296   |   1.7 |  0.02
Neigh   | 0.21017    | 0.2103     | 0.21053    |   0.0 |  0.27
Comm    | 6.9096     | 11.696     | 18.355     |  95.6 | 15.15
Output  | 0.11612    | 0.13398    | 0.15014    |   3.1 |  0.17
Modify  | 46.375     | 46.892     | 47.098     |   3.1 | 60.74
Other   |            | 1.401      |            |       |  1.82

Nlocal:         618.75 ave         789 max         392 min
Histogram: 1 0 0 0 2 1 1 2 0 1
Nghost:        1765.75 ave        1961 max        1600 min
Histogram: 2 0 1 0 2 0 1 0 1 1
Neighs:              0 ave           0 max           0 min
Histogram: 8 0 0 0 0 0 0 0 0 0

Total # of neighbors = 0
Ave neighs/atom = 0
Ave special neighs/atom = 2.4545455
Neighbor list builds = 35
Dangerous builds = 0

# Introduce deformation
fix shear all deform 1 xy erate ${shear_rate} remap x flip yes
fix shear all deform 1 xy erate 0.02 remap x flip yes

# Re-run deformation
timestep ${tstep}
timestep 0.001
run ${shear_it}
run 600000
WARNING: Using a manybody potential with bonds/angles/dihedrals and special_bond exclusions (src/pair.cpp:242)
Hybrid pair style last /omp style table/omp
Last active /omp style is pair_style table/omp
WARNING: More than one fix rigid command (src/RIGID/fix_rigid_small.cpp:529)
WARNING: More than one fix rigid command (src/RIGID/fix_rigid_small.cpp:529)
WARNING: More than one fix rigid command (src/RIGID/fix_rigid_small.cpp:529)
WARNING: One or more atoms are time integrated more than once (src/modify.cpp:296)
Per MPI rank memory allocation (min/avg/max) = 26.29 | 26.33 | 26.42 Mbytes
   Step          Temp          E_pair         E_mol          TotEng         Press          Volume    
   1350000   0.65804074     1.1224132      0              1.1620951      0.028416431    7996.5685    
   1360000   0.67504935     1.1803329      0              1.2210405     -5308.3657      7996.5685    
   1370000   0.64983478     1.1706799      0              1.209867      -26881.385      7996.5685    
   1380000   0.68726404     1.1591305      0              1.2005747     -65745.74       7996.5685    
   1390000   0.69496324     1.1148073      0              1.1567157     -136057.58      7996.5685    
   1400000   0.68919943     1.1111073      0              1.1526682     -233832.84      7996.5685    
   1410000   0.67308402     1.1007246      0              1.1413136     -368178.72      7996.5685    
   1420000   0.69677047     1.1040299      0              1.1460473     -560353.28      7996.5685    
   1430000   0.68881785     1.1133157      0              1.1548535     -737505.88      7996.5685    
   1440000   0.68796016     1.107166       0              1.1486521     -1033182.8      7996.5685    
   1450000   0.69176608     1.1072577      0              1.1489732     -1400380.9      7996.5685    
   1460000   0.661341       1.1206468      0              1.1605277     -1805045.9      7996.5685    
   1470000   0.67681963     1.120394       0              1.1612083     -2289553.4      7996.5685    
   1480000   0.6786654      1.1395838      0              1.1805094     -2623165.3      7996.5685    
   1490000   0.65824098     1.1434209      0              1.1831148     -3287586.9      7996.5685    
   1500000   0.69804582     1.1625437      0              1.2046379     -4054621.1      7996.5685    
   1510000   0.67879706     1.1723994      0              1.213333      -4797437.7      7996.5685    
   1520000   0.65879025     1.1394546      0              1.1791817     -5792973.1      7996.5685    
   1530000   0.6671908      1.151052       0              1.1912856     -6240710.2      7996.5685    
   1540000   0.67110064     1.1700223      0              1.2104917     -7359117.6      7996.5685    
   1550000   0.66773289     1.1135013      0              1.1537676     -8530825.6      7996.5685    
   1560000   0.67394832     1.189507       0              1.2301482     -9806607.3      7996.5685    
   1570000   0.669459       1.1923465      0              1.2327169     -11187797       7996.5685    
   1580000   0.68691929     1.1876987      0              1.229122      -11670122       7996.5685    
   1590000   0.68178612     1.1659992      0              1.207113      -13185911       7996.5685    
   1600000   0.66325116     1.1201218      0              1.1601178     -14940748       7996.5685    
   1610000   0.66218237     1.1397914      0              1.179723      -16527913       7996.5685    
   1620000   0.66543965     1.1511441      0              1.1912721     -18362908       7996.5685    
   1630000   0.6605163      1.1226573      0              1.1624885     -18633943       7996.5685    
   1640000   0.66119882     1.1503208      0              1.1901931     -20248329       7996.5685    
   1650000   0.65700583     1.1437516      0              1.1833711     -21907167       7996.5685    
   1660000   0.67142011     1.1819968      0              1.2224854     -23899239       7996.5685    
   1670000   0.68702579     1.165761       0              1.2071908     -25870055       7996.5685    
   1680000   0.68391586     1.1604786      0              1.2017208     -25323233       7996.5685    
   1690000   0.68531888     1.1426893      0              1.1840161     -27467452       7996.5685    
   1700000   0.70513317     1.1610074      0              1.203529      -29129628       7996.5685    
   1710000   0.66995199     1.180301       0              1.2207012     -30132909       7996.5685    
   1720000   0.67073974     1.1613687      0              1.2018163     -31027964       7996.5685    
   1730000   0.67397991     1.2294091      0              1.2700522     -30128788       7996.5685    
   1740000   0.69085276     1.2419011      0              1.2835616     -30536151       7996.5685    
   1750000   0.66959303     1.2445095      0              1.284888      -31772753       7996.5685    
   1760000   0.68591569     1.2342756      0              1.2756384     -31227627       7996.5685    
   1770000   0.66827005     1.2437535      0              1.2840522     -31111782       7996.5685    
   1780000   0.66624246     1.1524951      0              1.1926716     -28425329       7996.5685    
   1790000   0.68112363     1.1909792      0              1.232053      -29386341       7996.5685    
   1800000   0.6721612      1.1496613      0              1.1901947     -29112730       7996.5685    
   1810000   0.68332379     1.1764313      0              1.2176378     -28565090       7996.5685    
   1820000   0.69099023     1.1630109      0              1.2046797     -28601267       7996.5685    
   1830000   0.6807131      1.1813064      0              1.2223555     -26644943       7996.5685    
   1840000   0.67024811     1.1582771      0              1.1986951     -25707812       7996.5685    
   1850000   0.68297519     1.1504045      0              1.19159       -53707176       7996.5685    
   1860000   0.68670448     1.0884586      0              1.1298689     -23710175       7996.5685    
   1870000   0.66916293     1.1416847      0              1.1820373     -23353419       7996.5685    
   1880000   0.68702674     1.1048401      0              1.1462699     -23137374       7996.5685    
   1890000   0.67546022     1.139341       0              1.1800733     -23559845       7996.5685    
   1900000   0.66803674     1.0771686      0              1.1174532     -24199354       7996.5685    
   1910000   0.6893539      1.0867495      0              1.1283196     -24809053       7996.5685    
   1920000   0.67365852     1.1015632      0              1.1421869     -23743625       7996.5685    
   1930000   0.67425644     1.0895534      0              1.1302131     -21292296       7996.5685    
   1940000   0.6551885      1.12449        0              1.1639999     -19889177       7996.5685    
   1950000   0.67291847     1.0503915      0              1.0909705     -19287797       7996.5685    
Loop time of 509.421 on 8 procs for 600000 steps with 4950 atoms

Performance: 101762.654 tau/day, 1177.808 timesteps/s, 5.830 Matom-step/s
92.0% CPU use with 8 MPI tasks x 1 OpenMP threads

MPI task timing breakdown:
Section |  min time  |  avg time  |  max time  |%varavg| %total
---------------------------------------------------------------
Pair    | 88.263     | 103.87     | 116.18     |  91.2 | 20.39
Bond    | 0.072273   | 0.092922   | 0.10524    |   3.6 |  0.02
Neigh   | 5.81       | 5.8129     | 5.815      |   0.1 |  1.14
Comm    | 79.624     | 91.196     | 106.62     |  94.5 | 17.90
Output  | 0.74803    | 0.85845    | 0.96044    |   7.6 |  0.17
Modify  | 297.21     | 298.06     | 299.11     |   3.7 | 58.51
Other   |            | 9.53       |            |       |  1.87

Nlocal:         618.75 ave         769 max         289 min
Histogram: 1 0 0 0 0 1 3 0 0 3
Nghost:         1664.5 ave        1900 max        1502 min
Histogram: 1 1 1 2 1 0 0 1 0 1
Neighs:              0 ave           0 max           0 min
Histogram: 8 0 0 0 0 0 0 0 0 0

Total # of neighbors = 0
Ave neighs/atom = 0
Ave special neighs/atom = 2.4545455
Neighbor list builds = 821
Dangerous builds = 12

# Stop deformation
unfix shear

# Relax time
run ${rlxT3}
run 200000
WARNING: Using a manybody potential with bonds/angles/dihedrals and special_bond exclusions (src/pair.cpp:242)
Hybrid pair style last /omp style table/omp
Last active /omp style is pair_style table/omp
WARNING: More than one fix rigid command (src/RIGID/fix_rigid_small.cpp:529)
WARNING: More than one fix rigid command (src/RIGID/fix_rigid_small.cpp:529)
WARNING: More than one fix rigid command (src/RIGID/fix_rigid_small.cpp:529)
WARNING: One or more atoms are time integrated more than once (src/modify.cpp:296)
Per MPI rank memory allocation (min/avg/max) = 26.27 | 26.37 | 26.42 Mbytes
   Step          Temp          E_pair         E_mol          TotEng         Press     
   1950000   0.67291847     1.0503922      0              1.0909712      0.024326849  
   1960000   0.67445932     1.0567767      0              1.0974486     -3579.9897    
   1970000   0.64363627     1.0782315      0              1.1170448     -25248.283    
   1980000   0.64369084     1.1208154      0              1.1596319     -63593.042    
   1990000   0.66307863     1.1563139      0              1.1962995     -115472.78    
   2000000   0.68968799     1.1119556      0              1.1535459     -184144.13    
   2010000   0.65311015     1.1232542      0              1.1626387     -259282.1     
   2020000   0.66468038     1.1332245      0              1.1733067     -368551.17    
   2030000   0.68013359     1.1113661      0              1.1523802     -474237.6     
   2040000   0.65225234     1.1688173      0              1.2081501     -612109.53    
   2050000   0.6467774      1.1839429      0              1.2229456     -753216.74    
   2060000   0.64172779     1.1796475      0              1.2183457     -908865.41    
   2070000   0.67623728     1.2132305      0              1.2540097     -1045012.2    
   2080000   0.65368576     1.1754522      0              1.2148714     -1244867.4    
   2090000   0.67830679     1.1446118      0              1.1855158     -1473169      
   2100000   0.67188718     1.1796993      0              1.2202162     -1692240.7    
   2110000   0.65826789     1.2148865      0              1.254582      -1888222      
   2120000   0.67606383     1.2355224      0              1.2762911     -2181006.9    
   2130000   0.68145239     1.2308671      0              1.2719607     -2446740.6    
   2140000   0.67505611     1.2082254      0              1.2489333     -2755807.2    
   2150000   0.67528678     1.2539806      0              1.2947025     -3005895.3    
Loop time of 156.923 on 8 procs for 200000 steps with 4950 atoms

Performance: 110117.626 tau/day, 1274.510 timesteps/s, 6.309 Matom-step/s
91.6% CPU use with 8 MPI tasks x 1 OpenMP threads

MPI task timing breakdown:
Section |  min time  |  avg time  |  max time  |%varavg| %total
---------------------------------------------------------------
Pair    | 11.926     | 33.458     | 47.183     | 177.6 | 21.32
Bond    | 0.022307   | 0.027996   | 0.033407   |   1.9 |  0.02
Neigh   | 0.48637    | 0.48726    | 0.48823    |   0.1 |  0.31
Comm    | 13.573     | 27.301     | 48.848     | 196.8 | 17.40
Output  | 0.24247    | 0.2761     | 0.30586    |   3.9 |  0.18
Modify  | 90.803     | 92.336     | 93.671     |   9.3 | 58.84
Other   |            | 3.037      |            |       |  1.94

Nlocal:         618.75 ave         814 max         293 min
Histogram: 1 0 0 0 1 2 1 0 0 3
Nghost:           1674 ave        1911 max        1539 min
Histogram: 3 0 0 2 1 0 1 0 0 1
Neighs:              0 ave           0 max           0 min
Histogram: 8 0 0 0 0 0 0 0 0 0

Total # of neighbors = 0
Ave neighs/atom = 0
Ave special neighs/atom = 2.4545455
Neighbor list builds = 74
Dangerous builds = 0

# Introduce deformation
fix shear all deform 1 xy erate ${shear_rate} remap x flip yes
fix shear all deform 1 xy erate 0.02 remap x flip yes

# Re-run deformation
timestep ${tstep}
timestep 0.001
run ${shear_it}
run 600000
WARNING: Using a manybody potential with bonds/angles/dihedrals and special_bond exclusions (src/pair.cpp:242)
Hybrid pair style last /omp style table/omp
Last active /omp style is pair_style table/omp
WARNING: More than one fix rigid command (src/RIGID/fix_rigid_small.cpp:529)
WARNING: More than one fix rigid command (src/RIGID/fix_rigid_small.cpp:529)
WARNING: More than one fix rigid command (src/RIGID/fix_rigid_small.cpp:529)
WARNING: One or more atoms are time integrated more than once (src/modify.cpp:296)
Per MPI rank memory allocation (min/avg/max) = 26.29 | 26.38 | 26.43 Mbytes
   Step          Temp          E_pair         E_mol          TotEng         Press          Volume    
   2150000   0.67528678     1.2539806      0              1.2947025     -0.039199101    7996.5685    
   2160000   0.65687216     1.2468508      0              1.2864622     -5085.1378      7996.5685    
   2170000   0.68127281     1.2373414      0              1.2784242     -26987.573      7996.5685    
   2180000   0.67453462     1.1888816      0              1.2295581     -66788.757      7996.5685    
   2190000   0.66104598     1.2048663      0              1.2447294     -134838.49      7996.5685    
   2200000   0.67843904     1.1782089      0              1.2191208     -232956.16      7996.5685    
   2210000   0.67425492     1.1135695      0              1.1542291     -366580.3       7996.5685    
   2220000   0.67727464     1.0738619      0              1.1147036     -538450.05      7996.5685    
   2230000   0.68829153     1.0598831      0              1.1013891     -719692.66      7996.5685    
   2240000   0.67005969     1.134975       0              1.1753816     -996828.56      7996.5685    
   2250000   0.67442366     1.1286544      0              1.1693242     -1321311.4      7996.5685    
   2260000   0.68466511     1.1103292      0              1.1516166     -1697687.4      7996.5685    
   2270000   0.67771653     1.1506718      0              1.1915401     -2125034.7      7996.5685    
   2280000   0.68704548     1.1005878      0              1.1420187     -2481921.4      7996.5685    
   2290000   0.70203427     1.0511519      0              1.0934867     -3019758.9      7996.5685    
   2300000   0.66395882     1.1342051      0              1.1742438     -3716036.1      7996.5685    
   2310000   0.66472338     1.1022911      0              1.142376      -4401349.4      7996.5685    
   2320000   0.67058655     1.0840241      0              1.1244625     -5232630.5      7996.5685    
   2330000   0.68420435     1.067574       0              1.1088336     -5727793.3      7996.5685    
   2340000   0.68204718     1.0765323      0              1.1176618     -6665934.2      7996.5685    
   2350000   0.65760561     1.0797998      0              1.1194554     -7725959.7      7996.5685    
   2360000   0.68577516     1.1271053      0              1.1684596     -8914809.7      7996.5685    
   2370000   0.68807205     1.1187727      0              1.1602656     -10067470       7996.5685    
   2380000   0.67615988     1.1281874      0              1.1689619     -10624036       7996.5685    
   2390000   0.68549509     1.0678485      0              1.1091859     -12133420       7996.5685    
   2400000   0.66568999     1.1111729      0              1.151316      -13592952       7996.5685    
   2410000   0.67020443     1.04633        0              1.0867453     -15015374       7996.5685    
   2420000   0.69690356     1.0713598      0              1.1133852     -16534165       7996.5685    
   2430000   0.68607317     1.0295489      0              1.0709212     -17343532       7996.5685    
   2440000   0.66142424     1.0593377      0              1.0992236     -19135224       7996.5685    
   2450000   0.68476155     1.0121276      0              1.0534208     -20956289       7996.5685    
   2460000   0.65409151     1.0478312      0              1.0872749     -22810414       7996.5685    
   2470000   0.67780635     1.049496       0              1.0903697     -24840182       7996.5685    
   2480000   0.67183588     1.001351       0              1.0418648     -25577037       7996.5685    
   2490000   0.67376438     0.95295379     0              0.99358382    -27698953       7996.5685    
   2500000   0.68436098     1.0087717      0              1.0500408     -29528134       7996.5685    
   2510000   0.68521952     1.0214943      0              1.0628151     -31034588       7996.5685    
   2520000   0.67772803     1.0073686      0              1.0482376     -32464863       7996.5685    
   2530000   0.66857062     1.0095504      0              1.0498672     -31536866       7996.5685    
   2540000   0.68072311     1.0162811      0              1.0573308     -32310013       7996.5685    
   2550000   0.69438595     0.99103531     0              1.0329089     -33245997       7996.5685    
   2560000   0.68997595     1.0229989      0              1.0646065     -32724055       7996.5685    
   2570000   0.68251848     0.99199651     0              1.0331544     -31896800       7996.5685    
   2580000   0.67817991     1.0223504      0              1.0632467     -30168534       7996.5685    
   2590000   0.6820053      1.0434399      0              1.0845669     -28586699       7996.5685    
   2600000   0.67170115     1.0062479      0              1.0467535     -28180920       7996.5685    
   2610000   0.66560131     1.0228278      0              1.0629656     -28010211       7996.5685    
   2620000   0.66582797     1.0805965      0              1.120748      -26704600       7996.5685    
   2630000   0.69982128     1.0480111      0              1.0902124     -25879859       7996.5685    
   2640000   0.69557551     1.0267914      0              1.0687367     -25304463       7996.5685    
   2650000   0.68748084     1.0173781      0              1.0588353      5.7156344e+08  7996.5685    
   2660000   0.68035626     1.014921       0              1.0559485     -23889955       7996.5685    
   2670000   0.68376317     0.98639299     0              1.027626      -23768284       7996.5685    
   2680000   0.67301182     1.0343437      0              1.0749283     -22820528       7996.5685    
   2690000   0.69481468     0.98485429     0              1.0267537     -20917729       7996.5685    
   2700000   0.68869534     1.0386582      0              1.0801886     -21398570       7996.5685    
   2710000   0.67105972     1.0307338      0              1.0712008     -22851959       7996.5685    
   2720000   0.67152773     1.0323387      0              1.0728339     -21027284       7996.5685    
   2730000   0.6612981      1.0571965      0              1.0970747     -18850855       7996.5685    
   2740000   0.69304297     1.041982       0              1.0837745     -20179179       7996.5685    
   2750000   0.66466302     1.0825693      0              1.1226505     -19280764       7996.5685    
Loop time of 485.457 on 8 procs for 600000 steps with 4950 atoms

Performance: 106786.074 tau/day, 1235.950 timesteps/s, 6.118 Matom-step/s
91.7% CPU use with 8 MPI tasks x 1 OpenMP threads

MPI task timing breakdown:
Section |  min time  |  avg time  |  max time  |%varavg| %total
---------------------------------------------------------------
Pair    | 87.371     | 100.83     | 112.14     |  83.5 | 20.77
Bond    | 0.068984   | 0.084033   | 0.097328   |   3.2 |  0.02
Neigh   | 5.4793     | 5.4809     | 5.4824     |   0.1 |  1.13
Comm    | 70.688     | 82.28      | 95.764     |  92.8 | 16.95
Output  | 0.72178    | 0.83041    | 0.93458    |   7.7 |  0.17
Modify  | 285.9      | 287.04     | 288.11     |   5.0 | 59.13
Other   |            | 8.912      |            |       |  1.84

Nlocal:         618.75 ave         914 max         300 min
Histogram: 3 0 0 1 0 0 0 0 2 2
Nghost:        1531.38 ave        1901 max        1361 min
Histogram: 2 0 2 3 0 0 0 0 0 1
Neighs:              0 ave           0 max           0 min
Histogram: 8 0 0 0 0 0 0 0 0 0

Total # of neighbors = 0
Ave neighs/atom = 0
Ave special neighs/atom = 2.4545455
Neighbor list builds = 821
Dangerous builds = 12

# Stop deformation
unfix shear

# Relax time
run ${rlxT4}
run 400000
WARNING: Using a manybody potential with bonds/angles/dihedrals and special_bond exclusions (src/pair.cpp:242)
Hybrid pair style last /omp style table/omp
Last active /omp style is pair_style table/omp
WARNING: More than one fix rigid command (src/RIGID/fix_rigid_small.cpp:529)
WARNING: More than one fix rigid command (src/RIGID/fix_rigid_small.cpp:529)
WARNING: More than one fix rigid command (src/RIGID/fix_rigid_small.cpp:529)
WARNING: One or more atoms are time integrated more than once (src/modify.cpp:296)
Per MPI rank memory allocation (min/avg/max) = 26.3 | 26.38 | 26.42 Mbytes
   Step          Temp          E_pair         E_mol          TotEng         Press     
   2750000   0.66466302     1.0825699      0              1.1226511      0.012809561  
   2760000   0.6650405      1.1122647      0              1.1523686     -4658.7355    
   2770000   0.66835158     1.0915995      0              1.1319031     -26616.062    
   2780000   0.66133873     1.1697828      0              1.2096635     -60532.304    
   2790000   0.70468582     1.2101399      0              1.2526346     -106246.12    
   2800000   0.67434239     1.1698124      0              1.2104773     -185711.29    
   2810000   0.67817021     1.1503906      0              1.1912863     -265900.99    
   2820000   0.68775181     1.1893668      0              1.2308404     -339377.5     
   2830000   0.66064883     1.1638114      0              1.2036505     -479010.76    
   2840000   0.66242099     1.1344202      0              1.1743662     -604727.76    
   2850000   0.66032709     1.174981       0              1.2148007     -761046.16    
   2860000   0.69197142     1.1891673      0              1.2308953     -936389.39    
   2870000   0.656734       1.1808481      0              1.2204511     -1096008.8    
   2880000   0.66507704     1.2239116      0              1.2640178     -1264212.5    
   2890000   0.69663213     1.2042861      0              1.2462951     -1517914.6    
   2900000   0.67383755     1.1743572      0              1.2149916     -1722282.7    
   2910000   0.68626091     1.1868228      0              1.2282064     -1995617.6    
   2920000   0.68724215     1.2060175      0              1.2474603     -2213914.8    
   2930000   0.64278784     1.1906945      0              1.2294566     -2536593.2    
   2940000   0.67687418     1.2346804      0              1.2754979     -2792069.9    
   2950000   0.68641868     1.2586268      0              1.30002       -3200954      
   2960000   0.66313178     1.2374968      0              1.2774856     -3468082.1    
   2970000   0.66989527     1.2469085      0              1.2873052     -3788954.5    
   2980000   0.67229677     1.2542176      0              1.2947591     -4007452.6    
   2990000   0.68911487     1.2650977      0              1.3066534     -4483482.6    
   3000000   0.67343163     1.2164557      0              1.2570657     -4852099.3    
   3010000   0.66462755     1.2751998      0              1.3152789     -5245723.9    
   3020000   0.67465682     1.2303836      0              1.2710674     -5490080.8    
   3030000   0.66793908     1.2105023      0              1.250781      -6000707.4    
   3040000   0.66885046     1.2348991      0              1.2752328     -6476970.2    
   3050000   0.66676116     1.2308124      0              1.2710201     -6944815.6    
   3060000   0.66730779     1.2440087      0              1.2842494     -7355743.5    
   3070000   0.65329468     1.2041845      0              1.2435801     -7849888.9    
   3080000   0.67304137     1.2870981      0              1.3276845     -8393843.3    
   3090000   0.69552673     1.292356       0              1.3342984     -8773095      
   3100000   0.67274796     1.2283965      0              1.2689652     -9349981.5    
   3110000   0.67044974     1.2499761      0              1.2904062     -9872816.5    
   3120000   0.65038693     1.2428569      0              1.2820772     -10543540     
   3130000   0.67018918     1.2078604      0              1.2482748     -10993352     
   3140000   0.68700073     1.2646364      0              1.3060646     -11686721     
   3150000   0.64848399     1.2968542      0              1.3359598     -12157486     
Loop time of 338.868 on 8 procs for 400000 steps with 4950 atoms

Performance: 101986.698 tau/day, 1180.402 timesteps/s, 5.843 Matom-step/s
92.8% CPU use with 8 MPI tasks x 1 OpenMP threads

MPI task timing breakdown:
Section |  min time  |  avg time  |  max time  |%varavg| %total
---------------------------------------------------------------
Pair    | 24.596     | 67.632     | 111.43     | 397.3 | 19.96
Bond    | 0.045148   | 0.053229   | 0.06443    |   3.0 |  0.02
Neigh   | 1.1369     | 1.1394     | 1.1415     |   0.2 |  0.34
Comm    | 26.766     | 71.064     | 113.5      | 387.4 | 20.97
Output  | 0.52413    | 0.59396    | 0.6706     |   6.2 |  0.18
Modify  | 188.1      | 191.54     | 195.28     |  18.7 | 56.52
Other   |            | 6.844      |            |       |  2.02

Nlocal:         618.75 ave         901 max         298 min
Histogram: 3 0 0 0 1 0 0 0 2 2
Nghost:        1622.62 ave        1995 max        1442 min
Histogram: 2 1 1 2 1 0 0 0 0 1
Neighs:              0 ave           0 max           0 min
Histogram: 8 0 0 0 0 0 0 0 0 0

Total # of neighbors = 0
Ave neighs/atom = 0
Ave special neighs/atom = 2.4545455
Neighbor list builds = 144
Dangerous builds = 0

Total wall time: 0:43:03
