LAMMPS (27 Jun 2024)
OMP_NUM_THREADS environment is not set. Defaulting to 1 thread. (src/comm.cpp:98)
  using 1 OpenMP thread(s) per MPI task
package omp 0
using multi-threaded neighbor list subroutines
# Script to create a shear deformationgiven a data file

units lj
dimension 3
boundary p p p

# Styles of atoms and that stuff
atom_style bond
bond_style zero nocoeff
pair_style hybrid/overlay/omp zero 0.0 lj/cut/omp 1.12 table/omp linear 5000000 threebody/table
newton on

read_data data.hydrogel extra/bond/per/atom 4 extra/special/per/atom 5
Reading data file ...
  orthogonal box = (-9.99857 -9.99857 -9.99857) to (9.99857 9.99857 9.99857)
  2 by 2 by 2 MPI processor grid
  reading atoms ...
  4710 atoms
  reading velocities ...
  4710 velocities
  scanning bonds ...
  8 = max bonds/atom
  orthogonal box = (-9.99857 -9.99857 -9.99857) to (9.99857 9.99857 9.99857)
  2 by 2 by 2 MPI processor grid
  reading bonds ...
  3210 bonds
Finding 1-2 1-3 1-4 neighbors ...
  special bond factors lj:    0        0        0       
  special bond factors coul:  0        0        0       
     4 = max # of 1-2 neighbors
     3 = max # of 1-3 neighbors
     3 = max # of 1-4 neighbors
     9 = max # of special neighbors
  special bonds CPU = 0.001 seconds
  read_data CPU = 0.023 seconds

change_box all triclinic
Changing box ...
  triclinic box = (-9.99857 -9.99857 -9.99857) to (9.99857 9.99857 9.99857) with tilt (0 0 0)

# Coefficients
include potential.in
bond_coeff * nocoeff
pair_coeff 1 3 zero
pair_coeff 1 4 zero
pair_coeff 2 3 zero
pair_coeff 2 4 zero
pair_coeff 3 3 zero
pair_coeff 1 1 lj/cut/omp 1.0 1.0 1.12 # i-type j-type pair-style eps sigma cutoff
pair_coeff 2 2 lj/cut/omp 1.0 1.0 1.12 # i-type j-type pair-style eps sigma cutoff
pair_coeff 1 2 lj/cut/omp 1.0 1.0 1.12 # i-type j-type pair-style eps sigma cutoff
pair_modify shift yes
pair_coeff 3 4 table/omp sysFiles/pachTab.table POT 0.6 #0.75
Reading pair table potential file sysFiles/pachTab.table with DATE: 2024-07-08
WARNING: 2 of 5000000 force values in table POT are inconsistent with -dE/dr.
WARNING:  Should only be flagged at inflection points (src/pair_table.cpp:466)
pair_coeff 4 4 table/omp sysFiles/pachTab.table POT 0.6 #0.75
Reading pair table potential file sysFiles/pachTab.table with DATE: 2024-07-08
WARNING: 2 of 5000000 force values in table POT are inconsistent with -dE/dr.
WARNING:  Should only be flagged at inflection points (src/pair_table.cpp:466)
pair_coeff * * threebody/table swapMech.3b NULL NULL PA PB

# Molecules
include molDeform.in
molecule CL sysFiles/molecule.patchy.CL
Read molecule template CL:
# Patchy Cross-Linker
  1 molecules
  0 fragments
  5 atoms with max type 3
  4 bonds with max type 1
  0 angles with max type 0
  0 dihedrals with max type 0
  0 impropers with max type 0
molecule MO sysFiles/molecule.patchy.MO
Read molecule template MO:
# Patchy Monomer
  1 molecules
  0 fragments
  3 atoms with max type 4
  2 bonds with max type 1
  0 angles with max type 0
  0 dihedrals with max type 0
  0 impropers with max type 0

# Create patchy particles
group CrossLinker type 1 3
525 atoms in group CrossLinker
group Monomer type 2 4
4185 atoms in group Monomer
group Patches type 3 4
3210 atoms in group Patches
group CL type 1
105 atoms in group CL
group MO type 2
1395 atoms in group MO
group PA type 3
420 atoms in group PA
group CM type 1 2
1500 atoms in group CM
fix pCL CrossLinker rigid/small/omp molecule #langevin 1.0 1.0 100.0 ${seed3}
  create bodies CPU = 0.000 seconds
  105 rigid bodies with 525 atoms
  0.46400431 = max distance from body owner to body atom
fix pMO Monomer rigid/small/omp molecule #langevin 1.0 1.0 100.0 ${seed3}
  create bodies CPU = 0.000 seconds
  1395 rigid bodies with 4185 atoms
  0.5 = max distance from body owner to body atom

# Neighbor list
neighbor 1.8 bin # extra-distance style
neigh_modify exclude molecule/intra CrossLinker
neigh_modify exclude molecule/intra Monomer

fix BrDy all rigid/nve/small molecule langevin 0.05 0.05 0.25 12345 # Brownian Dynamics: langevin + nve
  create bodies CPU = 0.000 seconds
  1500 rigid bodies with 4710 atoms
  0.5 = max distance from body owner to body atom
fix_modify BrDy virial no

thermo ${sstep}
thermo 10000

# Compute global kinetic and potential energy and temperature
compute t all temp
compute tCM CM temp
compute ep all pe
compute ek all ke
compute stressVirial all pressure t ke pair
variable tilt equal v_shear_rate*step*dt
compute blAll Patches pair table/omp 3 epair
compute blCl PA pair table/omp 3 epair


# DUMPS and FIXES

# Save atom positions
dump dumpID all atom ${Nsave} info/patchyParticles_shear.dumpf
dump dumpID all atom 500 info/patchyParticles_shear.dumpf
dump_modify dumpID pbc yes # remap atoms via periodic boundary conditions
#dump_modify dumpID delay ${steps}

# Save global energies and temperature
group Energy empty
0 atoms in group Energy
group BL1 empty
0 atoms in group BL1
group BL2 empty
0 atoms in group BL2
fix fixEng Energy ave/time 1 10 10 c_tCM c_ep c_ek c_t file info/energy_shear.fixf

fix fixBLg BL1 ave/time 1 10 10 c_blAll file info/bondlenPatch_shear.fixf
fix fixBLc BL2 ave/time 1 10 10 c_blCl file info/bondlenCL_shear.fixf


# Save Stress tensor
group Stress empty
0 atoms in group Stress
fix fixStress5 Stress ave/time 1 ${Nave} ${Nave} v_tilt c_stressVirial[*] file info/stressVirial_shear.fixf
fix fixStress5 Stress ave/time 1 2000 ${Nave} v_tilt c_stressVirial[*] file info/stressVirial_shear.fixf
fix fixStress5 Stress ave/time 1 2000 2000 v_tilt c_stressVirial[*] file info/stressVirial_shear.fixf

# RUN SIMULATION

# Introduce deformation
fix shear all deform 1 xy erate ${shear_rate} remap x flip yes
fix shear all deform 1 xy erate 0.02 remap x flip yes

# Run deformation
timestep ${tstep}
timestep 0.0005
run ${shear_it}
run 1200000

CITE-CITE-CITE-CITE-CITE-CITE-CITE-CITE-CITE-CITE-CITE-CITE-CITE

Your simulation uses code contributions which should be cited:

- Type Label Framework: https://doi.org/10.1021/acs.jpcb.3c08419

@Article{Gissinger24,
 author = {Jacob R. Gissinger, Ilia Nikiforov, Yaser Afshar, Brendon Waters, Moon-ki Choi, Daniel S. Karls, Alexander Stukowski, Wonpil Im, Hendrik Heinz, Axel Kohlmeyer, and Ellad B. Tadmor},
 title = {Type Label Framework for Bonded Force Fields in LAMMPS},
 journal = {J. Phys. Chem. B},
 year =    2024,
 volume =  128,
 number =  13,
 pages =   {3282â€“-3297}
}

CITE-CITE-CITE-CITE-CITE-CITE-CITE-CITE-CITE-CITE-CITE-CITE-CITE

WARNING: Using a manybody potential with bonds/angles/dihedrals and special_bond exclusions (src/pair.cpp:242)
Hybrid pair style last /omp style table/omp
Last active /omp style is pair_style table/omp
WARNING: More than one fix rigid command (src/RIGID/fix_rigid_small.cpp:529)
WARNING: More than one fix rigid command (src/RIGID/fix_rigid_small.cpp:529)
WARNING: More than one fix rigid command (src/RIGID/fix_rigid_small.cpp:529)
WARNING: One or more atoms are time integrated more than once (src/modify.cpp:296)
Neighbor list info ...
  update: every = 1 steps, delay = 0 steps, check = yes
  max neighbors/atom: 2000, page size: 100000
  master list distance cutoff = 2.92
  ghost atom cutoff = 2.92
  binsize = 1.46, bins = 14 14 14
  6 neighbor lists, perpetual/occasional/extra = 6 0 0
  (1) pair zero, perpetual, skip from (5)
      attributes: half, newton on, omp
      pair build: skip/omp
      stencil: none
      bin: none
  (2) pair lj/cut/omp, perpetual, skip from (5)
      attributes: half, newton on, omp
      pair build: skip/omp
      stencil: none
      bin: none
  (3) pair table/omp, perpetual, skip from (5)
      attributes: half, newton on, omp, cut 2.4
      pair build: skip/omp
      stencil: none
      bin: none
  (4) pair threebody/table, perpetual, skip from (6)
      attributes: full, newton on, omp, cut 2.4
      pair build: skip/omp
      stencil: none
      bin: none
  (5) neighbor class addition, perpetual
      attributes: half, newton on, omp
      pair build: half/bin/newton/tri/omp
      stencil: half/bin/3d/tri
      bin: standard
  (6) neighbor class addition, perpetual
      attributes: full, newton on, omp, cut 2.4
      pair build: full/bin/omp
      stencil: full/bin/3d
      bin: standard
WARNING: Computing temperature of portions of rigid bodies (src/RIGID/fix_rigid_small.cpp:1178)
WARNING: Computing temperature of portions of rigid bodies (src/RIGID/fix_rigid_small.cpp:1178)
WARNING: Computing temperature of portions of rigid bodies (src/RIGID/fix_rigid_small.cpp:1178)
Per MPI rank memory allocation (min/avg/max) = 25.17 | 25.2 | 25.22 Mbytes
   Step          Temp          E_pair         E_mol          TotEng         Press          Volume    
         0   0.37903795     0.38828795     0              0.43162381     0.025599009    7996.5685    
     10000   0.35172909     0.41915536     0              0.45936897    -1998.9645      7996.5685    
     20000   0.37231771     0.43376844     0              0.47633598    -8888.2957      7996.5685    
     30000   0.35972896     0.46149097     0              0.50261922    -22196.828      7996.5685    
     40000   0.36544378     0.4543314      0              0.49611303    -42538.296      7996.5685    
     50000   0.35907312     0.5072642      0              0.54831746    -71775.317      7996.5685    
     60000   0.3466332      0.50405975     0              0.54369075    -103992.64      7996.5685    
     70000   0.36127756     0.52113166     0              0.56243696    -152380.3       7996.5685    
     80000   0.36999912     0.51763153     0              0.55993397    -208830.54      7996.5685    
     90000   0.36047765     0.47304634     0              0.51426018    -280275.77      7996.5685    
    100000   0.35287024     0.48859554     0              0.52893962    -367862.02      7996.5685    
    110000   0.36763779     0.46781889     0              0.50985136    -460276.85      7996.5685    
    120000   0.35287532     0.53356615     0              0.57391082    -590431.15      7996.5685    
    130000   0.35566448     0.50771969     0              0.54838324    -713698.05      7996.5685    
    140000   0.37027715     0.48716932     0              0.52950356    -858957.55      7996.5685    
    150000   0.36762864     0.46270767     0              0.5047391     -1018382.8      7996.5685    
    160000   0.36892034     0.46760845     0              0.50978756    -1084919.5      7996.5685    
    170000   0.36636383     0.48430277     0              0.52618959    -1291431.3      7996.5685    
    180000   0.3576212      0.47745194     0              0.51833921    -1519689.6      7996.5685    
    190000   0.3694866      0.46544537     0              0.50768922    -1754158.1      7996.5685    
    200000   0.36122946     0.45325109     0              0.4945509     -2014287.6      7996.5685    
    210000   0.3635458      0.45067937     0              0.492244      -2305381.8      7996.5685    
    220000   0.3558573      0.45722901     0              0.49791461    -2668804.5      7996.5685    
    230000   0.36748824     0.44736455     0              0.48937993    -3015838.8      7996.5685    
    240000   0.3589026      0.46622143     0              0.50725519    -3383902        7996.5685    
    250000   0.35585826     0.48285539     0              0.52354109    -3789040.1      7996.5685    
    260000   0.35562255     0.47006809     0              0.51072685    -3565006.8      7996.5685    
    270000   0.35793046     0.51011943     0              0.55104206    -4085458        7996.5685    
    280000   0.36869124     0.49345288     0              0.53560579    -4518477        7996.5685    
    290000   0.35891174     0.49368738     0              0.53472219    -5069176.2      7996.5685    
    300000   0.36061997     0.48265872     0              0.52388884    -5549015.7      7996.5685    
    310000   0.36457442     0.49288116     0              0.5345634     -6251538.7      7996.5685    
    320000   0.35262486     0.53746218     0              0.57777821    -6897764.3      7996.5685    
    330000   0.36710319     0.49962094     0              0.54159229    -7502179.4      7996.5685    
    340000   0.3708636      0.51410776     0              0.55650904    -8240259.5      7996.5685    
    350000   0.35332306     0.51556979     0              0.55596565    -8978730.9      7996.5685    
    360000   0.36052606     0.51982355     0              0.56104293    -8211746.1      7996.5685    
    370000   0.37145523     0.48911519     0              0.53158411    -8936385.1      7996.5685    
    380000   0.35377073     0.53862973     0              0.57907676    -9865152.7      7996.5685    
    390000   0.36418711     0.55500715     0              0.5966451     -10884066       7996.5685    
    400000   0.36511751     0.47957176     0              0.52131609    -11717905       7996.5685    
    410000   0.37322424     0.53618041     0              0.57885159    -12672926       7996.5685    
    420000   0.36129532     0.5273871      0              0.56869443    -13596536       7996.5685    
    430000   0.36154483     0.52922969     0              0.57056555    -14909544       7996.5685    
    440000   0.365592       0.53464346     0              0.57644204    -16059958       7996.5685    
    450000   0.37228058     0.50219606     0              0.54475935    -16916985       7996.5685    
    460000   0.36268067     0.5251342      0              0.56659992    -15341087       7996.5685    
    470000   0.36634838     0.51556888     0              0.55745394    -16618038       7996.5685    
    480000   0.36686343     0.56349735     0              0.60544129    -17784349       7996.5685    
    490000   0.35649114     0.52724712     0              0.56800518    -18895878       7996.5685    
    500000   0.35022804     0.55156531     0              0.59160731    -20272723       7996.5685    
    510000   0.36451722     0.53565639     0              0.57733208    -21939978       7996.5685    
    520000   0.3597613      0.51730098     0              0.55843293    -23380975       7996.5685    
    530000   0.35878294     0.55193947     0              0.59295956    -24590574       7996.5685    
    540000   0.36716652     0.55944766     0              0.60142625    -26329314       7996.5685    
    550000   0.34972616     0.58202807     0              0.62201268    -27920348       7996.5685    
    560000   0.361567       0.55649375     0              0.59783214    -24672636       7996.5685    
    570000   0.36185979     0.5324764      0              0.57384827    -26128614       7996.5685    
    580000   0.36293363     0.52904948     0              0.57054412    -28044817       7996.5685    
    590000   0.36546226     0.55690944     0              0.59869318    -29971462       7996.5685    
    600000   0.36094172     0.51964587     0              0.56091277    -31275344       7996.5685    
    610000   0.37238162     0.53207936     0              0.5746542     -33469321       7996.5685    
    620000   0.36846803     0.54767447     0              0.58980187    -35349912       7996.5685    
    630000   0.35902293     0.51754222     0              0.55858975    -36912947       7996.5685    
    640000   0.35470808     0.54124419     0              0.5817984     -38252439       7996.5685    
    650000   0.36806233     0.50991533     0              0.55199634    -40228867       7996.5685    
    660000   0.35385309     0.55706441     0              0.59752086    -35655320       7996.5685    
    670000   0.35903549     0.51660627     0              0.55765524    -37593336       7996.5685    
    680000   0.37315137     0.52496654     0              0.56762939    -39462071       7996.5685    
    690000   0.35792457     0.52823545     0              0.5691574     -41301873       7996.5685    
    700000   0.37249994     0.49804109     0              0.54062946    -43007268       7996.5685    
    710000   0.36498936     0.50719475     0              0.54892443    -45520297       7996.5685    
    720000   0.36956772     0.48833945     0              0.53059258    -47904040       7996.5685    
    730000   0.36355984     0.49869252     0              0.54025875    -49603759       7996.5685    
    740000   0.35674892     0.46495231     0              0.50573985    -51750301       7996.5685    
    750000   0.36596516     0.46562881     0              0.50747005    -53770926       7996.5685    
    760000   0.35883576     0.49214617     0              0.5331723     -47591709       7996.5685    
    770000   0.36795606     0.47909687     0              0.52116573    -49304460       7996.5685    
    780000   0.37098531     0.47828316     0              0.52069836    -49867913       7996.5685    
    790000   0.37230185     0.46453126     0              0.50709698    -51056510       7996.5685    
    800000   0.35634641     0.46783542     0              0.50857694    -52892336       7996.5685    
    810000   0.34881069     0.50733962     0              0.54721957    -55101124       7996.5685    
    820000   0.3606046      0.51113781     0              0.55236617    -56562738       7996.5685    
    830000   0.36014332     0.49853654     0              0.53971216    -57874301       7996.5685    
    840000   0.36899846     0.50508687     0              0.54727491    -58806126       7996.5685    
    850000   0.36061784     0.46269243     0              0.5039223     -59971231       7996.5685    
    860000   0.36572386     0.5389752      0              0.58078885    -49451442       7996.5685    
    870000   0.35482946     0.51462053     0              0.55518861    -51049859       7996.5685    
    880000   0.37046575     0.52385414     0              0.56620994    -51378933       7996.5685    
    890000   0.36698764     0.51792179     0              0.55987993    -53532585       7996.5685    
    900000   0.36365646     0.50358761     0              0.5451649     -55476763       7996.5685    
    910000   0.36311105     0.52932096     0              0.57083588    -56094320       7996.5685    
    920000   0.37431475     0.51278408     0              0.55557994    -58571259       7996.5685    
    930000   0.35876698     0.51609433     0              0.55711259    -61226216       7996.5685    
    940000   0.35296642     0.50529678     0              0.54565186    -61877264       7996.5685    
    950000   0.36465272     0.48725974     0              0.52895093    -63771654       7996.5685    
    960000   0.36171913     0.52594302     0              0.56729881    -51088995       7996.5685    
    970000   0.3623028      0.50160716     0              0.54302968    -52715129       7996.5685    
    980000   0.36181761     0.51466912     0              0.55603617    -53288740       7996.5685    
    990000   0.37344703     0.49299388     0              0.53569053    -61282186       7996.5685    
   1000000   0.35557833     0.51705984     0              0.55771354    -57014870       7996.5685    
   1010000   0.3625508      0.48701772     0              0.52846859    -56439359       7996.5685    
   1020000   0.35753924     0.51429843     0              0.55517632    -58744991       7996.5685    
   1030000   0.36320648     0.53051469     0              0.57204052    -60561961       7996.5685    
   1040000   0.37138716     0.52990261     0              0.57236376    -61748500       7996.5685    
   1050000   0.36078352     0.50116902     0              0.54241783    -60985627       7996.5685    
   1060000   0.36614809     0.51816233     0              0.56002449    -47590567       7996.5685    
   1070000   0.36125516     0.51980784     0              0.56111058    -48313260       7996.5685    
   1080000   0.37228515     0.51779298     0              0.56035679    -50880277       7996.5685    
   1090000   0.37070213     0.48705104     0              0.52943387    -50459909       7996.5685    
   1100000   0.36635737     0.49091002     0              0.5327961     -53781773       7996.5685    
   1110000   0.36633039     0.50673653     0              0.54861953    -54064852       7996.5685    
   1120000   0.36446171     0.49925866     0              0.540928      -55793002       7996.5685    
   1130000   0.36664856     0.51320028     0              0.55511965    -55060596       7996.5685    
   1140000   0.36039212     0.49887275     0              0.54007682    -58718279       7996.5685    
   1150000   0.35550611     0.49397794     0              0.53462338    -58217911       7996.5685    
   1160000   0.35464804     0.46645236     0              0.5069997     -45766616       7996.5685    
   1170000   0.36810277     0.49505214     0              0.53713778    -46171925       7996.5685    
   1180000   0.36753726     0.47786132     0              0.5198823     -45203301       7996.5685    
   1190000   0.36243185     0.51370234     0              0.55513961    -47852497       7996.5685    
   1200000   0.36413284     0.4631217      0              0.50475345    -47985138       7996.5685    
Loop time of 870.757 on 8 procs for 1200000 steps with 4710 atoms

Performance: 59534.407 tau/day, 1378.111 timesteps/s, 6.491 Matom-step/s
89.5% CPU use with 8 MPI tasks x 1 OpenMP threads

MPI task timing breakdown:
Section |  min time  |  avg time  |  max time  |%varavg| %total
---------------------------------------------------------------
Pair    | 134.69     | 151.03     | 175.03     | 116.4 | 17.34
Bond    | 0.12967    | 0.16675    | 0.1934     |   6.1 |  0.02
Neigh   | 4.2326     | 4.2335     | 4.2345     |   0.0 |  0.49
Comm    | 100.07     | 122.6      | 137.9      | 120.8 | 14.08
Output  | 1.3225     | 1.5346     | 1.733      |  10.9 |  0.18
Modify  | 573.63     | 574.87     | 576.01     |   3.7 | 66.02
Other   |            | 16.32      |            |       |  1.87

Nlocal:         588.75 ave         716 max         482 min
Histogram: 1 1 1 1 0 2 0 0 1 1
Nghost:        1777.62 ave        1873 max        1615 min
Histogram: 1 0 0 0 1 1 1 2 0 2
Neighs:              0 ave           0 max           0 min
Histogram: 8 0 0 0 0 0 0 0 0 0

Total # of neighbors = 0
Ave neighs/atom = 0
Ave special neighs/atom = 2.2229299
Neighbor list builds = 841
Dangerous builds = 12

# Stop deformation
unfix shear

# Relax time
run ${rlxT1}
run 100000
WARNING: Using a manybody potential with bonds/angles/dihedrals and special_bond exclusions (src/pair.cpp:242)
Hybrid pair style last /omp style table/omp
Last active /omp style is pair_style table/omp
WARNING: More than one fix rigid command (src/RIGID/fix_rigid_small.cpp:529)
WARNING: More than one fix rigid command (src/RIGID/fix_rigid_small.cpp:529)
WARNING: More than one fix rigid command (src/RIGID/fix_rigid_small.cpp:529)
WARNING: One or more atoms are time integrated more than once (src/modify.cpp:296)
WARNING: Computing temperature of portions of rigid bodies (src/RIGID/fix_rigid_small.cpp:1178)
WARNING: Computing temperature of portions of rigid bodies (src/RIGID/fix_rigid_small.cpp:1178)
WARNING: Computing temperature of portions of rigid bodies (src/RIGID/fix_rigid_small.cpp:1178)
Per MPI rank memory allocation (min/avg/max) = 26.21 | 26.23 | 26.25 Mbytes
   Step          Temp          E_pair         E_mol          TotEng         Press     
   1200000   0.36413284     0.46312185     0              0.5047536     -0.014100165  
   1210000   0.36260009     0.47627507     0              0.51773158    -748.66264    
   1220000   0.36506787     0.47905863     0              0.52079728    -7360.043     
   1230000   0.35762645     0.47946747     0              0.52035534    -24163.514    
   1240000   0.35705468     0.4825388      0              0.52336129    -44961.505    
   1250000   0.36622787     0.51535986     0              0.55723113    -75369.091    
   1260000   0.35261546     0.49927726     0              0.53959222    -108067.65    
   1270000   0.37009735     0.53499357     0              0.57730725    -156352.63    
   1280000   0.36549073     0.56091964     0              0.60270664    -201802.38    
   1290000   0.35216094     0.52429162     0              0.56455461    -260594.35    
   1300000   0.36118275     0.51829456     0              0.55958902    -334950.05    
Loop time of 70.4178 on 8 procs for 100000 steps with 4710 atoms

Performance: 61348.144 tau/day, 1420.096 timesteps/s, 6.689 Matom-step/s
89.6% CPU use with 8 MPI tasks x 1 OpenMP threads

MPI task timing breakdown:
Section |  min time  |  avg time  |  max time  |%varavg| %total
---------------------------------------------------------------
Pair    | 9.887      | 12.676     | 16.619     |  64.6 | 18.00
Bond    | 0.010766   | 0.013725   | 0.017449   |   1.9 |  0.02
Neigh   | 0.1019     | 0.10198    | 0.10202    |   0.0 |  0.14
Comm    | 6.364      | 10.226     | 12.9       |  70.0 | 14.52
Output  | 0.10581    | 0.12417    | 0.14031    |   3.2 |  0.18
Modify  | 45.607     | 45.933     | 46.268     |   3.4 | 65.23
Other   |            | 1.343      |            |       |  1.91

Nlocal:         588.75 ave         754 max         485 min
Histogram: 2 0 2 1 0 1 1 0 0 1
Nghost:        1782.88 ave        1901 max        1594 min
Histogram: 1 0 0 0 1 1 3 0 1 1
Neighs:              0 ave           0 max           0 min
Histogram: 8 0 0 0 0 0 0 0 0 0

Total # of neighbors = 0
Ave neighs/atom = 0
Ave special neighs/atom = 2.2229299
Neighbor list builds = 20
Dangerous builds = 0

# Introduce deformation
fix shear all deform 1 xy erate ${shear_rate} remap x flip yes
fix shear all deform 1 xy erate 0.02 remap x flip yes

# Re-run deformation
timestep ${tstep}
timestep 0.0005
run ${shear_it}
run 1200000
WARNING: Using a manybody potential with bonds/angles/dihedrals and special_bond exclusions (src/pair.cpp:242)
Hybrid pair style last /omp style table/omp
Last active /omp style is pair_style table/omp
WARNING: More than one fix rigid command (src/RIGID/fix_rigid_small.cpp:529)
WARNING: More than one fix rigid command (src/RIGID/fix_rigid_small.cpp:529)
WARNING: More than one fix rigid command (src/RIGID/fix_rigid_small.cpp:529)
WARNING: One or more atoms are time integrated more than once (src/modify.cpp:296)
WARNING: Computing temperature of portions of rigid bodies (src/RIGID/fix_rigid_small.cpp:1178)
WARNING: Computing temperature of portions of rigid bodies (src/RIGID/fix_rigid_small.cpp:1178)
WARNING: Computing temperature of portions of rigid bodies (src/RIGID/fix_rigid_small.cpp:1178)
Per MPI rank memory allocation (min/avg/max) = 26.22 | 26.24 | 26.26 Mbytes
   Step          Temp          E_pair         E_mol          TotEng         Press          Volume    
   1300000   0.36118275     0.51829456     0              0.55958902     0.0085000695   7996.5685    
   1310000   0.36781785     0.55443378     0              0.59648684    -1928.2456      7996.5685    
   1320000   0.36629776     0.52421036     0              0.56608963    -11241.872      7996.5685    
   1330000   0.36361011     0.54016107     0              0.58173306    -27003.546      7996.5685    
   1340000   0.36776196     0.50735514     0              0.54940181    -51599.379      7996.5685    
   1350000   0.3706792      0.54821441     0              0.59059462    -87324.518      7996.5685    
   1360000   0.36174062     0.54441564     0              0.58577388    -128403.68      7996.5685    
   1370000   0.37121901     0.56270718     0              0.6051491     -181857.72      7996.5685    
   1380000   0.35649267     0.53916541     0              0.57992365    -246584.16      7996.5685    
   1390000   0.36501774     0.5594886      0              0.60122152    -339402.84      7996.5685    
   1400000   0.36018385     0.51873775     0              0.559918      -436299.12      7996.5685    
   1410000   0.3558388      0.54587919     0              0.58656268    -555980.54      7996.5685    
   1420000   0.36754853     0.55843185     0              0.60045412    -675912.87      7996.5685    
   1430000   0.37522622     0.55144433     0              0.59434439    -825634.49      7996.5685    
   1440000   0.35691928     0.46536823     0              0.50617524    -987691.86      7996.5685    
   1450000   0.36959399     0.50390697     0              0.54616309    -1191824.1      7996.5685    
   1460000   0.36501164     0.48661032     0              0.52834254    -1276057.2      7996.5685    
   1470000   0.36356546     0.48617001     0              0.52773689    -1518318.8      7996.5685    
   1480000   0.37639532     0.47951443     0              0.52254816    -1752617.7      7996.5685    
   1490000   0.36989636     0.50566101     0              0.54795171    -2017256.8      7996.5685    
   1500000   0.35916283     0.5328831      0              0.57394662    -2279394        7996.5685    
   1510000   0.38110766     0.49372304     0              0.53729554    -2589573.2      7996.5685    
   1520000   0.36895416     0.50165764     0              0.54384061    -2901169.2      7996.5685    
   1530000   0.36768638     0.52448829     0              0.56652632    -3196173.5      7996.5685    
   1540000   0.37192481     0.53859439     0              0.581117      -3680031.9      7996.5685    
   1550000   0.36134781     0.5405694      0              0.58188273    -4044754.6      7996.5685    
   1560000   0.36655408     0.55023431     0              0.59214288    -4204584.4      7996.5685    
   1570000   0.37441716     0.52270312     0              0.56551069    -4701893.1      7996.5685    
   1580000   0.35420271     0.54559241     0              0.58608883    -5148096.3      7996.5685    
   1590000   0.36619682     0.57837065     0              0.62023837    -5640817        7996.5685    
   1600000   0.37378691     0.55189549     0              0.594631      -6280106.6      7996.5685    
   1610000   0.35508987     0.58103047     0              0.62162832    -6799060.5      7996.5685    
   1620000   0.36514843     0.61536094     0              0.6571088     -7396120.5      7996.5685    
   1630000   0.3504182      0.58799525     0              0.62805899    -8118111.1      7996.5685    
   1640000   0.36170995     0.61192881     0              0.65328355    -8650732.3      7996.5685    
   1650000   0.36880996     0.58179264     0              0.62395912    -9414702.8      7996.5685    
   1660000   0.36806208     0.58885891     0              0.63093989    -9569889.9      7996.5685    
   1670000   0.35859436     0.61445079     0              0.65544932    -10370956       7996.5685    
   1680000   0.36268064     0.56571389     0              0.60717961    -11117663       7996.5685    
   1690000   0.35561734     0.55515438     0              0.59581254    -11867588       7996.5685    
   1700000   0.369854       0.57990892     0              0.62219478    -12672060       7996.5685    
   1710000   0.3542812      0.56144468     0              0.60195008    -13755874       7996.5685    
   1720000   0.36527748     0.58748957     0              0.62925219    -14606114       7996.5685    
   1730000   0.37568146     0.56101985     0              0.60397196    -15512180       7996.5685    
   1740000   0.36525746     0.59845774     0              0.64021807    -16425380       7996.5685    
   1750000   0.35540823     0.57411466     0              0.61474891    -17359806       7996.5685    
   1760000   0.36122544     0.54960433     0              0.59090367    -17279077       7996.5685    
   1770000   0.36413943     0.54578494     0              0.58741744    -18608210       7996.5685    
   1780000   0.36924351     0.5322374      0              0.57445346    -19583130       7996.5685    
   1790000   0.37726696     0.57151926     0              0.61465265    -20917737       7996.5685    
   1800000   0.35787537     0.59596862     0              0.63688494    -21784867       7996.5685    
   1810000   0.35964347     0.58550281     0              0.62662129    -23360147       7996.5685    
   1820000   0.36639873     0.57201503     0              0.61390584    -24322267       7996.5685    
   1830000   0.35587091     0.568418       0              0.60910515    -25999507       7996.5685    
   1840000   0.36124539     0.58563603     0              0.62693765    -26842111       7996.5685    
   1850000   0.38589924     0.56912277     0              0.6132431     -28748814       7996.5685    
   1860000   0.35023308     0.60408207     0              0.64412464    -27986466       7996.5685    
   1870000   0.35836349     0.57354665     0              0.61451878    -29601427       7996.5685    
   1880000   0.36710449     0.56736198     0              0.60933348    -31260591       7996.5685    
   1890000   0.37050435     0.59198301     0              0.63434322    -32989009       7996.5685    
   1900000   0.36858661     0.55913816     0              0.60127911    -34220414       7996.5685    
   1910000   0.35823691     0.54750459     0              0.58846225    -36216089       7996.5685    
   1920000   0.36313827     0.60173254     0              0.64325057    -37533463       7996.5685    
   1930000   0.37825653     0.58434342     0              0.62758994    -39283077       7996.5685    
   1940000   0.3777386      0.60132005     0              0.64450737    -41245219       7996.5685    
   1950000   0.36129278     0.57047299     0              0.61178003    -42141133       7996.5685    
   1960000   0.37055003     0.5612458      0              0.60361123    -40434360       7996.5685    
   1970000   0.36133368     0.56482255     0              0.60613427    -43029507       7996.5685    
   1980000   0.36582809     0.58374966     0              0.62557523    -44109415       7996.5685    
   1990000   0.37639353     0.5773904      0              0.62042393    -45349539       7996.5685    
   2000000   0.35225903     0.54488286     0              0.58515706    -47161423       7996.5685    
   2010000   0.37330277     0.57087842     0              0.61355858    -48289911       7996.5685    
   2020000   0.3700001      0.5584828      0              0.60078536    -49132818       7996.5685    
   2030000   0.36887486     0.55544961     0              0.59762352    -50138345       7996.5685    
   2040000   0.36481276     0.5671461      0              0.60885558    -49549410       7996.5685    
   2050000   0.36730437     0.57440747     0              0.61640183    -50191782       7996.5685    
   2060000   0.36287451     0.55050082     0              0.5919887     -47355828       7996.5685    
   2070000   0.36974076     0.54286648     0              0.58513939    -48749955       7996.5685    
   2080000   0.3705017      0.56380336     0              0.60616327    -50256270       7996.5685    
   2090000   0.35745231     0.54305223     0              0.58392019    -51040929       7996.5685    
   2100000   0.35301247     0.56731049     0              0.60767084    -52190368       7996.5685    
   2110000   0.37165119     0.56040791     0              0.60289924    -52489884       7996.5685    
   2120000   0.35930581     0.56034509     0              0.60142496    -53533764       7996.5685    
   2130000   0.37304386     0.57393596     0              0.61658652    -53855153       7996.5685    
   2140000   0.36473199     0.58877743     0              0.63047768    -54347752       7996.5685    
   2150000   0.35389205     0.55866787     0              0.59912877    -54278124       7996.5685    
   2160000   0.36961436     0.5705774      0              0.61283586    -50309713       7996.5685    
   2170000   0.37138201     0.57237569     0              0.61483624    -51043616       7996.5685    
   2180000   0.36686288     0.56451463     0              0.6064585     -49658389       7996.5685    
   2190000   0.36178188     0.57275487     0              0.61411783    -50354514       7996.5685    
   2200000   0.36938842     0.5547596      0              0.59699222    -50830282       7996.5685    
   2210000   0.36744133     0.53475717     0              0.57676718    -49774007       7996.5685    
   2220000   0.37526561     0.52287538     0              0.56577995    -50612406       7996.5685    
   2230000   0.36058291     0.55234166     0              0.59356754    -50270694       7996.5685    
   2240000   0.36691756     0.52867098     0              0.5706211     -49220254       7996.5685    
   2250000   0.36860065     0.50824163     0              0.55038418    -49494357       7996.5685    
   2260000   0.36495446     0.52633925     0              0.56806493    -45807657       7996.5685    
   2270000   0.35767592     0.54467836     0              0.58557188    -44319000       7996.5685    
   2280000   0.36167537     0.53595986     0              0.57731064    -43588682       7996.5685    
   2290000   0.37562982     0.55574586     0              0.59869207    -44451161       7996.5685    
   2300000   0.36439333     0.56121242     0              0.60287395    -45336702       7996.5685    
   2310000   0.35919055     0.53905782     0              0.58012451    -46900903       7996.5685    
   2320000   0.36720629     0.5272224      0              0.56920554    -47367840       7996.5685    
   2330000   0.36777409     0.55080982     0              0.59285787    -48740367       7996.5685    
   2340000   0.36956652     0.55394735     0              0.59620034    -48388827       7996.5685    
   2350000   0.36006535     0.57239786     0              0.61356457    -48547113       7996.5685    
   2360000   0.36913415     0.55190239     0              0.59410594    -44586591       7996.5685    
   2370000   0.37277173     0.54689701     0              0.58951645    -46048300       7996.5685    
   2380000   0.3620227      0.56574201     0              0.60713251    -46542046       7996.5685    
   2390000   0.36595989     0.55268196     0              0.5945226     -45247331       7996.5685    
   2400000   0.35345666     0.57729006     0              0.61770119    -45489846       7996.5685    
   2410000   0.3645292      0.54942288     0              0.59109994    -46118769       7996.5685    
   2420000   0.35289757     0.58033255     0              0.62067975    -47405597       7996.5685    
   2430000   0.35857252     0.56334468     0              0.60434071    -49138151       7996.5685    
   2440000   0.35642284     0.59213904     0              0.63288929    -48641258       7996.5685    
   2450000   0.36187549     0.55909413     0              0.60046779    -48015252       7996.5685    
   2460000   0.37153487     0.57555682     0              0.61803485    -42443071       7996.5685    
   2470000   0.36731922     0.58377575     0              0.62577181    -41532331       7996.5685    
   2480000   0.3571935      0.61040852     0              0.65124689    -41287888       7996.5685    
   2490000   0.36899026     0.61398837     0              0.65617548    -42482310       7996.5685    
   2500000   0.37928292     0.57233259     0              0.61569646    -41118159       7996.5685    
Loop time of 900.281 on 8 procs for 1200000 steps with 4710 atoms

Performance: 57582.003 tau/day, 1332.917 timesteps/s, 6.278 Matom-step/s
90.0% CPU use with 8 MPI tasks x 1 OpenMP threads

MPI task timing breakdown:
Section |  min time  |  avg time  |  max time  |%varavg| %total
---------------------------------------------------------------
Pair    | 125.88     | 157.74     | 189.47     | 161.3 | 17.52
Bond    | 0.13695    | 0.18004    | 0.23153    |   8.0 |  0.02
Neigh   | 4.4195     | 4.4213     | 4.4233     |   0.1 |  0.49
Comm    | 104.5      | 134.98     | 165.3      | 165.5 | 14.99
Output  | 1.3294     | 1.5371     | 1.7391     |  10.9 |  0.17
Modify  | 582.45     | 584.65     | 586.46     |   5.1 | 64.94
Other   |            | 16.77      |            |       |  1.86

Nlocal:         588.75 ave         722 max         434 min
Histogram: 2 1 0 0 0 1 1 0 0 3
Nghost:           1858 ave        2069 max        1643 min
Histogram: 1 1 1 1 0 0 1 1 1 1
Neighs:              0 ave           0 max           0 min
Histogram: 8 0 0 0 0 0 0 0 0 0

Total # of neighbors = 0
Ave neighs/atom = 0
Ave special neighs/atom = 2.2229299
Neighbor list builds = 832
Dangerous builds = 12

# Stop deformation
unfix shear

# Relax time
run ${rlxT2}
run 200000
WARNING: Using a manybody potential with bonds/angles/dihedrals and special_bond exclusions (src/pair.cpp:242)
Hybrid pair style last /omp style table/omp
Last active /omp style is pair_style table/omp
WARNING: More than one fix rigid command (src/RIGID/fix_rigid_small.cpp:529)
WARNING: More than one fix rigid command (src/RIGID/fix_rigid_small.cpp:529)
WARNING: More than one fix rigid command (src/RIGID/fix_rigid_small.cpp:529)
WARNING: One or more atoms are time integrated more than once (src/modify.cpp:296)
WARNING: Computing temperature of portions of rigid bodies (src/RIGID/fix_rigid_small.cpp:1178)
WARNING: Computing temperature of portions of rigid bodies (src/RIGID/fix_rigid_small.cpp:1178)
WARNING: Computing temperature of portions of rigid bodies (src/RIGID/fix_rigid_small.cpp:1178)
Per MPI rank memory allocation (min/avg/max) = 26.21 | 26.23 | 26.25 Mbytes
   Step          Temp          E_pair         E_mol          TotEng         Press     
   2500000   0.37928292     0.57233284     0              0.61569671    -0.043188879  
   2510000   0.3632492      0.56717464     0              0.60870536    -1026.5243    
   2520000   0.37028764     0.56508229     0              0.60741772    -9332.5329    
   2530000   0.36417234     0.55824188     0              0.59987814    -26484.624    
   2540000   0.35362536     0.56183833     0              0.60226875    -48528.583    
   2550000   0.36171945     0.58131294     0              0.62266876    -76027.49     
   2560000   0.3564322      0.60118875     0              0.64194007    -119717.56    
   2570000   0.35341241     0.58445211     0              0.62485818    -154427.08    
   2580000   0.36036567     0.58379637     0              0.62499741    -213261.97    
   2590000   0.36872533     0.60785015     0              0.65000696    -276865.45    
   2600000   0.36245188     0.6377965      0              0.67923606    -357053.15    
   2610000   0.37402452     0.62884391     0              0.67160658    -395525.82    
   2620000   0.3690167      0.63864067     0              0.68083079    -498106.27    
   2630000   0.36833235     0.61253223     0              0.65464411    -592625.65    
   2640000   0.3612646      0.62712713     0              0.66843094    -700394.4     
   2650000   0.36627512     0.64588259     0              0.68775926    -793619.14    
   2660000   0.3682111      0.6574639      0              0.69956192    -915948.73    
   2670000   0.36554057     0.61852367     0              0.66031637    -977717.8     
   2680000   0.36566113     0.64015209     0              0.68195857    -1121243.8    
   2690000   0.37034177     0.65231345     0              0.69465508    -1261547.5    
   2700000   0.35634254     0.63646473     0              0.67720581    -1422913      
Loop time of 149.093 on 8 procs for 200000 steps with 4710 atoms

Performance: 57950.436 tau/day, 1341.445 timesteps/s, 6.318 Matom-step/s
90.1% CPU use with 8 MPI tasks x 1 OpenMP threads

MPI task timing breakdown:
Section |  min time  |  avg time  |  max time  |%varavg| %total
---------------------------------------------------------------
Pair    | 16.327     | 26.188     | 37.303     | 151.7 | 17.56
Bond    | 0.021513   | 0.029067   | 0.039049   |   3.6 |  0.02
Neigh   | 0.22257    | 0.22296    | 0.2234     |   0.1 |  0.15
Comm    | 13.741     | 24.681     | 34.625     | 154.9 | 16.55
Output  | 0.22188    | 0.25504    | 0.28981    |   4.4 |  0.17
Modify  | 93.501     | 94.751     | 95.784     |   8.9 | 63.55
Other   |            | 2.965      |            |       |  1.99

Nlocal:         588.75 ave         786 max         443 min
Histogram: 3 0 0 0 2 0 1 1 0 1
Nghost:        1820.25 ave        1956 max        1642 min
Histogram: 2 0 1 0 0 0 0 3 0 2
Neighs:              0 ave           0 max           0 min
Histogram: 8 0 0 0 0 0 0 0 0 0

Total # of neighbors = 0
Ave neighs/atom = 0
Ave special neighs/atom = 2.2229299
Neighbor list builds = 37
Dangerous builds = 0

# Introduce deformation
fix shear all deform 1 xy erate ${shear_rate} remap x flip yes
fix shear all deform 1 xy erate 0.02 remap x flip yes

# Re-run deformation
timestep ${tstep}
timestep 0.0005
run ${shear_it}
run 1200000
WARNING: Using a manybody potential with bonds/angles/dihedrals and special_bond exclusions (src/pair.cpp:242)
Hybrid pair style last /omp style table/omp
Last active /omp style is pair_style table/omp
WARNING: More than one fix rigid command (src/RIGID/fix_rigid_small.cpp:529)
WARNING: More than one fix rigid command (src/RIGID/fix_rigid_small.cpp:529)
WARNING: More than one fix rigid command (src/RIGID/fix_rigid_small.cpp:529)
WARNING: One or more atoms are time integrated more than once (src/modify.cpp:296)
WARNING: Computing temperature of portions of rigid bodies (src/RIGID/fix_rigid_small.cpp:1178)
WARNING: Computing temperature of portions of rigid bodies (src/RIGID/fix_rigid_small.cpp:1178)
WARNING: Computing temperature of portions of rigid bodies (src/RIGID/fix_rigid_small.cpp:1178)
Per MPI rank memory allocation (min/avg/max) = 26.22 | 26.25 | 26.27 Mbytes
   Step          Temp          E_pair         E_mol          TotEng         Press          Volume    
   2700000   0.35634254     0.63646473     0              0.67720581    -0.010720761    7996.5685    
   2710000   0.37532497     0.64432021     0              0.68723157    -2003.4785      7996.5685    
   2720000   0.36083399     0.64472343     0              0.68597802    -10182.717      7996.5685    
   2730000   0.36726345     0.63743597     0              0.67942564    -25231.172      7996.5685    
   2740000   0.36963916     0.66049102     0              0.70275231    -47245.641      7996.5685    
   2750000   0.36229072     0.68200984     0              0.72343098    -79320.755      7996.5685    
   2760000   0.35951469     0.64839806     0              0.68950181    -116443.16      7996.5685    
   2770000   0.36445238     0.65391768     0              0.69558597    -173864.58      7996.5685    
   2780000   0.3728233      0.66763243     0              0.71025777    -240236.43      7996.5685    
   2790000   0.35790702     0.64532322     0              0.68624316    -322118.01      7996.5685    
   2800000   0.36651747     0.67256703     0              0.71447141    -413491.21      7996.5685    
   2810000   0.3590578      0.66662048     0              0.70767199    -522196.72      7996.5685    
   2820000   0.35937402     0.62815177     0              0.66923944    -644167.78      7996.5685    
   2830000   0.36432558     0.6476984      0              0.68935218    -788342.75      7996.5685    
   2840000   0.37060579     0.60960392     0              0.65197573    -956174.57      7996.5685    
   2850000   0.35895339     0.58689317     0              0.62793275    -1136642.7      7996.5685    
   2860000   0.35270037     0.61593772     0              0.65626238    -1239719.8      7996.5685    
   2870000   0.35504391     0.59810003     0              0.63869263    -1457003        7996.5685    
   2880000   0.35539918     0.59840027     0              0.63903349    -1697453.1      7996.5685    
   2890000   0.36869439     0.6173636      0              0.65951687    -1968434        7996.5685    
   2900000   0.36168078     0.61365596     0              0.65500736    -2227903        7996.5685    
   2910000   0.36764164     0.61108372     0              0.65311664    -2534323.3      7996.5685    
   2920000   0.36994195     0.63342438     0              0.67572029    -2783359.3      7996.5685    
   2930000   0.37182105     0.63605884     0              0.6785696     -3102719.4      7996.5685    
   2940000   0.37425971     0.64150287     0              0.68429243    -3472417.7      7996.5685    
   2950000   0.37401822     0.6183789      0              0.66114085    -3882074        7996.5685    
   2960000   0.35662633     0.61696213     0              0.65773565    -3929994        7996.5685    
   2970000   0.36343072     0.62237499     0              0.66392647    -4422011.7      7996.5685    
   2980000   0.35965044     0.60339088     0              0.64451015    -4912687.5      7996.5685    
   2990000   0.37074265     0.62032831     0              0.66271577    -5472921.7      7996.5685    
   3000000   0.3602616      0.62462734     0              0.66581649    -5983322.3      7996.5685    
   3010000   0.36132152     0.61055787     0              0.6518682     -6498053.3      7996.5685    
   3020000   0.36110431     0.62131928     0              0.66260477    -7116866.6      7996.5685    
   3030000   0.34755584     0.63799075     0              0.67772723    -7685538.4      7996.5685    
   3040000   0.3770854      0.58293123     0              0.62604386    -8371805.8      7996.5685    
   3050000   0.36633501     0.61420773     0              0.65609125    -8965795.7      7996.5685    
   3060000   0.36110572     0.58396796     0              0.62525361    -9089143.4      7996.5685    
   3070000   0.36714659     0.56049444     0              0.60247075    -9716567.9      7996.5685    
   3080000   0.36635413     0.60974935     0              0.65163506    -10543759       7996.5685    
   3090000   0.36261266     0.59779676     0              0.6392547     -11321802       7996.5685    
   3100000   0.36413928     0.59224148     0              0.63387396    -12031551       7996.5685    
   3110000   0.37234262     0.59558504     0              0.63815542    -12913837       7996.5685    
   3120000   0.36074796     0.53386131     0              0.57510606    -13859076       7996.5685    
   3130000   0.35653787     0.54980265     0              0.59056606    -14875323       7996.5685    
   3140000   0.36611948     0.5520478      0              0.59390669    -15872183       7996.5685    
   3150000   0.37011977     0.55531058     0              0.59762682    -16873184       7996.5685    
   3160000   0.36126677     0.58013157     0              0.62143564    -16615323       7996.5685    
   3170000   0.37982059     0.55415464     0              0.59757998    -17656416       7996.5685    
   3180000   0.37778475     0.58491101     0              0.6281036     -18743391       7996.5685    
   3190000   0.36128039     0.55970013     0              0.60100576    -19739062       7996.5685    
   3200000   0.36172722     0.56602344     0              0.60738016    -21056617       7996.5685    
   3210000   0.36674715     0.57888226     0              0.6208129     -22122791       7996.5685    
   3220000   0.36970732     0.60136972     0              0.64363881    -23772163       7996.5685    
   3230000   0.35524417     0.55778572     0              0.59840122    -24727712       7996.5685    
   3240000   0.37870781     0.56899342     0              0.61229154    -25852276       7996.5685    
   3250000   0.36791949     0.5555832      0              0.59764789    -27592063       7996.5685    
   3260000   0.36543589     0.57491922     0              0.61669995    -26941627       7996.5685    
   3270000   0.3617726      0.53731274     0              0.57867464    -28240523       7996.5685    
   3280000   0.3496683      0.54295096     0              0.58292896    -29659373       7996.5685    
   3290000   0.35617775     0.548094       0              0.58881623    -31127454       7996.5685    
   3300000   0.36009244     0.57805875     0              0.61922855    -32670944       7996.5685    
   3310000   0.36657411     0.58453693     0              0.62644779    -34369858       7996.5685    
   3320000   0.36655928     0.55020453     0              0.5921137     -35499435       7996.5685    
   3330000   0.36890254     0.58322841     0              0.62540548    -37078507       7996.5685    
   3340000   0.36384844     0.55438014     0              0.59597937    -38510817       7996.5685    
   3350000   0.37483901     0.55127475     0              0.59413055    -40407274       7996.5685    
   3360000   0.35588907     0.5273751      0              0.56806433    -39117563       7996.5685    
   3370000   0.36957476     0.5422626      0              0.58451653    -41020035       7996.5685    
   3380000   0.3627913      0.55949303     0              0.6009714     -42417003       7996.5685    
   3390000   0.35639517     0.53937058     0              0.58011767    -43514813       7996.5685    
   3400000   0.36904386     0.53939434     0              0.58158757    -44313730       7996.5685    
   3410000   0.36854138     0.52075407     0              0.56288985    -46973706       7996.5685    
   3420000   0.36339733     0.51529771     0              0.55684536    -48550148       7996.5685    
   3430000   0.3646096      0.5315197      0              0.57320596    -49450029       7996.5685    
   3440000   0.35802558     0.49495101     0              0.5358845     -51444913       7996.5685    
   3450000   0.36782492     0.52035623     0              0.5624101     -53811389       7996.5685    
   3460000   0.36378952     0.47723773     0              0.51883022    -50105595       7996.5685    
   3470000   0.35531345     0.51493211     0              0.55555553    -50759113       7996.5685    
   3480000   0.36465638     0.50608697     0              0.54777858    -52181932       7996.5685    
   3490000   0.36345999     0.52259485     0              0.56414967    -54035136       7996.5685    
   3500000   0.37656776     0.51455679     0              0.55761024    -54176837       7996.5685    
   3510000   0.37219729     0.52530562     0              0.56785939    -55203009       7996.5685    
   3520000   0.37262357     0.52779131     0              0.57039381    -55722503       7996.5685    
   3530000   0.36837108     0.55941276     0              0.60152907    -56896872       7996.5685    
   3540000   0.36627104     0.49861323     0              0.54048944    -55949004       7996.5685    
   3550000   0.36958223     0.54838561     0              0.59064039    -56805146       7996.5685    
   3560000   0.36288515     0.52782331     0              0.5693124     -54070960       7996.5685    
   3570000   0.35543435     0.4980481      0              0.53868534    -52764104       7996.5685    
   3580000   0.36086015     0.5271852      0              0.56844278    -52859471       7996.5685    
   3590000   0.3623242      0.55889959     0              0.60032456    -52258252       7996.5685    
   3600000   0.35856681     0.54563211     0              0.58662749    -52011217       7996.5685    
   3610000   0.37063857     0.49364907     0              0.53602462    -52412756       7996.5685    
   3620000   0.35792114     0.52296531     0              0.56388687    -53138876       7996.5685    
   3630000   0.36238917     0.52838845     0              0.56982085    -53282234       7996.5685    
   3640000   0.36926914     0.58966974     0              0.63188873    -52549549       7996.5685    
   3650000   0.3664475      0.57228665     0              0.61418304    -52402465       7996.5685    
   3660000   0.36643169     0.54267251     0              0.58456709    -47972048       7996.5685    
   3670000   0.3686153      0.56886695     0              0.61101118    -48751056       7996.5685    
   3680000   0.35548451     0.52228786     0              0.56293083    -48776847       7996.5685    
   3690000   0.38293149     0.58787281     0              0.63165383    -49990014       7996.5685    
   3700000   0.37149107     0.5503207      0              0.59279373    -50141192       7996.5685    
   3710000   0.37344456     0.5682912      0              0.61098757    -49078337       7996.5685    
   3720000   0.36171534     0.5539033      0              0.59525865    -49726389       7996.5685    
   3730000   0.36692106     0.53004006     0              0.57199059    -52155284       7996.5685    
   3740000   0.37009061     0.53955188     0              0.58186479    -50478044       7996.5685    
   3750000   0.3548115      0.62257014     0              0.66313616    -51048687       7996.5685    
   3760000   0.36272953     0.56924705     0              0.61071836    -43769682       7996.5685    
   3770000   0.36922983     0.55264956     0              0.59486406    -44895571       7996.5685    
   3780000   0.37235827     0.56920224     0              0.61177442    -45172699       7996.5685    
   3790000   0.36507982     0.57954647     0              0.62128649    -45182957       7996.5685    
   3800000   0.3712682      0.58865363     0              0.63110118    -43614090       7996.5685    
   3810000   0.36780629     0.56796458     0              0.61001632    -44799436       7996.5685    
   3820000   0.36503099     0.55033773     0              0.59207217    -47780662       7996.5685    
   3830000   0.36906751     0.60760373     0              0.64979966    -47354508       7996.5685    
   3840000   0.34911498     0.5470856      0              0.58700034    -46931278       7996.5685    
   3850000   0.35138212     0.54204444     0              0.58221838    -46245576       7996.5685    
   3860000   0.37532357     0.50339915     0              0.54631034    -39552944       7996.5685    
   3870000   0.3656572      0.54024877     0              0.5820548     -41531971       7996.5685    
   3880000   0.36544182     0.52143064     0              0.56321204    -42039682       7996.5685    
   3890000   0.37011637     0.54354652     0              0.58586237    -41982527       7996.5685    
   3900000   0.35996019     0.53068473     0              0.57183942    -40053926       7996.5685    
Loop time of 891.774 on 8 procs for 1200000 steps with 4710 atoms

Performance: 58131.349 tau/day, 1345.633 timesteps/s, 6.338 Matom-step/s
90.1% CPU use with 8 MPI tasks x 1 OpenMP threads

MPI task timing breakdown:
Section |  min time  |  avg time  |  max time  |%varavg| %total
---------------------------------------------------------------
Pair    | 120.71     | 157.25     | 186.99     | 199.8 | 17.63
Bond    | 0.13749    | 0.19403    | 0.2469     |   8.9 |  0.02
Neigh   | 4.4676     | 4.4693     | 4.4715     |   0.1 |  0.50
Comm    | 103.86     | 131.94     | 165.7      | 202.6 | 14.80
Output  | 1.3293     | 1.5381     | 1.7391     |  10.8 |  0.17
Modify  | 577.59     | 579.82     | 582.45     |   6.3 | 65.02
Other   |            | 16.56      |            |       |  1.86

Nlocal:         588.75 ave         687 max         421 min
Histogram: 1 0 1 0 1 0 0 2 1 2
Nghost:        1723.25 ave        1815 max        1628 min
Histogram: 2 0 0 0 2 1 0 1 1 1
Neighs:              0 ave           0 max           0 min
Histogram: 8 0 0 0 0 0 0 0 0 0

Total # of neighbors = 0
Ave neighs/atom = 0
Ave special neighs/atom = 2.2229299
Neighbor list builds = 838
Dangerous builds = 12

# Stop deformation
unfix shear

# Relax time
run ${rlxT3}
run 400000
WARNING: Using a manybody potential with bonds/angles/dihedrals and special_bond exclusions (src/pair.cpp:242)
Hybrid pair style last /omp style table/omp
Last active /omp style is pair_style table/omp
WARNING: More than one fix rigid command (src/RIGID/fix_rigid_small.cpp:529)
WARNING: More than one fix rigid command (src/RIGID/fix_rigid_small.cpp:529)
WARNING: More than one fix rigid command (src/RIGID/fix_rigid_small.cpp:529)
WARNING: One or more atoms are time integrated more than once (src/modify.cpp:296)
WARNING: Computing temperature of portions of rigid bodies (src/RIGID/fix_rigid_small.cpp:1178)
WARNING: Computing temperature of portions of rigid bodies (src/RIGID/fix_rigid_small.cpp:1178)
WARNING: Computing temperature of portions of rigid bodies (src/RIGID/fix_rigid_small.cpp:1178)
Per MPI rank memory allocation (min/avg/max) = 26.21 | 26.23 | 26.25 Mbytes
   Step          Temp          E_pair         E_mol          TotEng         Press     
   3900000   0.35996019     0.53068502     0              0.5718397     -0.06817658   
   3910000   0.3670115      0.54698258     0              0.58894345    -965.67923    
   3920000   0.36948146     0.53362324     0              0.57586651    -9337.5092    
   3930000   0.3604265      0.55230326     0              0.59351126    -23396.809    
   3940000   0.35675686     0.56428747     0              0.60507591    -44918.459    
   3950000   0.36644636     0.537885       0              0.57978126    -74383.65     
   3960000   0.37480761     0.55675657     0              0.59960878    -110112.31    
   3970000   0.35485943     0.52660991     0              0.56718142    -155711.72    
   3980000   0.3722192      0.55578601     0              0.59834228    -218373.22    
   3990000   0.36199566     0.53484636     0              0.57623376    -255105.77    
   4000000   0.35859501     0.56078991     0              0.60178851    -325331.46    
   4010000   0.36332291     0.56903284     0              0.61057199    -400326.2     
   4020000   0.36074601     0.56518813     0              0.60643266    -504813.45    
   4030000   0.3544382      0.541984       0              0.58250735    -594881.5     
   4040000   0.35798808     0.58498571     0              0.62591492    -683396.62    
   4050000   0.36610951     0.56833443     0              0.61019218    -802379.06    
   4060000   0.35685346     0.57561071     0              0.6164102     -861354.61    
   4070000   0.36882603     0.56808476     0              0.61025309    -998125.53    
   4080000   0.35610021     0.57048994     0              0.61120331    -1135212.4    
   4090000   0.36247314     0.60307241     0              0.6445144     -1260044.3    
   4100000   0.36179365     0.56597057     0              0.60733488    -1425189.9    
   4110000   0.36793895     0.55840888     0              0.60047579    -1575767.7    
   4120000   0.35124696     0.65096222     0              0.69112071    -1713691      
   4130000   0.36417629     0.59913307     0              0.64076978    -1858022      
   4140000   0.37100766     0.61957767     0              0.66199543    -2029275.1    
   4150000   0.3634985      0.61504574     0              0.65660496    -2212560.8    
   4160000   0.37382198     0.64764973     0              0.69038925    -2424567.4    
   4170000   0.35742156     0.64083982     0              0.68170426    -2594317.3    
   4180000   0.34865385     0.59100454     0              0.63086655    -2791569.2    
   4190000   0.36460535     0.6269359      0              0.66862167    -2848163.4    
   4200000   0.35828182     0.62355564     0              0.66451843    -3137021.8    
   4210000   0.37199101     0.61127501     0              0.65380519    -3352920.9    
   4220000   0.35851959     0.64987149     0              0.69086147    -3498835.8    
   4230000   0.35859844     0.68061606     0              0.72161505    -3748237.1    
   4240000   0.36246432     0.65812412     0              0.6995651     -4092640.3    
   4250000   0.36874489     0.61871908     0              0.66087813    -4332370.5    
   4260000   0.35076028     0.61542469     0              0.65552754    -4441114.6    
   4270000   0.36561554     0.60791848     0              0.64971975    -4687345.5    
   4280000   0.35964071     0.63478819     0              0.67590634    -4986632.3    
   4290000   0.3598066      0.62478681     0              0.66592393    -5237084.5    
   4300000   0.36752509     0.55939885     0              0.60141844    -5609190.8    
Loop time of 278.706 on 8 procs for 400000 steps with 4710 atoms

Performance: 62000.929 tau/day, 1435.207 timesteps/s, 6.760 Matom-step/s
90.0% CPU use with 8 MPI tasks x 1 OpenMP threads

MPI task timing breakdown:
Section |  min time  |  avg time  |  max time  |%varavg| %total
---------------------------------------------------------------
Pair    | 33.063     | 51.656     | 66.879     | 143.5 | 18.53
Bond    | 0.043314   | 0.055077   | 0.076489   |   4.3 |  0.02
Neigh   | 0.41246    | 0.41283    | 0.41319    |   0.0 |  0.15
Comm    | 25.015     | 39.731     | 57.118     | 155.5 | 14.26
Output  | 0.43444    | 0.50087    | 0.56328    |   6.0 |  0.18
Modify  | 179.78     | 181.19     | 182.91     |   6.6 | 65.01
Other   |            | 5.155      |            |       |  1.85

Nlocal:         588.75 ave         709 max         456 min
Histogram: 2 0 1 0 0 0 3 0 0 2
Nghost:        1778.25 ave        1855 max        1699 min
Histogram: 2 0 1 1 0 0 1 0 2 1
Neighs:              0 ave           0 max           0 min
Histogram: 8 0 0 0 0 0 0 0 0 0

Total # of neighbors = 0
Ave neighs/atom = 0
Ave special neighs/atom = 2.2229299
Neighbor list builds = 79
Dangerous builds = 0

# Introduce deformation
fix shear all deform 1 xy erate ${shear_rate} remap x flip yes
fix shear all deform 1 xy erate 0.02 remap x flip yes

# Re-run deformation
timestep ${tstep}
timestep 0.0005
run ${shear_it}
run 1200000
WARNING: Using a manybody potential with bonds/angles/dihedrals and special_bond exclusions (src/pair.cpp:242)
Hybrid pair style last /omp style table/omp
Last active /omp style is pair_style table/omp
WARNING: More than one fix rigid command (src/RIGID/fix_rigid_small.cpp:529)
WARNING: More than one fix rigid command (src/RIGID/fix_rigid_small.cpp:529)
WARNING: More than one fix rigid command (src/RIGID/fix_rigid_small.cpp:529)
WARNING: One or more atoms are time integrated more than once (src/modify.cpp:296)
WARNING: Computing temperature of portions of rigid bodies (src/RIGID/fix_rigid_small.cpp:1178)
WARNING: Computing temperature of portions of rigid bodies (src/RIGID/fix_rigid_small.cpp:1178)
WARNING: Computing temperature of portions of rigid bodies (src/RIGID/fix_rigid_small.cpp:1178)
Per MPI rank memory allocation (min/avg/max) = 26.22 | 26.25 | 26.27 Mbytes
   Step          Temp          E_pair         E_mol          TotEng         Press          Volume    
   4300000   0.36752509     0.55939885     0              0.60141844    -0.005468348    7996.5685    
   4310000   0.35747961     0.6362267      0              0.67709778    -1843.2557      7996.5685    
   4320000   0.36714794     0.64393578     0              0.68591225    -9408.8487      7996.5685    
   4330000   0.36696161     0.65127657     0              0.69323173    -23008.067      7996.5685    
   4340000   0.36703356     0.68474742     0              0.72671081    -45977.711      7996.5685    
   4350000   0.35822288     0.66102634     0              0.70198239    -74240.419      7996.5685    
   4360000   0.35851355     0.69563688     0              0.73662617    -110918.9       7996.5685    
   4370000   0.37005875     0.67519776     0              0.71750703    -165537         7996.5685    
   4380000   0.36950381     0.71651494     0              0.75876076    -227049.45      7996.5685    
   4390000   0.36299973     0.69691257     0              0.73841477    -300877.61      7996.5685    
   4400000   0.36247174     0.67718615     0              0.71862798    -389460.79      7996.5685    
   4410000   0.36481569     0.65806013     0              0.69976995    -487534.59      7996.5685    
   4420000   0.36121682     0.67058132     0              0.71187968    -610350.54      7996.5685    
   4430000   0.36230336     0.62380222     0              0.6652248     -734771.88      7996.5685    
   4440000   0.36125752     0.66757191     0              0.70887492    -887056.53      7996.5685    
   4450000   0.36138645     0.64972642     0              0.69104417    -1050947.4      7996.5685    
   4460000   0.35830382     0.62222682     0              0.66319213    -1145902        7996.5685    
   4470000   0.3668297      0.70274561     0              0.74468569    -1351890.2      7996.5685    
   4480000   0.35910411     0.64465343     0              0.68571024    -1554338.9      7996.5685    
   4490000   0.36025162     0.67407735     0              0.71526535    -1796902        7996.5685    
   4500000   0.36114301     0.66795128     0              0.7092412     -2076949.5      7996.5685    
   4510000   0.34402628     0.63300241     0              0.67233535    -2404721.7      7996.5685    
   4520000   0.36757677     0.60695176     0              0.64897726    -2711491.9      7996.5685    
   4530000   0.36187446     0.62609205     0              0.66746559    -3067571.8      7996.5685    
   4540000   0.36007321     0.63642447     0              0.67759208    -3361246.6      7996.5685    
   4550000   0.36564523     0.63792276     0              0.67972742    -3762363.6      7996.5685    
   4560000   0.36432954     0.62383482     0              0.66548905    -3806428.6      7996.5685    
   4570000   0.35919098     0.6229805      0              0.66404724    -4265502        7996.5685    
   4580000   0.36384768     0.62177185     0              0.663371      -4700342.7      7996.5685    
   4590000   0.36123677     0.60888784     0              0.65018848    -5170372.6      7996.5685    
   4600000   0.3669936      0.58080174     0              0.62276056    -5706984.6      7996.5685    
   4610000   0.37040557     0.60315465     0              0.64550356    -6211241.1      7996.5685    
   4620000   0.36795511     0.55280062     0              0.59486937    -6775630        7996.5685    
   4630000   0.37445962     0.56620403     0              0.60901645    -7362989.6      7996.5685    
   4640000   0.36795914     0.56595968     0              0.60802889    -7995103.3      7996.5685    
   4650000   0.36496157     0.59123253     0              0.63295903    -8697090.7      7996.5685    
   4660000   0.37041439     0.57873502     0              0.62108495    -8518722.2      7996.5685    
   4670000   0.36464195     0.58611987     0              0.62780982    -9280351.7      7996.5685    
   4680000   0.36802214     0.55656612     0              0.59864253    -9992412.2      7996.5685    
   4690000   0.36582154     0.57201855     0              0.61384337    -10849688       7996.5685    
   4700000   0.36901767     0.57280778     0              0.61499802    -11535406       7996.5685    
   4710000   0.36609958     0.60190907     0              0.64376568    -12516306       7996.5685    
   4720000   0.36840699     0.62376993     0              0.66589035    -13390683       7996.5685    
   4730000   0.37269754     0.6424952      0              0.68510617    -14348329       7996.5685    
   4740000   0.3787362      0.62379816     0              0.66709953    -15188008       7996.5685    
   4750000   0.36276801     0.6151551      0              0.65663081    -16247610       7996.5685    
   4760000   0.35849754     0.61280134     0              0.65378879    -15878311       7996.5685    
   4770000   0.35938282     0.65213968     0              0.69322835    -16839762       7996.5685    
   4780000   0.36616477     0.63701632     0              0.67888038    -18024750       7996.5685    
   4790000   0.36617999     0.6341002      0              0.675966      -19353141       7996.5685    
   4800000   0.36303957     0.643128       0              0.68463475    -20111519       7996.5685    
   4810000   0.36140499     0.64227687     0              0.68359674    -21269519       7996.5685    
   4820000   0.36510453     0.69357282     0              0.73531566    -22601605       7996.5685    
   4830000   0.3688884      0.62565708     0              0.66783254    -23751471       7996.5685    
   4840000   0.37615045     0.61165228     0              0.65465801    -25123351       7996.5685    
   4850000   0.36007575     0.61932043     0              0.66048832    -26206147       7996.5685    
   4860000   0.359631       0.62719829     0              0.66831534    -25015234       7996.5685    
   4870000   0.35771989     0.60471968     0              0.64561823    -26687480       7996.5685    
   4880000   0.37346148     0.67072202     0              0.71342032    -28036357       7996.5685    
   4890000   0.36618404     0.61350096     0              0.65536723    -29853722       7996.5685    
   4900000   0.36403229     0.61636882     0              0.65798907    -31229223       7996.5685    
   4910000   0.37136158     0.60766723     0              0.65012545    -32719587       7996.5685    
   4920000   0.36785231     0.61881989     0              0.66087689    -34423291       7996.5685    
   4930000   0.37802561     0.61072866     0              0.65394879    -35755934       7996.5685    
   4940000   0.3633458      0.64775412     0              0.68929588    -37447922       7996.5685    
   4950000   0.36295495     0.63032144     0              0.67181852    -39089927       7996.5685    
   4960000   0.35815606     0.63142328     0              0.67237169    -36908673       7996.5685    
   4970000   0.37066044     0.58848705     0              0.63086511    -38739351       7996.5685    
   4980000   0.37812967     0.6432265      0    