LAMMPS (27 Jun 2024)
OMP_NUM_THREADS environment is not set. Defaulting to 1 thread. (src/comm.cpp:98)
  using 1 OpenMP thread(s) per MPI task
package omp 0
using multi-threaded neighbor list subroutines
# Script to create a shear deformationgiven a data file

units lj
dimension 3
boundary p p p

# Styles of atoms and that stuff
atom_style bond
bond_style zero nocoeff
pair_style hybrid/overlay/omp zero 0.0 lj/cut/omp 1.12 table/omp linear 5000000 threebody/table
newton on

read_data data.hydrogel extra/bond/per/atom 4 extra/special/per/atom 5
Reading data file ...
  orthogonal box = (-9.99857 -9.99857 -9.99857) to (9.99857 9.99857 9.99857)
  2 by 2 by 2 MPI processor grid
  reading atoms ...
  4650 atoms
  reading velocities ...
  4650 velocities
  scanning bonds ...
  8 = max bonds/atom
  orthogonal box = (-9.99857 -9.99857 -9.99857) to (9.99857 9.99857 9.99857)
  2 by 2 by 2 MPI processor grid
  reading bonds ...
  3150 bonds
Finding 1-2 1-3 1-4 neighbors ...
  special bond factors lj:    0        0        0       
  special bond factors coul:  0        0        0       
     4 = max # of 1-2 neighbors
     3 = max # of 1-3 neighbors
     3 = max # of 1-4 neighbors
     9 = max # of special neighbors
  special bonds CPU = 0.001 seconds
  read_data CPU = 0.022 seconds

change_box all triclinic
Changing box ...
  triclinic box = (-9.99857 -9.99857 -9.99857) to (9.99857 9.99857 9.99857) with tilt (0 0 0)

# Coefficients
include potential.in
bond_coeff * nocoeff
pair_coeff 1 3 zero
pair_coeff 1 4 zero
pair_coeff 2 3 zero
pair_coeff 2 4 zero
pair_coeff 3 3 zero
pair_coeff 1 1 lj/cut/omp 1.0 1.0 1.12 # i-type j-type pair-style eps sigma cutoff
pair_coeff 2 2 lj/cut/omp 1.0 1.0 1.12 # i-type j-type pair-style eps sigma cutoff
pair_coeff 1 2 lj/cut/omp 1.0 1.0 1.12 # i-type j-type pair-style eps sigma cutoff
pair_modify shift yes
pair_coeff 3 4 table/omp sysFiles/pachTab.table POT 0.6 #0.75
Reading pair table potential file sysFiles/pachTab.table with DATE: 2024-07-08
WARNING: 2 of 5000000 force values in table POT are inconsistent with -dE/dr.
WARNING:  Should only be flagged at inflection points (src/pair_table.cpp:466)
pair_coeff 4 4 table/omp sysFiles/pachTab.table POT 0.6 #0.75
Reading pair table potential file sysFiles/pachTab.table with DATE: 2024-07-08
WARNING: 2 of 5000000 force values in table POT are inconsistent with -dE/dr.
WARNING:  Should only be flagged at inflection points (src/pair_table.cpp:466)
pair_coeff * * threebody/table swapMech.3b NULL NULL PA PB

# Molecules
include molDeform.in
molecule CL sysFiles/molecule.patchy.CL
Read molecule template CL:
# Patchy Cross-Linker
  1 molecules
  0 fragments
  5 atoms with max type 3
  4 bonds with max type 1
  0 angles with max type 0
  0 dihedrals with max type 0
  0 impropers with max type 0
molecule MO sysFiles/molecule.patchy.MO
Read molecule template MO:
# Patchy Monomer
  1 molecules
  0 fragments
  3 atoms with max type 4
  2 bonds with max type 1
  0 angles with max type 0
  0 dihedrals with max type 0
  0 impropers with max type 0

# Create patchy particles
group CrossLinker type 1 3
375 atoms in group CrossLinker
group Monomer type 2 4
4275 atoms in group Monomer
group Patches type 3 4
3150 atoms in group Patches
group CL type 1
75 atoms in group CL
group MO type 2
1425 atoms in group MO
group PA type 3
300 atoms in group PA
group CM type 1 2
1500 atoms in group CM
fix pCL CrossLinker rigid/small/omp molecule #langevin 1.0 1.0 100.0 ${seed3}
  create bodies CPU = 0.000 seconds
  75 rigid bodies with 375 atoms
  0.46400431 = max distance from body owner to body atom
fix pMO Monomer rigid/small/omp molecule #langevin 1.0 1.0 100.0 ${seed3}
  create bodies CPU = 0.000 seconds
  1425 rigid bodies with 4275 atoms
  0.5 = max distance from body owner to body atom

# Neighbor list
neighbor 1.8 bin # extra-distance style
neigh_modify exclude molecule/intra CrossLinker
neigh_modify exclude molecule/intra Monomer

fix BrDy all rigid/nve/small molecule langevin 0.05 0.05 0.25 12345 # Brownian Dynamics: langevin + nve
  create bodies CPU = 0.000 seconds
  1500 rigid bodies with 4650 atoms
  0.5 = max distance from body owner to body atom
fix_modify BrDy virial no

thermo ${sstep}
thermo 10000

# Compute global kinetic and potential energy and temperature
compute t all temp
compute tCM CM temp
compute ep all pe
compute ek all ke
compute stressVirial all pressure t ke pair
variable tilt equal v_shear_rate*step*dt
compute blAll Patches pair table/omp 3 epair
compute blCl PA pair table/omp 3 epair


# DUMPS and FIXES

# Save atom positions
dump dumpID all atom ${Nsave} info/patchyParticles_shear.dumpf
dump dumpID all atom 500 info/patchyParticles_shear.dumpf
dump_modify dumpID pbc yes # remap atoms via periodic boundary conditions
#dump_modify dumpID delay ${steps}

# Save global energies and temperature
group Energy empty
0 atoms in group Energy
group BL1 empty
0 atoms in group BL1
group BL2 empty
0 atoms in group BL2
fix fixEng Energy ave/time 1 10 10 c_tCM c_ep c_ek c_t file info/energy_shear.fixf

fix fixBLg BL1 ave/time 1 10 10 c_blAll file info/bondlenPatch_shear.fixf
fix fixBLc BL2 ave/time 1 10 10 c_blCl file info/bondlenCL_shear.fixf


# Save Stress tensor
group Stress empty
0 atoms in group Stress
fix fixStress5 Stress ave/time 1 ${Nave} ${Nave} v_tilt c_stressVirial[*] file info/stressVirial_shear.fixf
fix fixStress5 Stress ave/time 1 1000 ${Nave} v_tilt c_stressVirial[*] file info/stressVirial_shear.fixf
fix fixStress5 Stress ave/time 1 1000 1000 v_tilt c_stressVirial[*] file info/stressVirial_shear.fixf

# RUN SIMULATION

# Introduce deformation
fix shear all deform 1 xy erate ${shear_rate} remap x flip yes
fix shear all deform 1 xy erate 0.02 remap x flip yes

# Run deformation
timestep ${tstep}
timestep 0.001
run ${shear_it}
run 600000

CITE-CITE-CITE-CITE-CITE-CITE-CITE-CITE-CITE-CITE-CITE-CITE-CITE

Your simulation uses code contributions which should be cited:

- Type Label Framework: https://doi.org/10.1021/acs.jpcb.3c08419

@Article{Gissinger24,
 author = {Jacob R. Gissinger, Ilia Nikiforov, Yaser Afshar, Brendon Waters, Moon-ki Choi, Daniel S. Karls, Alexander Stukowski, Wonpil Im, Hendrik Heinz, Axel Kohlmeyer, and Ellad B. Tadmor},
 title = {Type Label Framework for Bonded Force Fields in LAMMPS},
 journal = {J. Phys. Chem. B},
 year =    2024,
 volume =  128,
 number =  13,
 pages =   {3282â€“-3297}
}

CITE-CITE-CITE-CITE-CITE-CITE-CITE-CITE-CITE-CITE-CITE-CITE-CITE

WARNING: Using a manybody potential with bonds/angles/dihedrals and special_bond exclusions (src/pair.cpp:242)
Hybrid pair style last /omp style table/omp
Last active /omp style is pair_style table/omp
WARNING: More than one fix rigid command (src/RIGID/fix_rigid_small.cpp:529)
WARNING: More than one fix rigid command (src/RIGID/fix_rigid_small.cpp:529)
WARNING: More than one fix rigid command (src/RIGID/fix_rigid_small.cpp:529)
WARNING: One or more atoms are time integrated more than once (src/modify.cpp:296)
Neighbor list info ...
  update: every = 1 steps, delay = 0 steps, check = yes
  max neighbors/atom: 2000, page size: 100000
  master list distance cutoff = 2.92
  ghost atom cutoff = 2.92
  binsize = 1.46, bins = 14 14 14
  6 neighbor lists, perpetual/occasional/extra = 6 0 0
  (1) pair zero, perpetual, skip from (5)
      attributes: half, newton on, omp
      pair build: skip/omp
      stencil: none
      bin: none
  (2) pair lj/cut/omp, perpetual, skip from (5)
      attributes: half, newton on, omp
      pair build: skip/omp
      stencil: none
      bin: none
  (3) pair table/omp, perpetual, skip from (5)
      attributes: half, newton on, omp, cut 2.4
      pair build: skip/omp
      stencil: none
      bin: none
  (4) pair threebody/table, perpetual, skip from (6)
      attributes: full, newton on, omp, cut 2.4
      pair build: skip/omp
      stencil: none
      bin: none
  (5) neighbor class addition, perpetual
      attributes: half, newton on, omp
      pair build: half/bin/newton/tri/omp
      stencil: half/bin/3d/tri
      bin: standard
  (6) neighbor class addition, perpetual
      attributes: full, newton on, omp, cut 2.4
      pair build: full/bin/omp
      stencil: full/bin/3d
      bin: standard
WARNING: Computing temperature of portions of rigid bodies (src/RIGID/fix_rigid_small.cpp:1178)
WARNING: Computing temperature of portions of rigid bodies (src/RIGID/fix_rigid_small.cpp:1178)
WARNING: Computing temperature of portions of rigid bodies (src/RIGID/fix_rigid_small.cpp:1178)
Per MPI rank memory allocation (min/avg/max) = 25.17 | 25.19 | 25.21 Mbytes
   Step          Temp          E_pair         E_mol          TotEng         Press          Volume    
         0   0.34386701     0.23115106     0              0.27541007     0.055667844    7996.5685    
     10000   0.32497003     0.27442904     0              0.31625583    -4394.1529      7996.5685    
     20000   0.31582453     0.29661243     0              0.33726211    -20655.475      7996.5685    
     30000   0.32094241     0.28913089     0              0.33043928    -50785.657      7996.5685    
     40000   0.31503709     0.31008232     0              0.35063064    -94852.561      7996.5685    
     50000   0.32067061     0.36020187     0              0.40147528    -166744.16      7996.5685    
     60000   0.32024791     0.33967801     0              0.38089702    -260205.9       7996.5685    
     70000   0.32423895     0.34093604     0              0.38266873    -391867.43      7996.5685    
     80000   0.32540673     0.31243024     0              0.35431323    -508753.18      7996.5685    
     90000   0.32589485     0.35226502     0              0.39421084    -692677.03      7996.5685    
    100000   0.32918505     0.33262342     0              0.37499272    -939448.91      7996.5685    
    110000   0.31828248     0.36267287     0              0.4036389     -1237406.6      7996.5685    
    120000   0.32359765     0.35381742     0              0.39546757    -1601304.5      7996.5685    
    130000   0.32840137     0.37253423     0              0.41480266    -1749069.5      7996.5685    
    140000   0.31424044     0.33128101     0              0.37172679    -2204265.9      7996.5685    
    150000   0.33048237     0.36942797     0              0.41196425    -2744140.8      7996.5685    
    160000   0.32862387     0.36955494     0              0.41185201    -3336121        7996.5685    
    170000   0.32610498     0.36421618     0              0.40618905    -4039376.8      7996.5685    
    180000   0.32168723     0.34503859     0              0.38644285    -4064959.5      7996.5685    
    190000   0.32732713     0.36842757     0              0.41055774    -4873488.6      7996.5685    
    200000   0.32372282     0.35826301     0              0.39992927    -5855894.5      7996.5685    
    210000   0.32572795     0.37980617     0              0.4217305     -6807667.6      7996.5685    
    220000   0.32056565     0.3785534      0              0.4198133     -7873301        7996.5685    
    230000   0.33452823     0.38375294     0              0.42680996    -7644444.6      7996.5685    
    240000   0.31578987     0.38582143     0              0.42646664    -8887828.4      7996.5685    
    250000   0.32359071     0.35970069     0              0.40134995    -10148442       7996.5685    
    260000   0.32441085     0.39135746     0              0.43311227    -11657445       7996.5685    
    270000   0.3323669      0.38474775     0              0.42752658    -13203689       7996.5685    
    280000   0.31945729     0.37097031     0              0.41208755    -12449142       7996.5685    
    290000   0.33311026     0.34630559     0              0.38918011    -14143952       7996.5685    
    300000   0.3269147      0.37249909     0              0.41457617    -15854227       7996.5685    
    310000   0.32569941     0.36765895     0              0.40957962    -17824554       7996.5685    
    320000   0.32518882     0.37671997     0              0.41857491    -19820672       7996.5685    
    330000   0.32943796     0.36062336     0              0.40302522    -18000281       7996.5685    
    340000   0.32556189     0.43580755     0              0.47771051    -20005895       7996.5685    
    350000   0.32624944     0.41965109     0              0.46164255    -22354711       7996.5685    
    360000   0.33800895     0.36864968     0              0.41215471    -24240541       7996.5685    
    370000   0.32413761     0.37414333     0              0.41586297    -26047174       7996.5685    
    380000   0.31712347     0.36406736     0              0.40488422    -23532832       7996.5685    
    390000   0.31925474     0.39888528     0              0.43997646    -25231205       7996.5685    
    400000   0.3312786      0.39216214     0              0.4348009     -26529406       7996.5685    
    410000   0.31601879     0.42919837     0              0.46987305    -27961737       7996.5685    
    420000   0.32801653     0.39312924     0              0.43534814    -29645706       7996.5685    
    430000   0.32358705     0.4090309      0              0.45067968    -25348822       7996.5685    
    440000   0.33418186     0.37266545     0              0.41567789    -26034572       7996.5685    
    450000   0.32889566     0.37373146     0              0.41606352    -27718541       7996.5685    
    460000   0.3166137      0.39915729     0              0.43990854    -29818418       7996.5685    
    470000   0.32321134     0.39517142     0              0.43677185    -31795290       7996.5685    
    480000   0.32882423     0.37977628     0              0.42209914    -25805760       7996.5685    
    490000   0.31936804     0.37410086     0              0.41520662    -25585137       7996.5685    
    500000   0.32827562     0.38444359     0              0.42669584    -27343241       7996.5685    
    510000   0.32449769     0.41683647     0              0.45860246    -28791664       7996.5685    
    520000   0.32375644     0.42903535     0              0.47070593    -30750615       7996.5685    
    530000   0.32481073     0.4056227      0              0.44742898    -23110471       7996.5685    
    540000   0.33332266     0.4287539      0              0.47165575    -24635963       7996.5685    
    550000   0.32362538     0.37442221     0              0.41607593    -26763712       7996.5685    
    560000   0.31839052     0.39937701     0              0.44035695    -26860453       7996.5685    
    570000   0.31978775     0.42798685     0              0.46914663    -28069237       7996.5685    
    580000   0.32105306     0.3703668      0              0.41168944    -20854184       7996.5685    
    590000   0.30751631     0.36699996     0              0.40658029    -21889115       7996.5685    
    600000   0.32213385     0.36738813     0              0.40884988    -2.1900175e+08  7996.5685    
Loop time of 409.271 on 8 procs for 600000 steps with 4650 atoms

Performance: 126664.377 tau/day, 1466.023 timesteps/s, 6.817 Matom-step/s
89.2% CPU use with 8 MPI tasks x 1 OpenMP threads

MPI task timing breakdown:
Section |  min time  |  avg time  |  max time  |%varavg| %total
---------------------------------------------------------------
Pair    | 65.928     | 71.16      | 79.973     |  49.0 | 17.39
Bond    | 0.066011   | 0.085432   | 0.1244     |   6.7 |  0.02
Neigh   | 3.7044     | 3.7065     | 3.7088     |   0.1 |  0.91
Comm    | 43.86      | 52.355     | 57.414     |  55.7 | 12.79
Output  | 0.62125    | 0.722      | 0.81879    |   7.7 |  0.18
Modify  | 273.13     | 273.49     | 274.01     |   1.8 | 66.82
Other   |            | 7.753      |            |       |  1.89

Nlocal:         581.25 ave         795 max         365 min
Histogram: 2 0 0 1 0 2 1 0 1 1
Nghost:         1601.5 ave        1777 max        1507 min
Histogram: 2 2 1 0 1 0 0 1 0 1
Neighs:              0 ave           0 max           0 min
Histogram: 8 0 0 0 0 0 0 0 0 0

Total # of neighbors = 0
Ave neighs/atom = 0
Ave special neighs/atom = 2.1612903
Neighbor list builds = 834
Dangerous builds = 12

# Stop deformation
unfix shear

# Relax time
run ${rlxT1}
run 50000
WARNING: Using a manybody potential with bonds/angles/dihedrals and special_bond exclusions (src/pair.cpp:242)
Hybrid pair style last /omp style table/omp
Last active /omp style is pair_style table/omp
WARNING: More than one fix rigid command (src/RIGID/fix_rigid_small.cpp:529)
WARNING: More than one fix rigid command (src/RIGID/fix_rigid_small.cpp:529)
WARNING: More than one fix rigid command (src/RIGID/fix_rigid_small.cpp:529)
WARNING: One or more atoms are time integrated more than once (src/modify.cpp:296)
WARNING: Computing temperature of portions of rigid bodies (src/RIGID/fix_rigid_small.cpp:1178)
WARNING: Computing temperature of portions of rigid bodies (src/RIGID/fix_rigid_small.cpp:1178)
WARNING: Computing temperature of portions of rigid bodies (src/RIGID/fix_rigid_small.cpp:1178)
Per MPI rank memory allocation (min/avg/max) = 26.2 | 26.22 | 26.24 Mbytes
   Step          Temp          E_pair         E_mol          TotEng         Press     
    600000   0.32213385     0.36738867     0              0.40885042    -0.088172211  
    610000   0.32458458     0.3961401      0              0.43791727    -4663.8985    
    620000   0.32869326     0.42095317     0              0.46325917    -23693.528    
    630000   0.31498977     0.39799051     0              0.43853275    -55178.288    
    640000   0.31888754     0.46044116     0              0.50148507    -98241.36     
    650000   0.32354263     0.416074       0              0.45771706    -149266.05    
Loop time of 34.8348 on 8 procs for 50000 steps with 4650 atoms

Performance: 124013.989 tau/day, 1435.347 timesteps/s, 6.674 Matom-step/s
90.7% CPU use with 8 MPI tasks x 1 OpenMP threads

MPI task timing breakdown:
Section |  min time  |  avg time  |  max time  |%varavg| %total
---------------------------------------------------------------
Pair    | 3.1154     | 5.9464     | 9.0479     |  77.8 | 17.07
Bond    | 0.0051972  | 0.0065145  | 0.0087658  |   1.6 |  0.02
Neigh   | 0.1064     | 0.10651    | 0.10662    |   0.0 |  0.31
Comm    | 2.5801     | 5.6854     | 8.5159     |  79.5 | 16.32
Output  | 0.055402   | 0.064275   | 0.073202   |   2.4 |  0.18
Modify  | 22.016     | 22.296     | 22.574     |   4.2 | 64.01
Other   |            | 0.7292     |            |       |  2.09

Nlocal:         581.25 ave         793 max         356 min
Histogram: 2 0 0 1 0 1 2 0 1 1
Nghost:        1606.38 ave        1762 max        1505 min
Histogram: 2 1 1 0 1 1 1 0 0 1
Neighs:              0 ave           0 max           0 min
Histogram: 8 0 0 0 0 0 0 0 0 0

Total # of neighbors = 0
Ave neighs/atom = 0
Ave special neighs/atom = 2.1612903
Neighbor list builds = 20
Dangerous builds = 0

# Introduce deformation
fix shear all deform 1 xy erate ${shear_rate} remap x flip yes
fix shear all deform 1 xy erate 0.02 remap x flip yes

# Re-run deformation
timestep ${tstep}
timestep 0.001
run ${shear_it}
run 600000
WARNING: Using a manybody potential with bonds/angles/dihedrals and special_bond exclusions (src/pair.cpp:242)
Hybrid pair style last /omp style table/omp
Last active /omp style is pair_style table/omp
WARNING: More than one fix rigid command (src/RIGID/fix_rigid_small.cpp:529)
WARNING: More than one fix rigid command (src/RIGID/fix_rigid_small.cpp:529)
WARNING: More than one fix rigid command (src/RIGID/fix_rigid_small.cpp:529)
WARNING: One or more atoms are time integrated more than once (src/modify.cpp:296)
WARNING: Computing temperature of portions of rigid bodies (src/RIGID/fix_rigid_small.cpp:1178)
WARNING: Computing temperature of portions of rigid bodies (src/RIGID/fix_rigid_small.cpp:1178)
WARNING: Computing temperature of portions of rigid bodies (src/RIGID/fix_rigid_small.cpp:1178)
Per MPI rank memory allocation (min/avg/max) = 26.22 | 26.23 | 26.25 Mbytes
   Step          Temp          E_pair         E_mol          TotEng         Press          Volume    
    650000   0.32354263     0.416074       0              0.45771706    -0.014533291    7996.5685    
    660000   0.32589284     0.40883863     0              0.45078419    -4693.9279      7996.5685    
    670000   0.31663948     0.46125885     0              0.50201341    -23847.704      7996.5685    
    680000   0.32534592     0.43331273     0              0.4751879     -61979.449      7996.5685    
    690000   0.3323888      0.44683781     0              0.48961946    -118072.76      7996.5685    
    700000   0.32098105     0.40456907     0              0.44588244    -210850.56      7996.5685    
    710000   0.31925377     0.44334921     0              0.48444026    -323976.66      7996.5685    
    720000   0.32473273     0.46979056     0              0.5115868     -484625.64      7996.5685    
    730000   0.32091684     0.42345187     0              0.46475698    -621192.7       7996.5685    
    740000   0.32497089     0.41751251     0              0.4593394     -847716.59      7996.5685    
    750000   0.32601029     0.45558576     0              0.49754644    -1110390.1      7996.5685    
    760000   0.32733408     0.44673484     0              0.4888659     -1446423.3      7996.5685    
    770000   0.32340001     0.42639149     0              0.4680162     -1792965.2      7996.5685    
    780000   0.32568394     0.42549365     0              0.46741233    -2026742.3      7996.5685    
    790000   0.33762576     0.44338256     0              0.48683827    -2486492.3      7996.5685    
    800000   0.32343046     0.46866022     0              0.51028885    -3028885.8      7996.5685    
    810000   0.32764779     0.42873837     0              0.47090981    -3570396.2      7996.5685    
    820000   0.33411639     0.42138411     0              0.46438812    -4167260.5      7996.5685    
    830000   0.31908558     0.45231898     0              0.49338839    -4419730.9      7996.5685    
    840000   0.31695122     0.47781691     0              0.5186116     -5155812.3      7996.5685    
    850000   0.33466667     0.44856699     0              0.49164183    -5939636.8      7996.5685    
    860000   0.33446032     0.44515424     0              0.48820252    -6910056.8      7996.5685    
    870000   0.32284283     0.45314377     0              0.49469677    -7848163.9      7996.5685    
    880000   0.32861198     0.50435333     0              0.54664888    -8126741.6      7996.5685    
    890000   0.33371254     0.48992166     0              0.5328737     -9248750.6      7996.5685    
    900000   0.32852159     0.4562924      0              0.49857631    -10355948       7996.5685    
    910000   0.32905472     0.48216847     0              0.524521      -11727036       7996.5685    
    920000   0.33453248     0.45851968     0              0.50157724    -13082045       7996.5685    
    930000   0.3279463      0.47704033     0              0.51925019    -13062069       7996.5685    
    940000   0.32270517     0.48352212     0              0.5250574     -14476577       7996.5685    
    950000   0.33333267     0.50124699     0              0.54415013    -16264148       7996.5685    
    960000   0.33395589     0.50596995     0              0.5489533     -17589169       7996.5685    
    970000   0.32400527     0.48737066     0              0.52907327    -19418667       7996.5685    
    980000   0.33390813     0.50882517     0              0.55180238    -18872611       7996.5685    
    990000   0.32405972     0.49466196     0              0.53637159    -20194464       7996.5685    
   1000000   0.31765605     0.49317238     0              0.53405779    -21818912       7996.5685    
   1010000   0.33078136     0.54021041     0              0.58278517    -23077827       7996.5685    
   1020000   0.32123365     0.53441445     0              0.57576033    -25225650       7996.5685    
   1030000   0.32390763     0.5508889      0              0.59257894    -23457205       7996.5685    
   1040000   0.32531007     0.53235455     0              0.57422511    -24419351       7996.5685    
   1050000   0.33194103     0.55290604     0              0.59563006    -26337792       7996.5685    
   1060000   0.32963216     0.53547343     0              0.57790028    -27971110       7996.5685    
   1070000   0.32013711     0.53180164     0              0.57300638    -28515601       7996.5685    
   1080000   0.31716135     0.55588439     0              0.59670613    -26106131       7996.5685    
   1090000   0.31714796     0.52282328     0              0.56364329    -27903358       7996.5685    
   1100000   0.32973994     0.5092348      0              0.55167552    -29063316       7996.5685    
   1110000   0.32148397     0.52287902     0              0.56425712    -28974252       7996.5685    
   1120000   0.32386825     0.49649062     0              0.5381756     -28450485       7996.5685    
   1130000   0.31960338     0.49442731     0              0.53556336    -23547565       7996.5685    
   1140000   0.3232893      0.52359455     0              0.56520501    -24452078       7996.5685    
   1150000   0.3227245      0.49320624     0              0.534744      -25133130       7996.5685    
   1160000   0.3316913      0.50554916     0              0.54824104    -25280797       7996.5685    
   1170000   0.33312638     0.54141677     0              0.58429336    -25950736       7996.5685    
   1180000   0.32797101     0.50087488     0              0.54308793    -22080124       7996.5685    
   1190000   0.3250784      0.53927435     0              0.58111508    -22433742       7996.5685    
   1200000   0.33170498     0.51653251     0              0.55922616    -24336582       7996.5685    
   1210000   0.32336543     0.50098795     0              0.54260821    -24991650       7996.5685    
   1220000   0.32093613     0.49856266     0              0.53987025    -25828300       7996.5685    
   1230000   0.32451931     0.48336494     0              0.52513372    -19708742       7996.5685    
   1240000   0.32187689     0.4706634      0              0.51209207    -20943766       7996.5685    
   1250000   0.3266225      0.50326784     0              0.54530731    -20742402       7996.5685    
Loop time of 424.546 on 8 procs for 600000 steps with 4650 atoms

Performance: 122106.999 tau/day, 1413.275 timesteps/s, 6.572 Matom-step/s
90.1% CPU use with 8 MPI tasks x 1 OpenMP threads

MPI task timing breakdown:
Section |  min time  |  avg time  |  max time  |%varavg| %total
---------------------------------------------------------------
Pair    | 65.497     | 75.09      | 83.04      |  66.3 | 17.69
Bond    | 0.06591    | 0.087825   | 0.13195    |   8.1 |  0.02
Neigh   | 4.165      | 4.1676     | 4.1706     |   0.1 |  0.98
Comm    | 53.6       | 61.329     | 70.725     |  71.3 | 14.45
Output  | 0.65563    | 0.75589    | 0.84948    |   7.4 |  0.18
Modify  | 274.24     | 274.99     | 275.59     |   3.0 | 64.77
Other   |            | 8.128      |            |       |  1.91

Nlocal:         581.25 ave         788 max         432 min
Histogram: 1 2 1 0 0 2 0 1 0 1
Nghost:        1625.12 ave        1777 max        1445 min
Histogram: 1 0 1 1 1 1 0 1 0 2
Neighs:              0 ave           0 max           0 min
Histogram: 8 0 0 0 0 0 0 0 0 0

Total # of neighbors = 0
Ave neighs/atom = 0
Ave special neighs/atom = 2.1612903
Neighbor list builds = 838
Dangerous builds = 12

# Stop deformation
unfix shear

# Relax time
run ${rlxT2}
run 100000
WARNING: Using a manybody potential with bonds/angles/dihedrals and special_bond exclusions (src/pair.cpp:242)
Hybrid pair style last /omp style table/omp
Last active /omp style is pair_style table/omp
WARNING: More than one fix rigid command (src/RIGID/fix_rigid_small.cpp:529)
WARNING: More than one fix rigid command (src/RIGID/fix_rigid_small.cpp:529)
WARNING: More than one fix rigid command (src/RIGID/fix_rigid_small.cpp:529)
WARNING: One or more atoms are time integrated more than once (src/modify.cpp:296)
WARNING: Computing temperature of portions of rigid bodies (src/RIGID/fix_rigid_small.cpp:1178)
WARNING: Computing temperature of portions of rigid bodies (src/RIGID/fix_rigid_small.cpp:1178)
WARNING: Computing temperature of portions of rigid bodies (src/RIGID/fix_rigid_small.cpp:1178)
Per MPI rank memory allocation (min/avg/max) = 26.2 | 26.22 | 26.24 Mbytes
   Step          Temp          E_pair         E_mol          TotEng         Press     
   1250000   0.3266225      0.50326854     0              0.54530802    -0.019440156  
   1260000   0.31935857     0.49133933     0              0.53244387    -3864.4934    
   1270000   0.32180725     0.48436677     0              0.52578648    -21738.444    
   1280000   0.33084951     0.54365208     0              0.58623562    -54027.885    
   1290000   0.32854732     0.54825187     0              0.59053909    -107535.24    
   1300000   0.32780679     0.49771101     0              0.53990291    -161748.67    
   1310000   0.3329125      0.53547853     0              0.57832759    -221848.15    
   1320000   0.33263031     0.54753922     0              0.59035196    -319898.31    
   1330000   0.32771546     0.50100144     0              0.54318159    -430419.57    
   1340000   0.33359451     0.53747475     0              0.58041159    -558994.66    
   1350000   0.33021385     0.50191935     0              0.54442106    -665305.38    
Loop time of 71.3406 on 8 procs for 100000 steps with 4650 atoms

Performance: 121109.144 tau/day, 1401.726 timesteps/s, 6.518 Matom-step/s
90.4% CPU use with 8 MPI tasks x 1 OpenMP threads

MPI task timing breakdown:
Section |  min time  |  avg time  |  max time  |%varavg| %total
---------------------------------------------------------------
Pair    | 9.1547     | 12.432     | 18.531     |  96.9 | 17.43
Bond    | 0.010729   | 0.014494   | 0.022957   |   3.7 |  0.02
Neigh   | 0.22537    | 0.22579    | 0.22613    |   0.1 |  0.32
Comm    | 5.8069     | 11.76      | 15.147     |  98.3 | 16.48
Output  | 0.11373    | 0.12968    | 0.14804    |   3.1 |  0.18
Modify  | 44.858     | 45.324     | 45.814     |   5.3 | 63.53
Other   |            | 1.454      |            |       |  2.04

Nlocal:         581.25 ave         785 max         456 min
Histogram: 2 2 0 1 0 0 0 2 0 1
Nghost:        1658.62 ave        1789 max        1526 min
Histogram: 2 1 0 1 0 0 0 2 1 1
Neighs:              0 ave           0 max           0 min
Histogram: 8 0 0 0 0 0 0 0 0 0

Total # of neighbors = 0
Ave neighs/atom = 0
Ave special neighs/atom = 2.1612903
Neighbor list builds = 39
Dangerous builds = 0
