LAMMPS (27 Jun 2024)
OMP_NUM_THREADS environment is not set. Defaulting to 1 thread. (src/comm.cpp:98)
  using 1 OpenMP thread(s) per MPI task
package omp 0
using multi-threaded neighbor list subroutines
# Script to create a shear deformationgiven a data file

units lj
dimension 3
boundary p p p

# Styles of atoms and that stuff
atom_style bond
bond_style zero nocoeff
pair_style hybrid/overlay/omp zero 0.0 lj/cut/omp 1.12 table/omp linear 5000000 threebody/table
newton on

read_data data.hydrogel extra/bond/per/atom 4 extra/special/per/atom 5
Reading data file ...
  orthogonal box = (-9.99857 -9.99857 -9.99857) to (9.99857 9.99857 9.99857)
  2 by 2 by 2 MPI processor grid
  reading atoms ...
  4950 atoms
  reading velocities ...
  4950 velocities
  scanning bonds ...
  8 = max bonds/atom
  orthogonal box = (-9.99857 -9.99857 -9.99857) to (9.99857 9.99857 9.99857)
  2 by 2 by 2 MPI processor grid
  reading bonds ...
  3450 bonds
Finding 1-2 1-3 1-4 neighbors ...
  special bond factors lj:    0        0        0       
  special bond factors coul:  0        0        0       
     4 = max # of 1-2 neighbors
     3 = max # of 1-3 neighbors
     3 = max # of 1-4 neighbors
     9 = max # of special neighbors
  special bonds CPU = 0.001 seconds
  read_data CPU = 0.030 seconds

change_box all triclinic
Changing box ...
  triclinic box = (-9.99857 -9.99857 -9.99857) to (9.99857 9.99857 9.99857) with tilt (0 0 0)

# Coefficients
include potential.in
bond_coeff * nocoeff
pair_coeff 1 3 zero
pair_coeff 1 4 zero
pair_coeff 2 3 zero
pair_coeff 2 4 zero
pair_coeff 3 3 zero
pair_coeff 1 1 lj/cut/omp 1.0 1.0 1.12 # i-type j-type pair-style eps sigma cutoff
pair_coeff 2 2 lj/cut/omp 1.0 1.0 1.12 # i-type j-type pair-style eps sigma cutoff
pair_coeff 1 2 lj/cut/omp 1.0 1.0 1.12 # i-type j-type pair-style eps sigma cutoff
pair_modify shift yes
pair_coeff 3 4 table/omp sysFiles/pachTab.table POT 0.6 #0.75
Reading pair table potential file sysFiles/pachTab.table with DATE: 2024-07-08
WARNING: 2 of 5000000 force values in table POT are inconsistent with -dE/dr.
WARNING:  Should only be flagged at inflection points (src/pair_table.cpp:466)
pair_coeff 4 4 table/omp sysFiles/pachTab.table POT 0.6 #0.75
Reading pair table potential file sysFiles/pachTab.table with DATE: 2024-07-08
WARNING: 2 of 5000000 force values in table POT are inconsistent with -dE/dr.
WARNING:  Should only be flagged at inflection points (src/pair_table.cpp:466)
pair_coeff * * threebody/table swapMech.3b NULL NULL PA PB

# Molecules
include molDeform.in
molecule CL sysFiles/molecule.patchy.CL
Read molecule template CL:
# Patchy Cross-Linker
  1 molecules
  0 fragments
  5 atoms with max type 3
  4 bonds with max type 1
  0 angles with max type 0
  0 dihedrals with max type 0
  0 impropers with max type 0
molecule MO sysFiles/molecule.patchy.MO
Read molecule template MO:
# Patchy Monomer
  1 molecules
  0 fragments
  3 atoms with max type 4
  2 bonds with max type 1
  0 angles with max type 0
  0 dihedrals with max type 0
  0 impropers with max type 0

# Create patchy particles
group CrossLinker type 1 3
1125 atoms in group CrossLinker
group Monomer type 2 4
3825 atoms in group Monomer
group Patches type 3 4
3450 atoms in group Patches
group CL type 1
225 atoms in group CL
group MO type 2
1275 atoms in group MO
group PA type 3
900 atoms in group PA
group CM type 1 2
1500 atoms in group CM
fix pCL CrossLinker rigid/small/omp molecule #langevin 1.0 1.0 100.0 ${seed3}
  create bodies CPU = 0.000 seconds
  225 rigid bodies with 1125 atoms
  0.46400431 = max distance from body owner to body atom
fix pMO Monomer rigid/small/omp molecule #langevin 1.0 1.0 100.0 ${seed3}
  create bodies CPU = 0.000 seconds
  1275 rigid bodies with 3825 atoms
  0.5 = max distance from body owner to body atom

# Neighbor list
neighbor 1.8 bin # extra-distance style
neigh_modify exclude molecule/intra CrossLinker
neigh_modify exclude molecule/intra Monomer

fix BrDy all rigid/nve/small molecule langevin 0.05 0.05 0.25 12345 # Brownian Dynamics: langevin + nve
  create bodies CPU = 0.000 seconds
  1500 rigid bodies with 4950 atoms
  0.5 = max distance from body owner to body atom
fix_modify BrDy virial no

thermo ${sstep}
thermo 10000

# Compute global kinetic and potential energy and temperature
compute t all temp
compute ep all pe
compute ek all ke
compute stressVirial all pressure t ke pair
variable tilt equal v_shear_rate*step*dt
compute blAll Patches pair table/omp 3 epair
compute blCl PA pair table/omp 3 epair


# DUMPS and FIXES

# Save atom positions
dump dumpID all atom ${Nsave} info/patchyParticles_shear.dumpf
dump dumpID all atom 500 info/patchyParticles_shear.dumpf
dump_modify dumpID pbc yes # remap atoms via periodic boundary conditions
#dump_modify dumpID delay ${steps}

# Save global energies and temperature
group Energy empty
0 atoms in group Energy
group BL1 empty
0 atoms in group BL1
group BL2 empty
0 atoms in group BL2
fix fixEng Energy ave/time 1 10 10 c_t c_ep c_ek file info/energy_shear.fixf

fix fixBLg BL1 ave/time 1 10 10 c_blAll file info/bondlenPatch_shear.fixf
fix fixBLc BL2 ave/time 1 10 10 c_blCl file info/bondlenCL_shear.fixf


# Save Stress tensor
group Stress empty
0 atoms in group Stress
fix fixStress5 Stress ave/time 1 ${Nave} ${Nave} v_tilt c_stressVirial[*] file info/stressVirial_shear.fixf
fix fixStress5 Stress ave/time 1 1000 ${Nave} v_tilt c_stressVirial[*] file info/stressVirial_shear.fixf
fix fixStress5 Stress ave/time 1 1000 1000 v_tilt c_stressVirial[*] file info/stressVirial_shear.fixf

# RUN SIMULATION

# Introduce deformation
fix shear all deform 1 xy erate ${shear_rate} remap x flip yes
fix shear all deform 1 xy erate 0.02 remap x flip yes

# Run deformation
timestep ${tstep}
timestep 0.001
run ${shear_it}
run 600000

CITE-CITE-CITE-CITE-CITE-CITE-CITE-CITE-CITE-CITE-CITE-CITE-CITE

Your simulation uses code contributions which should be cited:

- Type Label Framework: https://doi.org/10.1021/acs.jpcb.3c08419

@Article{Gissinger24,
 author = {Jacob R. Gissinger, Ilia Nikiforov, Yaser Afshar, Brendon Waters, Moon-ki Choi, Daniel S. Karls, Alexander Stukowski, Wonpil Im, Hendrik Heinz, Axel Kohlmeyer, and Ellad B. Tadmor},
 title = {Type Label Framework for Bonded Force Fields in LAMMPS},
 journal = {J. Phys. Chem. B},
 year =    2024,
 volume =  128,
 number =  13,
 pages =   {3282â€“-3297}
}

CITE-CITE-CITE-CITE-CITE-CITE-CITE-CITE-CITE-CITE-CITE-CITE-CITE

WARNING: Using a manybody potential with bonds/angles/dihedrals and special_bond exclusions (src/pair.cpp:242)
Hybrid pair style last /omp style table/omp
Last active /omp style is pair_style table/omp
WARNING: More than one fix rigid command (src/RIGID/fix_rigid_small.cpp:529)
WARNING: More than one fix rigid command (src/RIGID/fix_rigid_small.cpp:529)
WARNING: More than one fix rigid command (src/RIGID/fix_rigid_small.cpp:529)
WARNING: One or more atoms are time integrated more than once (src/modify.cpp:296)
Neighbor list info ...
  update: every = 1 steps, delay = 0 steps, check = yes
  max neighbors/atom: 2000, page size: 100000
  master list distance cutoff = 2.92
  ghost atom cutoff = 2.92
  binsize = 1.46, bins = 14 14 14
  6 neighbor lists, perpetual/occasional/extra = 6 0 0
  (1) pair zero, perpetual, skip from (5)
      attributes: half, newton on, omp
      pair build: skip/omp
      stencil: none
      bin: none
  (2) pair lj/cut/omp, perpetual, skip from (5)
      attributes: half, newton on, omp
      pair build: skip/omp
      stencil: none
      bin: none
  (3) pair table/omp, perpetual, skip from (5)
      attributes: half, newton on, omp, cut 2.4
      pair build: skip/omp
      stencil: none
      bin: none
  (4) pair threebody/table, perpetual, skip from (6)
      attributes: full, newton on, omp, cut 2.4
      pair build: skip/omp
      stencil: none
      bin: none
  (5) neighbor class addition, perpetual
      attributes: half, newton on, omp
      pair build: half/bin/newton/tri/omp
      stencil: half/bin/3d/tri
      bin: standard
  (6) neighbor class addition, perpetual
      attributes: full, newton on, omp, cut 2.4
      pair build: full/bin/omp
      stencil: full/bin/3d
      bin: standard
Per MPI rank memory allocation (min/avg/max) = 25.23 | 25.25 | 25.28 Mbytes
   Step          Temp          E_pair         E_mol          TotEng         Press          Volume    
         0   0.70592808     0.97259451     0              1.0151641      0.016185469    7996.5685    
     10000   0.63902651     0.9939784      0              1.0325136     -4494.8827      7996.5685    
     20000   0.64578589     1.0121724      0              1.0511153     -22316.934      7996.5685    
     30000   0.66221733     1.0288561      0              1.0687898     -56331.425      7996.5685    
     40000   0.66634481     1.0525317      0              1.0927144     -114571.36      7996.5685    
     50000   0.68049635     0.97741767     0              1.0184537     -207568.79      7996.5685    
     60000   0.66451926     0.94821699     0              0.98828951    -331450.9       7996.5685    
     70000   0.65980387     0.85556282     0              0.895351      -491449.08      7996.5685    
     80000   0.66233817     0.89214902     0              0.93209002    -628015.39      7996.5685    
     90000   0.66801044     0.87686432     0              0.91714737    -885098.44      7996.5685    
    100000   0.67822577     0.82875016     0              0.86964922    -1202705        7996.5685    
    110000   0.66793002     0.80495562     0              0.84523382    -1561057.3      7996.5685    
    120000   0.65096912     0.80595367     0              0.84520908    -1994596.5      7996.5685    
    130000   0.68114216     0.81569419     0              0.85676913    -2170582.3      7996.5685    
    140000   0.67476567     0.81286187     0              0.85355229    -2737625.3      7996.5685    
    150000   0.67308608     0.78689544     0              0.82748457    -3468975.7      7996.5685    
    160000   0.68220178     0.82225086     0              0.86338969    -4169696.8      7996.5685    
    170000   0.66449525     0.77024844     0              0.81031952    -5024229.8      7996.5685    
    180000   0.65843771     0.82408439     0              0.86379018    -4987300.5      7996.5685    
    190000   0.70303616     0.8460865      0              0.88848171    -6055736.4      7996.5685    
    200000   0.66089121     0.8667442      0              0.90659794    -7102548.5      7996.5685    
    210000   0.65819263     0.84810931     0              0.88780032    -8354747.9      7996.5685    
    220000   0.67649203     0.90176717     0              0.94256169    -9712161.4      7996.5685    
    230000   0.67163628     0.89648862     0              0.93699032    -9374974.7      7996.5685    
    240000   0.6541474      0.9001097      0              0.93955677    -10933663       7996.5685    
    250000   0.68174702     0.84464598     0              0.88575739    -12346276       7996.5685    
    260000   0.65997835     0.90816048     0              0.94795918    -14262010       7996.5685    
    270000   0.65885338     0.90068328     0              0.94041414    -16131864       7996.5685    
    280000   0.64834966     0.90835111     0              0.94744856    -15232339       7996.5685    
    290000   0.67775147     0.93414294     0              0.97501341    -17459993       7996.5685    
    300000   0.66586598     0.94754161     0              0.98769535    -19693865       7996.5685    
    310000   0.66497999     0.92985078     0              0.96995109    -21389569       7996.5685    
    320000   0.67059332     0.93876251     0              0.97920132    -24141691       7996.5685    
    330000   0.66679971     0.95233792     0              0.99254796    -21952651       7996.5685    
    340000   0.66041722     0.96912556     0              1.0089507     -24633042       7996.5685    
    350000   0.66736789     0.96957337     0              1.0098177     -27426285       7996.5685    
    360000   0.66434287     0.97146085     0              1.0115227     -29898572       7996.5685    
    370000   0.67064643     0.94302859     0              0.9834706     -32281846       7996.5685    
    380000   0.67483276     0.93168397     0              0.97237843     33296397       7996.5685    
    390000   0.66701573     0.9151259      0              0.95534897    -29250254       7996.5685    
    400000   0.66621987     0.9159213      0              0.95609637    -30164190       7996.5685    
    410000   0.67408071     0.90564875     0              0.94629786    -31872478       7996.5685    
    420000   0.67233197     0.87566178     0              0.91620544    -33796571       7996.5685    
    430000   0.66764717     0.91370572     0              0.95396687    -28831199       7996.5685    
    440000   0.67377801     0.90507911     0              0.94570996    -30223479       7996.5685    
    450000   0.68818306     0.9033708      0              0.94487032    -30124798       7996.5685    
    460000   0.66641335     0.90827212     0              0.94845886    -31335439       7996.5685    
    470000   0.6543683      0.90517294     0              0.94463333    -31665299       7996.5685    
    480000   0.6752408      0.88698651     0              0.92770558    -25213083       7996.5685    
    490000   0.66145132     0.90532868     0              0.9452162     -25780586       7996.5685    
    500000   0.66765825     0.96170326     0              1.0019651     -27107828       7996.5685    
    510000   0.68547194     0.97737298     0              1.018709      -28326853       7996.5685    
    520000   0.68881746     0.99260563     0              1.0341434     -29279189       7996.5685    
    530000   0.65929455     0.98468675     0              1.0244442     -23522905       7996.5685    
    540000   0.68853833     0.98655089     0              1.0280718     -25291337       7996.5685    
    550000   0.6681557      0.97136706     0              1.0116589     -26639089       7996.5685    
    560000   0.68766086     0.98653754     0              1.0280056     -27874338       7996.5685    
    570000   0.67443165     0.99767536     0              1.0383456     -29212444       7996.5685    
    580000   0.66827835     0.96862564     0              1.0089248     -22671276       7996.5685    
    590000   0.6761008      0.94544611     0              0.98621704    -24386111       7996.5685    
    600000   0.67647125     0.93878858     0              0.97958185    -25193445       7996.5685    
Loop time of 481.093 on 8 procs for 600000 steps with 4950 atoms

Performance: 107754.605 tau/day, 1247.160 timesteps/s, 6.173 Matom-step/s
91.0% CPU use with 8 MPI tasks x 1 OpenMP threads

MPI task timing breakdown:
Section |  min time  |  avg time  |  max time  |%varavg| %total
---------------------------------------------------------------
Pair    | 83.474     | 91.798     | 102.13     |  65.4 | 19.08
Bond    | 0.069228   | 0.082933   | 0.1027     |   3.3 |  0.02
Neigh   | 5.1948     | 5.1961     | 5.1976     |   0.0 |  1.08
Comm    | 65.537     | 75.143     | 82.679     |  68.3 | 15.62
Output  | 0.71688    | 0.82877    | 0.93453    |   7.9 |  0.17
Modify  | 298.47     | 298.95     | 299.33     |   1.5 | 62.14
Other   |            | 9.096      |            |       |  1.89

Nlocal:         618.75 ave         804 max         290 min
Histogram: 1 0 0 0 0 2 1 2 0 2
Nghost:        1722.62 ave        1848 max        1544 min
Histogram: 2 0 1 0 0 0 0 0 4 1
Neighs:              0 ave           0 max           0 min
Histogram: 8 0 0 0 0 0 0 0 0 0

Total # of neighbors = 0
Ave neighs/atom = 0
Ave special neighs/atom = 2.4545455
Neighbor list builds = 828
Dangerous builds = 12

# Stop deformation
unfix shear

# Relax time
run ${rlxT1}
run 50000
WARNING: Using a manybody potential with bonds/angles/dihedrals and special_bond exclusions (src/pair.cpp:242)
Hybrid pair style last /omp style table/omp
Last active /omp style is pair_style table/omp
WARNING: More than one fix rigid command (src/RIGID/fix_rigid_small.cpp:529)
WARNING: More than one fix rigid command (src/RIGID/fix_rigid_small.cpp:529)
WARNING: More than one fix rigid command (src/RIGID/fix_rigid_small.cpp:529)
WARNING: One or more atoms are time integrated more than once (src/modify.cpp:296)
Per MPI rank memory allocation (min/avg/max) = 26.26 | 26.32 | 26.41 Mbytes
   Step          Temp          E_pair         E_mol          TotEng         Press     
    600000   0.67647125     0.93878944     0              0.9795827     -0.093228653  
    610000   0.67949564     0.94079335     0              0.98176899    -4484.584     
    620000   0.64704749     0.93998883     0              0.97900775    -25165.783    
    630000   0.66973625     0.91571629     0              0.95610342    -59506.27     
    640000   0.66189869     0.99678009     0              1.0366946     -110228.64    
    650000   0.6656794      0.95921937     0              0.99936185    -170662.79    
Loop time of 39.1236 on 8 procs for 50000 steps with 4950 atoms

Performance: 110419.195 tau/day, 1278.000 timesteps/s, 6.326 Matom-step/s
91.5% CPU use with 8 MPI tasks x 1 OpenMP threads

MPI task timing breakdown:
Section |  min time  |  avg time  |  max time  |%varavg| %total
---------------------------------------------------------------
Pair    | 3.5551     | 7.8742     | 11.418     |  85.3 | 20.13
Bond    | 0.0058468  | 0.0066317  | 0.0083591  |   0.9 |  0.02
Neigh   | 0.13066    | 0.1309     | 0.13113    |   0.0 |  0.33
Comm    | 3.2459     | 6.8357     | 11.134     |  91.7 | 17.47
Output  | 0.059224   | 0.067868   | 0.076607   |   2.3 |  0.17
Modify  | 23.049     | 23.426     | 23.771     |   5.3 | 59.88
Other   |            | 0.7824     |            |       |  2.00

Nlocal:         618.75 ave         804 max         277 min
Histogram: 1 0 0 0 1 0 2 2 0 2
Nghost:        1722.25 ave        1887 max        1506 min
Histogram: 1 0 1 1 0 0 0 4 0 1
Neighs:              0 ave           0 max           0 min
Histogram: 8 0 0 0 0 0 0 0 0 0

Total # of neighbors = 0
Ave neighs/atom = 0
Ave special neighs/atom = 2.4545455
Neighbor list builds = 19
Dangerous builds = 0

# Introduce deformation
fix shear all deform 1 xy erate ${shear_rate} remap x flip yes
fix shear all deform 1 xy erate 0.02 remap x flip yes

# Re-run deformation
timestep ${tstep}
timestep 0.001
run ${shear_it}
run 600000
WARNING: Using a manybody potential with bonds/angles/dihedrals and special_bond exclusions (src/pair.cpp:242)
Hybrid pair style last /omp style table/omp
Last active /omp style is pair_style table/omp
WARNING: More than one fix rigid command (src/RIGID/fix_rigid_small.cpp:529)
WARNING: More than one fix rigid command (src/RIGID/fix_rigid_small.cpp:529)
WARNING: More than one fix rigid command (src/RIGID/fix_rigid_small.cpp:529)
WARNING: One or more atoms are time integrated more than once (src/modify.cpp:296)
Per MPI rank memory allocation (min/avg/max) = 26.28 | 26.33 | 26.42 Mbytes
   Step          Temp          E_pair         E_mol          TotEng         Press          Volume    
    650000   0.6656794      0.95921937     0              0.99936185     0.01927466     7996.5685    
    660000   0.66993215     1.0049451      0              1.0453441     -5966.6968      7996.5685    
    670000   0.64393005     1.0031082      0              1.0419392     -25266.564      7996.5685    
    680000   0.68405657     1.0057237      0              1.0469744     -64459.419      7996.5685    
    690000   0.66574337     0.99546497     0              1.0356113     -128778.04      7996.5685    
    700000   0.668639       0.95255428     0              0.99287523    -229435.85      7996.5685    
    710000   0.66713316     0.98370479     0              1.0239349     -359689.41      7996.5685    
    720000   0.66359325     0.98359806     0              1.0236147     -545926.65      7996.5685    
    730000   0.67308098     0.95884593     0              0.99943475    -707732.99      7996.5685    
    740000   0.68330628     0.97330151     0              1.014507      -992519.08      7996.5685    
    750000   0.69093962     0.96086494     0              1.0025307     -1315118.3      7996.5685    
    760000   0.68264504     0.98622205     0              1.0273876     -1726914.3      7996.5685    
    770000   0.68161932     1.0222301      0              1.0633339     -2148510.9      7996.5685    
    780000   0.68183162     1.0006425      0              1.041759      -2457845.7      7996.5685    
    790000   0.67638408     1.0047251      0              1.0455131     -3075664.6      7996.5685    
    800000   0.67121692     0.9571884      0              0.99766481    -3730628.3      7996.5685    
    810000   0.65724951     0.96328606     0              1.0029202     -4472602.6      7996.5685    
    820000   0.69069097     0.9821373      0              1.0237881     -5275236.5      7996.5685    
    830000   0.65885778     0.96898236     0              1.0087135     -5683582        7996.5685    
    840000   0.66906336     0.9391202      0              0.97946675    -6655311.4      7996.5685    
    850000   0.66346079     0.96434337     0              1.0043521     -7781827.4      7996.5685    
    860000   0.65843317     0.97638665     0              1.0160922     -9025994.3      7996.5685    
    870000   0.66296075     0.94838925     0              0.98836779    -10352629       7996.5685    
    880000   0.68684554     0.89197497     0              0.93339384    -10834046       7996.5685    
    890000   0.65240442     0.92858078     0              0.96792275    -12370266       7996.5685    
    900000   0.66561544     0.93120786     0              0.97134648    -13873238       7996.5685    
    910000   0.67790265     0.92430643     0              0.96518601    -15626901       7996.5685    
    920000   0.67099341     0.89830693     0              0.93876987    -17386273       7996.5685    
    930000   0.67355649     0.9279377      0              0.96855519    -17945114       7996.5685    
    940000   0.66660441     0.95452248     0              0.99472075    -20031116       7996.5685    
    950000   0.68196311     0.90797041     0              0.94909486    -21449199       7996.5685    
    960000   0.66056063     0.96149235     0              1.0013262     -23417184       7996.5685    
    970000   0.67274934     0.93198461     0              0.97255344    -25845848       7996.5685    
    980000   0.69448555     0.92763405     0              0.96951364    -25787369       7996.5685    
    990000   0.66133972     0.9205683      0              0.96044909    -26427735       7996.5685    
   1000000   0.66750816     0.97126886     0              1.0115216     -27521619       7996.5685    
   1010000   0.67376105     0.9993995      0              1.0400293     -28875256       7996.5685    
   1020000   0.66311351     1.018622       0              1.0586098     -30582900       7996.5685    
   1030000   0.66643185     1.0263077      0              1.0664955     -29785360       7996.5685    
   1040000   0.69440345     0.98877188     0              1.0306465     -30799387       7996.5685    
   1050000   0.66269394     1.0076485      0              1.0476109     -32505393       7996.5685    
   1060000   0.67989312     1.0431886      0              1.0841882     -33022116       7996.5685    
   1070000   0.68209584     0.98782318     0              1.0289556     -33333106       7996.5685    
   1080000   0.67497582     0.99864635     0              1.0393494     -30254857       7996.5685    
   1090000   0.65849926     1.0109663      0              1.0506758     -30558357       7996.5685    
   1100000   0.67134412     0.9907327      0              1.0312168      1.3031417e+08  7996.5685    
   1110000   0.68268708     1.0289954      0              1.0701635     -28000512       7996.5685    
   1120000   0.67011019     0.96975217     0              1.0101618     -28122906       7996.5685    
   1130000   0.6688466      0.99064173     0              1.0309752     -24776646       7996.5685    
   1140000   0.67468565     0.9813748      0              1.0220604     -23073046       7996.5685    
   1150000   0.69166386     1.0352396      0              1.076949      -23133857       7996.5685    
   1160000   0.66643529     1.0013161      0              1.0415042     -20680940       7996.5685    
   1170000   0.6791678      1.0162388      0              1.0571947     -20723265       7996.5685    
   1180000   0.69226229     0.98910209     0              1.0308476     -17606315       7996.5685    
   1190000   0.66622587     1.0053534      0              1.0455288     -19089384       7996.5685    
   1200000   0.67129888     0.97137452     0              1.0118559     -18532160       7996.5685    
   1210000   0.68876074     1.0386247      0              1.080159       5.7468563e+08  7996.5685    
   1220000   0.67624555     0.99908816     0              1.0398678     -19691550       7996.5685    
   1230000   0.67974366     0.99156773     0              1.0325583     -16081508       7996.5685    
   1240000   0.65465922     0.97591361     0              1.0153915     -15645260       7996.5685    
   1250000   0.68526548     0.99660726     0              1.0379308     -1.0062152e+08  7996.5685    
Loop time of 474.989 on 8 procs for 600000 steps with 4950 atoms

Performance: 109139.334 tau/day, 1263.187 timesteps/s, 6.253 Matom-step/s
91.6% CPU use with 8 MPI tasks x 1 OpenMP threads

MPI task timing breakdown:
Section |  min time  |  avg time  |  max time  |%varavg| %total
---------------------------------------------------------------
Pair    | 90.28      | 97.252     | 110.16     |  66.8 | 20.47
Bond    | 0.066986   | 0.079544   | 0.087749   |   2.2 |  0.02
Neigh   | 5.2333     | 5.2354     | 5.2377     |   0.1 |  1.10
Comm    | 62.457     | 74.686     | 81.132     |  71.7 | 15.72
Output  | 0.70977    | 0.81626    | 0.91798    |   7.6 |  0.17
Modify  | 287.34     | 288.2      | 288.66     |   2.4 | 60.68
Other   |            | 8.717      |            |       |  1.84

Nlocal:         618.75 ave         869 max         483 min
Histogram: 2 1 1 1 0 2 0 0 0 1
Nghost:        1798.88 ave        1871 max        1760 min
Histogram: 4 1 0 0 0 1 0 0 1 1
Neighs:              0 ave           0 max           0 min
Histogram: 8 0 0 0 0 0 0 0 0 0

Total # of neighbors = 0
Ave neighs/atom = 0
Ave special neighs/atom = 2.4545455
Neighbor list builds = 825
Dangerous builds = 12

# Stop deformation
unfix shear

# Relax time
run ${rlxT2}
run 100000
WARNING: Using a manybody potential with bonds/angles/dihedrals and special_bond exclusions (src/pair.cpp:242)
Hybrid pair style last /omp style table/omp
Last active /omp style is pair_style table/omp
WARNING: More than one fix rigid command (src/RIGID/fix_rigid_small.cpp:529)
WARNING: More than one fix rigid command (src/RIGID/fix_rigid_small.cpp:529)
WARNING: More than one fix rigid command (src/RIGID/fix_rigid_small.cpp:529)
WARNING: One or more atoms are time integrated more than once (src/modify.cpp:296)
Per MPI rank memory allocation (min/avg/max) = 26.26 | 26.32 | 26.41 Mbytes
   Step          Temp          E_pair         E_mol          TotEng         Press     
   1250000   0.68526548     0.99660798     0              1.0379316     -0.012471379  
   1260000   0.69684063     1.0243966      0              1.0664182     -4339.7676    
   1270000   0.66062472     1.0397932      0              1.0796309     -20886.276    
   1280000   0.67670389     1.026002       0              1.0668093     -63517.904    
   1290000   0.69530718     1.0719146      0              1.1138438     -102819.01    
   1300000   0.67637699     1.1187541      0              1.1595417     -186314.31    
   1310000   0.66670379     1.0676002      0              1.1078045     -253848.03    
   1320000   0.6782534      1.0695546      0              1.1104553     -366930.28    
   1330000   0.66127678     1.0936694      0              1.1335464     -461584.99    
   1340000   0.67927544     1.0486504      0              1.0896128     -567054.85    
   1350000   0.65833533     1.1210679      0              1.1607675     -732235.64    
Loop time of 80.1912 on 8 procs for 100000 steps with 4950 atoms

Performance: 107742.431 tau/day, 1247.019 timesteps/s, 6.173 Matom-step/s
91.3% CPU use with 8 MPI tasks x 1 OpenMP threads

MPI task timing breakdown:
Section |  min time  |  avg time  |  max time  |%varavg| %total
---------------------------------------------------------------
Pair    | 12.123     | 16.663     | 25.145     |  94.4 | 20.78
Bond    | 0.011932   | 0.013464   | 0.015391   |   1.0 |  0.02
Neigh   | 0.21993    | 0.22019    | 0.2204     |   0.0 |  0.27
Comm    | 5.1927     | 13.503     | 18.197     | 104.3 | 16.84
Output  | 0.11842    | 0.13562    | 0.15366    |   3.2 |  0.17
Modify  | 47.815     | 48.175     | 48.597     |   3.8 | 60.08
Other   |            | 1.481      |            |       |  1.85

Nlocal:         618.75 ave         895 max         485 min
Histogram: 2 1 2 1 1 0 0 0 0 1
Nghost:           1863 ave        1962 max        1819 min
Histogram: 2 1 1 2 1 0 0 0 0 1
Neighs:              0 ave           0 max           0 min
Histogram: 8 0 0 0 0 0 0 0 0 0

Total # of neighbors = 0
Ave neighs/atom = 0
Ave special neighs/atom = 2.4545455
Neighbor list builds = 35
Dangerous builds = 0

# Introduce deformation
fix shear all deform 1 xy erate ${shear_rate} remap x flip yes
fix shear all deform 1 xy erate 0.02 remap x flip yes

# Re-run deformation
timestep ${tstep}
timestep 0.001
run ${shear_it}
run 600000
WARNING: Using a manybody potential with bonds/angles/dihedrals and special_bond exclusions (src/pair.cpp:242)
Hybrid pair style last /omp style table/omp
Last active /omp style is pair_style table/omp
WARNING: More than one fix rigid command (src/RIGID/fix_rigid_small.cpp:529)
WARNING: More than one fix rigid command (src/RIGID/fix_rigid_small.cpp:529)
WARNING: More than one fix rigid command (src/RIGID/fix_rigid_small.cpp:529)
WARNING: One or more atoms are time integrated more than once (src/modify.cpp:296)
Per MPI rank memory allocation (min/avg/max) = 26.28 | 26.33 | 26.42 Mbytes
   Step          Temp          E_pair         E_mol          TotEng         Press          Volume    
   1350000   0.65833533     1.1210679      0              1.1607675      0.014447159    7996.5685    
   1360000   0.65862146     1.1644627      0              1.2041795     -5318.0491      7996.5685    
   1370000   0.6887155      1.1275541      0              1.1690857     -27155.468      7996.5685    
   1380000   0.65832849     1.0610573      0              1.1007565     -68832.81       7996.5685    
   1390000   0.67837061     1.0807921      0              1.1216999     -138766.26      7996.5685    
   1400000   0.66574441     1.0768829      0              1.1170293     -234898         7996.5685    
   1410000   0.65952707     1.0636062      0              1.1033777     -374588.61      7996.5685    
   1420000   0.669984       1.0420203      0              1.0824223     -549112.43      7996.5685    
   1430000   0.66780482     1.0242745      0              1.0645452     -726946.06      7996.5685    
   1440000   0.67689809     1.0518552      0              1.0926742     -986253.46      7996.5685    
   1450000   0.66646153     0.96265609     0              1.0028457     -1315987.2      7996.5685    
   1460000   0.6632702      1.0568591      0              1.0968563     -1694918.8      7996.5685    
   1470000   0.66122451     1.0051912      0              1.045065      -2119010.1      7996.5685    
   1480000   0.6832843      0.99058675     0              1.0317909     -2498749.8      7996.5685    
   1490000   0.67843952     0.96928378     0              1.0101957     -3060819.1      7996.5685    
   1500000   0.67359942     0.94237619     0              0.98299628    -3672847.3      7996.5685    
   1510000   0.67312345     0.9587169      0              0.99930828    -4413542.6      7996.5685    
   1520000   0.66134515     0.95091609     0              0.99079721    -5172466.8      7996.5685    
   1530000   0.67247651     0.89904589     0              0.93959826    -5803683.3      7996.5685    
   1540000   0.66995117     0.90070885     0              0.94110894    -6729771.6      7996.5685    
   1550000   0.68322964     0.91044981     0              0.95165063    -7772028.8      7996.5685    
   1560000   0.65909371     0.92579797     0              0.96554332    -8896212.9      7996.5685    
   1570000   0.67601417     0.88876909     0              0.92953479    -10064772       7996.5685    
   1580000   0.66549289     0.9426887      0              0.98281994    -11071613       7996.5685    
   1590000   0.67715448     0.97951193     0              1.0203464     -12508242       7996.5685    
   1600000   0.66933353     0.94280814     0              0.98317098    -13935087       7996.5685    
   1610000   0.6534393      0.96506244     0              1.0044668     -15421496       7996.5685    
   1620000   0.67741443     0.96629884     0              1.007149      -17152561       7996.5685    
   1630000   0.67524965     0.95981391     0              1.0005335     -18426986       7996.5685    
   1640000   0.67383017     0.98046073     0              1.0210947     -20344973       7996.5685    
   1650000   0.67276211     0.96295056     0              1.0035202     -22245591       7996.5685    
   1660000   0.66282082     0.97788942     0              1.0178595     -24129075       7996.5685    
   1670000   0.6736323      1.0077572      0              1.0483792     -26382138       7996.5685    
   1680000   0.67719032     1.0177568      0              1.0585934     -27516720       7996.5685    
   1690000   0.67360212     1.0031779      0              1.0437981     -29445544       7996.5685    
   1700000   0.68745064     1.0084225      0              1.0498779     -30784407       7996.5685    
   1710000   0.67609101     0.95539084     0              0.99616118    -31662469       7996.5685    
   1720000   0.65293513     0.99159615     0              1.0309701     -32699980       7996.5685    
   1730000   0.66817751     1.0100727      0              1.0503658     -31209184       7996.5685    
   1740000   0.66228032     1.0038021      0              1.0437396     -31936598       7996.5685    
   1750000   0.68085043     1.0644122      0              1.1054695     -32695349       7996.5685    
   1760000   0.68319617     1.0605974      0              1.1017962     -30901335       7996.5685    
   1770000   0.68848448     1.0593766      0              1.1008943     -30254528       7996.5685    
   1780000   0.6814971      1.0718334      0              1.1129297     -28920339       7996.5685    
   1790000   0.66629067     1.0621405      0              1.1023198     -27239495       7996.5685    
   1800000   0.68854488     1.106554       0              1.1480754     -26098503       7996.5685    
   1810000   0.66746689     1.0839195      0              1.1241697     -25219007       7996.5685    
   1820000   0.65790644     1.0667514      0              1.1064252      21409199       7996.5685    
   1830000   0.69044866     1.1381577      0              1.1797939     -20812986       7996.5685    
   1840000   0.68813904     1.0682342      0              1.1097311     -20705572       7996.5685    
   1850000   0.6811219      1.0548261      0              1.0958998     -19333308       7996.5685    
   1860000   0.67551403     1.1101391      0              1.1508746     -19805394       7996.5685    
   1870000   0.70019355     1.0646433      0              1.1068671     -19250326       7996.5685    
   1880000   0.67720899     1.1098293      0              1.1506671     -2.6620083e+08  7996.5685    
   1890000   0.69142737     1.0889955      0              1.1306906      1.6153797e+08  7996.5685    
   1900000   0.67614429     1.0795988      0              1.1203724     -6.1022337e+08  7996.5685    
   1910000   0.69924021     1.0974316      0              1.1395979     -18892558       7996.5685    
   1920000   0.69598302     1.1159         0              1.1578699     -18268608       7996.5685    
   1930000   0.66122917     1.0769045      0              1.1167786     -16787415       7996.5685    
   1940000   0.68782244     1.1372434      0              1.1787212     -17420205       7996.5685    
   1950000   0.67303687     1.1062253      0              1.1468114     -19176258       7996.5685    
Loop time of 487.805 on 8 procs for 600000 steps with 4950 atoms

Performance: 106272.078 tau/day, 1230.001 timesteps/s, 6.089 Matom-step/s
91.6% CPU use with 8 MPI tasks x 1 OpenMP threads

MPI task timing breakdown:
Section |  min time  |  avg time  |  max time  |%varavg| %total
---------------------------------------------------------------
Pair    | 84.355     | 101.53     | 120.89     | 104.4 | 20.81
Bond    | 0.068634   | 0.081071   | 0.091751   |   2.9 |  0.02
Neigh   | 5.4422     | 5.4448     | 5.4471     |   0.1 |  1.12
Comm    | 59.159     | 77.597     | 93.898     | 113.4 | 15.91
Output  | 0.73299    | 0.83727    | 0.91588    |   6.9 |  0.17
Modify  | 292.63     | 293.53     | 294.11     |   2.7 | 60.17
Other   |            | 8.79       |            |       |  1.80

Nlocal:         618.75 ave         793 max         434 min
Histogram: 1 0 2 1 0 0 1 0 2 1
Nghost:        1774.38 ave        1889 max        1662 min
Histogram: 1 0 0 1 2 3 0 0 0 1
Neighs:              0 ave           0 max           0 min
Histogram: 8 0 0 0 0 0 0 0 0 0

Total # of neighbors = 0
Ave neighs/atom = 0
Ave special neighs/atom = 2.4545455
Neighbor list builds = 825
Dangerous builds = 12

# Stop deformation
unfix shear

# Relax time
run ${rlxT3}
run 200000
WARNING: Using a manybody potential with bonds/angles/dihedrals and special_bond exclusions (src/pair.cpp:242)
Hybrid pair style last /omp style table/omp
Last active /omp style is pair_style table/omp
WARNING: More than one fix rigid command (src/RIGID/fix_rigid_small.cpp:529)
WARNING: More than one fix rigid command (src/RIGID/fix_rigid_small.cpp:529)
WARNING: More than one fix rigid command (src/RIGID/fix_rigid_small.cpp:529)
WARNING: One or more atoms are time integrated more than once (src/modify.cpp:296)
Per MPI rank memory allocation (min/avg/max) = 26.26 | 26.33 | 26.43 Mbytes
   Step          Temp          E_pair         E_mol          TotEng         Press     
   1950000   0.67303687     1.1062263      0              1.1468124     -0.053281884  
   1960000   0.66394672     1.1397772      0              1.1798152     -3427.7481    
   1970000   0.67483048     1.1698512      0              1.2105455     -27230.917    
   1980000   0.66969673     1.1938929      0              1.2342777     -65826.097    
   1990000   0.68184222     1.2189502      0              1.2600674     -110207.66    
   2000000   0.6779077      1.2225032      0              1.263383      -180052.65    
   2010000   0.66478786     1.2110914      0              1.2511802     -274102.14    
   2020000   0.68314559     1.2445023      0              1.285698      -370812.56    
   2030000   0.65566012     1.2812078      0              1.3207461     -489111.07    
   2040000   0.65870099     1.2615478      0              1.3012695     -624577.6     
   2050000   0.69771764     1.2744573      0              1.3165318     -746693.23    
   2060000   0.67737307     1.2862376      0              1.3270853     -905438.34    
   2070000   0.68236836     1.2697377      0              1.3108866     -1075766.1    
   2080000   0.67559597     1.2998934      0              1.3406339     -1297737.1    
   2090000   0.67975468     1.2830808      0              1.3240721     -1513359.5    
   2100000   0.67182611     1.3044297      0              1.3449429     -1756944.2    
   2110000   0.66517694     1.3371479      0              1.3772601     -1970826.9    
   2120000   0.66376067     1.3293197      0              1.3693464     -2222226.4    
   2130000   0.67432092     1.3284165      0              1.3690801     -2472035.8    
   2140000   0.67160542     1.3846112      0              1.4251111     -2754783.2    
   2150000   0.66570113     1.3665238      0              1.4066676     -2994478.9    
Loop time of 160.99 on 8 procs for 200000 steps with 4950 atoms

Performance: 107335.664 tau/day, 1242.311 timesteps/s, 6.149 Matom-step/s
91.6% CPU use with 8 MPI tasks x 1 OpenMP threads

MPI task timing breakdown:
Section |  min time  |  avg time  |  max time  |%varavg| %total
---------------------------------------------------------------
Pair    | 23.776     | 36.597     | 48.691     | 126.7 | 22.73
Bond    | 0.022672   | 0.027041   | 0.032373   |   2.0 |  0.02
Neigh   | 0.4828     | 0.48294    | 0.48326    |   0.0 |  0.30
Comm    | 13.282     | 25.528     | 38.15      | 150.6 | 15.86
Output  | 0.23358    | 0.27051    | 0.3027     |   4.4 |  0.17
Modify  | 94.621     | 95.275     | 95.964     |   4.1 | 59.18
Other   |            | 2.811      |            |       |  1.75

Nlocal:         618.75 ave         811 max         486 min
Histogram: 2 1 0 1 1 1 0 1 0 1
Nghost:        1794.25 ave        1877 max        1666 min
Histogram: 1 0 0 1 0 1 2 1 0 2
Neighs:              0 ave           0 max           0 min
Histogram: 8 0 0 0 0 0 0 0 0 0

Total # of neighbors = 0
Ave neighs/atom = 0
Ave special neighs/atom = 2.4545455
Neighbor list builds = 70
Dangerous builds = 0

# Introduce deformation
fix shear all deform 1 xy erate ${shear_rate} remap x flip yes
fix shear all deform 1 xy erate 0.02 remap x flip yes

# Re-run deformation
timestep ${tstep}
timestep 0.001
run ${shear_it}
run 600000
WARNING: Using a manybody potential with bonds/angles/dihedrals and special_bond exclusions (src/pair.cpp:242)
Hybrid pair style last /omp style table/omp
Last active /omp style is pair_style table/omp
WARNING: More than one fix rigid command (src/RIGID/fix_rigid_small.cpp:529)
WARNING: More than one fix rigid command (src/RIGID/fix_rigid_small.cpp:529)
WARNING: More than one fix rigid command (src/RIGID/fix_rigid_small.cpp:529)
WARNING: One or more atoms are time integrated more than once (src/modify.cpp:296)
Per MPI rank memory allocation (min/avg/max) = 26.28 | 26.35 | 26.44 Mbytes
   Step          Temp          E_pair         E_mol          TotEng         Press          Volume    
   2150000   0.66570113     1.3665238      0              1.4066676     -0.096138874    7996.5685    
   2160000   0.68578587     1.4269253      0              1.4682802     -5724.613       7996.5685    
   2170000   0.66125953     1.4545327      0              1.4944086     -26415.793      7996.5685    
ERROR: Lost atoms: original 4950 current 4947 (src/thermo.cpp:494)
Last command: run ${shear_it}
