LAMMPS (29 Aug 2024)
OMP_NUM_THREADS environment is not set. Defaulting to 1 thread. (src/comm.cpp:98)
  using 1 OpenMP thread(s) per MPI task
package omp 0
using multi-threaded neighbor list subroutines
# Input Script of lammps for assembly simulation of polimeric network.

# Fco. Vazquez and Felipe Benavides

# Initialization
units lj
dimension 3
boundary p p p

# Styles of atoms and that stuff
atom_style bond
bond_style zero nocoeff
#pair_style hybrid/overlay/omp zero 0.0 lj/cut/omp 1.12 table/omp linear 5000000 threebody/table
pair_style hybrid/overlay/omp zero 0.0 lj/cut/omp 1.12 sw/omp threebody off threebody/table
newton on

# Create simulaiton box
region simulation_box block -$L $L -$L $L -$L $L
region simulation_box block -6.932675 $L -$L $L -$L $L
region simulation_box block -6.932675 6.932675 -$L $L -$L $L
region simulation_box block -6.932675 6.932675 -6.932675 $L -$L $L
region simulation_box block -6.932675 6.932675 -6.932675 6.932675 -$L $L
region simulation_box block -6.932675 6.932675 -6.932675 6.932675 -6.932675 $L
region simulation_box block -6.932675 6.932675 -6.932675 6.932675 -6.932675 6.932675
# N-atom-types region-ID keyword value Is necesesary the extra/special/per/atom (# of special neighbors per atom)
create_box 4 simulation_box     bond/types 1     extra/bond/per/atom 4     extra/special/per/atom 5
Created orthogonal box = (-6.932675 -6.932675 -6.932675) to (6.932675 6.932675 6.932675)
  2 by 2 by 2 MPI processor grid

# Atom types
mass 1 1.0      # CL
mass 2 1.0      # MO
mass 3 0.5      # PA
mass 4 0.5      # PB

# Coefficients
include potential.in
# Script with the pair-wise interaction and bonds between particles

bond_coeff * nocoeff
pair_coeff 1 3 zero
pair_coeff 1 4 zero
pair_coeff 2 3 zero
pair_coeff 2 4 zero
pair_coeff 3 3 zero
pair_coeff 1 1 lj/cut/omp 1.0 1.0 1.12
pair_coeff 2 2 lj/cut/omp 1.0 1.0 1.12
pair_coeff 1 2 lj/cut/omp 1.0 1.0 1.12
pair_coeff 3 4 sw/omp sysFiles/patchyPot.sw NULL NULL PA PB
  disabling sw potential three-body terms
pair_coeff 4 4 sw/omp sysFiles/patchyPot.sw NULL NULL PA PB
pair_coeff * * threebody/table swapMech.3b NULL NULL PA PB
pair_modify pair lj/cut/omp shift yes


# Molecules
include molecules.in
# Script with all molecule information and create groups for computes

# Read the molecule information
molecule CL sysFiles/molecule.patchy.CL
Read molecule template CL:
# Patchy Cross-Linker
  1 molecules
  0 fragments
  5 atoms with max type 3
  4 bonds with max type 1
  0 angles with max type 0
  0 dihedrals with max type 0
  0 impropers with max type 0
molecule MO sysFiles/molecule.patchy.MO
Read molecule template MO:
# Patchy Monomer
  1 molecules
  0 fragments
  3 atoms with max type 4
  2 bonds with max type 1
  0 angles with max type 0
  0 dihedrals with max type 0
  0 impropers with max type 0

# Introduce the molecules
# ID style args keyword arg
region spawn_box block -$L $L -$L $L -$L $L
region spawn_box block -6.932675 $L -$L $L -$L $L
region spawn_box block -6.932675 6.932675 -$L $L -$L $L
region spawn_box block -6.932675 6.932675 -6.932675 $L -$L $L
region spawn_box block -6.932675 6.932675 -6.932675 6.932675 -$L $L
region spawn_box block -6.932675 6.932675 -6.932675 6.932675 -6.932675 $L
region spawn_box block -6.932675 6.932675 -6.932675 6.932675 -6.932675 6.932675

# create_atoms type style args keyword values
# style_random: N seed region-ID
# keyword_mol: template-ID seed
# keyword_overlap: overlap value = only insert if at least this distance from all existing atoms
# keyword_maxtry: maxtry value = number of attempts to insert a particle before failure
create_atoms 0 random ${NCL} ${seed1} spawn_box mol CL ${seed1} overlap 1.0 maxtry 5000 #xls
create_atoms 0 random 10 ${seed1} spawn_box mol CL ${seed1} overlap 1.0 maxtry 5000 
create_atoms 0 random 10 1234 spawn_box mol CL ${seed1} overlap 1.0 maxtry 5000 
create_atoms 0 random 10 1234 spawn_box mol CL 1234 overlap 1.0 maxtry 5000 
Created 50 atoms
  using lattice units in orthogonal box = (-6.932675 -6.932675 -6.932675) to (6.932675 6.932675 6.932675)
  create_atoms CPU = 0.003 seconds
create_atoms 0 random ${NMO} ${seed2} spawn_box mol MO ${seed2} overlap 1.0 maxtry 5000 #mon
create_atoms 0 random 490 ${seed2} spawn_box mol MO ${seed2} overlap 1.0 maxtry 5000 
create_atoms 0 random 490 4321 spawn_box mol MO ${seed2} overlap 1.0 maxtry 5000 
create_atoms 0 random 490 4321 spawn_box mol MO 4321 overlap 1.0 maxtry 5000 
Created 1470 atoms
  using lattice units in orthogonal box = (-6.932675 -6.932675 -6.932675) to (6.932675 6.932675 6.932675)
  create_atoms CPU = 0.062 seconds

# Create patchy particles
group CrossLinker type 1 3
50 atoms in group CrossLinker
group Monomer type 2 4
1470 atoms in group Monomer
group Patches type 3 4
1020 atoms in group Patches
group CL type 1
10 atoms in group CL
group MO type 2
490 atoms in group MO
group PA type 3
40 atoms in group PA
group CM type 1 2
500 atoms in group CM

# Fix rigid bodies
fix frCL CrossLinker rigid/small/omp molecule
  create bodies CPU = 0.001 seconds
  10 rigid bodies with 50 atoms
  0.46400431 = max distance from body owner to body atom
fix frMO Monomer rigid/small/omp molecule
  create bodies CPU = 0.000 seconds
  490 rigid bodies with 1470 atoms
  0.5 = max distance from body owner to body atom

# Neighbor list
neighbor 1.12 bin # extra-distance style
neigh_modify exclude molecule/intra CrossLinker
neigh_modify exclude molecule/intra Monomer

# COMPUTES

# Compute global kinetic and potential energy and temperature
compute t all temp
compute tCM CM temp
compute ep all pe
compute ek all ke
compute ekCM CM ke
compute stressVirial all pressure t ke pair
compute wcaPair all pair lj/cut/omp epair
compute patchPair all pair sw/omp epair
compute swapPair all pair threebody/table epair
compute disc CM displace/atom
compute daux CM chunk/atom type pbc yes
compute dis CM reduce/chunk daux sum c_disc[4]
#compute disM CM reduce/chunk daux sum c_disc[4]

# Energy minimization
minimize 1.0e-4 1.0e-6 1000 10000
WARNING: Using a manybody potential with bonds/angles/dihedrals and special_bond exclusions (src/pair.cpp:243)
Hybrid pair style last /omp style sw/omp
Last active /omp style is pair_style sw/omp
WARNING: More than one fix rigid command (src/RIGID/fix_rigid_small.cpp:529)
WARNING: More than one fix rigid command (src/RIGID/fix_rigid_small.cpp:529)
Neighbor list info ...
  update: every = 1 steps, delay = 0 steps, check = yes
  max neighbors/atom: 2000, page size: 100000
  master list distance cutoff = 2.24
  ghost atom cutoff = 2.24
  binsize = 1.12, bins = 13 13 13
  6 neighbor lists, perpetual/occasional/extra = 6 0 0
  (1) pair zero, perpetual, skip from (5)
      attributes: half, newton on, omp
      pair build: skip/omp
      stencil: none
      bin: none
  (2) pair lj/cut/omp, perpetual, skip from (5)
      attributes: half, newton on, omp
      pair build: skip/omp
      stencil: none
      bin: none
  (3) pair sw/omp, perpetual, skip trim from (5)
      attributes: half, newton on, omp, cut 1.87
      pair build: skip/trim/omp
      stencil: none
      bin: none
  (4) pair threebody/table, perpetual, skip from (6)
      attributes: full, newton on, omp, cut 1.7200000000000002
      pair build: skip/omp
      stencil: none
      bin: none
  (5) neighbor class addition, perpetual
      attributes: half, newton on, omp
      pair build: half/bin/newton/omp
      stencil: half/bin/3d
      bin: standard
  (6) neighbor class addition, perpetual
      attributes: full, newton on, omp, cut 1.7200000000000002
      pair build: full/bin/omp
      stencil: full/bin/3d
      bin: standard
WARNING: Cannot count rigid body degrees-of-freedom before bodies are fully initialized (src/RIGID/fix_rigid_small.cpp:1129)
WARNING: Cannot count rigid body degrees-of-freedom before bodies are fully initialized (src/RIGID/fix_rigid_small.cpp:1129)
WARNING: Cannot count rigid body degrees-of-freedom before bodies are fully initialized (src/RIGID/fix_rigid_small.cpp:1129)
WARNING: Cannot count rigid body degrees-of-freedom before bodies are fully initialized (src/RIGID/fix_rigid_small.cpp:1129)
WARNING: Cannot count rigid body degrees-of-freedom before bodies are fully initialized (src/RIGID/fix_rigid_small.cpp:1129)
WARNING: Cannot count rigid body degrees-of-freedom before bodies are fully initialized (src/RIGID/fix_rigid_small.cpp:1129)
Per MPI rank memory allocation (min/avg/max) = 16.13 | 18.93 | 19.88 Mbytes
   Step          Temp          E_pair         E_mol          TotEng         Press     
         0   0              0.00067516832  0              0.00067516832  0.0062466692 
         1   0              0.00067516832  0              0.00067516832  0.0062466692 
Loop time of 0.000171143 on 8 procs for 1 steps with 1520 atoms

95.1% CPU use with 8 MPI tasks x 1 OpenMP threads

Minimization stats:
  Stopping criterion = quadratic factors are zero
  Energy initial, next-to-last, final = 
    0.000675168319707251 0.000675168319707251 0.000675168319707251
  Force two-norm initial, final = 21.154727 21.154727
  Force max component initial, final = 6.3589627 6.3589627
  Final line search alpha, max atom move = 0.015725835 0.1
  Iterations, force evaluations = 1 2

MPI task timing breakdown:
Section |  min time  |  avg time  |  max time  |%varavg| %total
---------------------------------------------------------------
Pair    | 2.3323e-05 | 2.7027e-05 | 3.8301e-05 |   0.0 | 15.79
Bond    | 3e-07      | 3.8075e-07 | 6.01e-07   |   0.0 |  0.22
Neigh   | 0          | 0          | 0          |   0.0 |  0.00
Comm    | 7.03e-05   | 8.32e-05   | 8.8397e-05 |   0.0 | 48.61
Output  | 0          | 0          | 0          |   0.0 |  0.00
Modify  | 4.468e-06  | 5.8233e-06 | 8.476e-06  |   0.0 |  3.40
Other   |            | 5.471e-05  |            |       | 31.97

Nlocal:            190 ave         194 max         187 min
Histogram: 1 1 3 0 0 1 0 0 1 1
Nghost:         675.25 ave         695 max         658 min
Histogram: 1 1 2 0 1 0 0 1 1 1
Neighs:              0 ave           0 max           0 min
Histogram: 8 0 0 0 0 0 0 0 0 0

Total # of neighbors = 0
Ave neighs/atom = 0
Ave special neighs/atom = 2.0657895
Neighbor list builds = 0
Dangerous builds = 0

# DUMPS and FIXES

thermo ${sstep}
thermo 500

# Save atom positions
dump dumpID all atom ${sstep} info/dumps/assembly/patchyParticles_assembly.*.dumpf
dump dumpID all atom 500 info/dumps/assembly/patchyParticles_assembly.*.dumpf
dump_modify dumpID pbc yes # remap atoms via periodic boundary conditions

# Save global energies and temperature
group Energy empty
0 atoms in group Energy
fix fixEng Energy ave/time 1 10 10 c_t c_ep c_ek c_tCM file info/energy_assembly.fixf

group PairE1 empty
0 atoms in group PairE1
group PairE2 empty
0 atoms in group PairE2
group PairE3 empty
0 atoms in group PairE3

fix fixwca PairE1 ave/time 1 10 10 c_wcaPair file info/wcaPair_assembly.fixf
fix fixpatch PairE2 ave/time 1 10 10 c_patchPair file info/patchPair_assembly.fixf
fix fixswap PairE3 ave/time 1 10 10 c_swapPair file info/swapPair_assembly.fixf

# Save Atom displacement
group Displ empty
0 atoms in group Displ
fix fixDispl Displ ave/time 1 ${Nave} ${Nave} c_dis[1] c_dis[2] c_dis[3] c_dis[4] file info/cmdisplacement_assembly.fixf
fix fixDispl Displ ave/time 1 100000 ${Nave} c_dis[1] c_dis[2] c_dis[3] c_dis[4] file info/cmdisplacement_assembly.fixf
fix fixDispl Displ ave/time 1 100000 100000 c_dis[1] c_dis[2] c_dis[3] c_dis[4] file info/cmdisplacement_assembly.fixf

# Save Stress tensor
group Stress empty
0 atoms in group Stress
fix fixStress5 Stress ave/time 1 ${Nave} ${Nave} c_stressVirial[*] file info/stressVirial_assembly.fixf
fix fixStress5 Stress ave/time 1 100000 ${Nave} c_stressVirial[*] file info/stressVirial_assembly.fixf
fix fixStress5 Stress ave/time 1 100000 100000 c_stressVirial[*] file info/stressVirial_assembly.fixf

# RUN SIMULATION

# Brownian Dynamics using Langevin Thermostat

# Set the time integrator
fix VelVerlet all nve/omp # Use Velocity Verlet integrator
timestep ${tstep}
timestep 0.001

# First elevate the temperature
fix ThermoLng all langevin 0.0 ${temp} ${damp} 12345 # Brownian Dynamics: langevin + nve
fix ThermoLng all langevin 0.0 0.05 ${damp} 12345 
fix ThermoLng all langevin 0.0 0.05 1 12345 
run 1000000
WARNING: Using a manybody potential with bonds/angles/dihedrals and special_bond exclusions (src/pair.cpp:243)
Hybrid pair style last /omp style sw/omp
Last active /omp style is pair_style sw/omp
WARNING: More than one fix rigid command (src/RIGID/fix_rigid_small.cpp:529)
WARNING: More than one fix rigid command (src/RIGID/fix_rigid_small.cpp:529)
WARNING: One or more atoms are time integrated more than once (src/modify.cpp:296)
WARNING: Computing temperature of portions of rigid bodies (src/RIGID/fix_rigid_small.cpp:1178)
WARNING: Computing temperature of portions of rigid bodies (src/RIGID/fix_rigid_small.cpp:1178)
Per MPI rank memory allocation (min/avg/max) = 20.18 | 20.18 | 20.19 Mbytes
   Step          Temp          E_pair         E_mol          TotEng         Press     
         1   0              0.00067516832  0              0.00067516832  0.021123967  
       500   0.00036143036  0              0              0.00029806115  0.00076301312
      1000   0.00016059025  0              0              0.00013243413 -0.0042082192 
      1500   9.9088611e-05  0              0              8.1715509e-05 -0.0087920156 
      2000   9.082724e-05   0              0              7.4902596e-05 -0.0010552033 
      2500   0.00010886438  0              0              8.9777301e-05  0.026712745  
      3000   0.00013060361  0              0              0.00010770501  0.018193721  
      3500   0.00015489662  0              0              0.00012773876 -0.015229809  
      4000   0.00017774973  0              0              0.00014658505  0.0031341882 
      4500   0.00019682191  5.388022e-08   0              0.00016236721  0.0092405373 
      5000   0.00022553537  0              0              0.00018599249 -0.0033443346 
      5500   0.0002500969   0              0              0.00020624767 -0.015049901  
      6000   0.00026348359  0              0              0.00021728729  0.025641245  
      6500   0.00031203635  0              0              0.00025732734 -0.036849665  
      7000   0.00032982431  0              0              0.00027199656 -0.018853915  
      7500   0.00036450397  6.8276387e-07  0              0.00030127863 -0.0026569421 
      8000   0.00038313698  1.7946346e-08  0              0.00031597993  0.026941423  
      8500   0.00042338991  2.160535e-08   0              0.00034917901 -0.012879208  
      9000   0.0004489195   0              0              0.00037021092  0.0045911156 
      9500   0.00046697816  6.7163308e-07  0              0.000385775   -0.002225898  
     10000   0.00050751431  0              0              0.00041853236 -0.030344066  
     10500   0.00050906148  0              0              0.00041980826  0.039310135  
     11000   0.00052616626  4.6907824e-07  0              0.00043438316  0.056481368  
     11500   0.00054688175  7.8354772e-07  0              0.0004517811  -0.023219562  
     12000   0.00053876962  4.2676733e-08  0              0.00044435039  0.016321031  
     12500   0.00058510965  0              0              0.00048252299  0.0071605475 
     13000   0.00060371448  1.5013272e-07  0              0.00049801599  0.0018381471 
     13500   0.00067279333  4.1224352e-07  0              0.00055524543 -0.029480579  
     14000   0.00067713981  4.7734142e-07  0              0.00055889494  0.042749376  
     14500   0.00067160896  2.5311504e-06  0              0.00055638762  0.011439985  
     15000   0.00070114158  2.50476e-07    0              0.00057846164 -0.014179497  
     15500   0.00074884812 -2.2497629e-07  0              0.00061732839  0.00069277707
     16000   0.0012038613  -0.00053351473  0              0.00045927482  0.053270542  
     16500   0.00085755648 -0.00046047971  0              0.0002467223  -0.060260498  
     17000   0.0017175076  -0.0015713319   0             -0.00015495313 -0.044417591  
     17500   0.001414035   -0.002128665    0             -0.00096255123  0.014951042  
     18000   0.0012377557  -0.0025946063   0             -0.001573865   -0.012629967  
     18500   0.0014788617  -0.0035716605   0             -0.002352086   -0.014462491  
     19000   0.0017520063  -0.0044361599   0             -0.002991331    0.0098056509 
     19500   0.0013764019  -0.0047328831   0             -0.0035978043  -0.017106267  
     20000   0.0015485531  -0.0061200589   0             -0.004843012   -0.02996822   
     20500   0.0024998599  -0.0081415609   0             -0.0060799988   0.01477806   
     21000   0.0024594693  -0.0096651805   0             -0.0076369274   0.012102858  
     21500   0.0023780095  -0.010590888    0             -0.0086298127   0.036593501  
     22000   0.0016258885  -0.01073645     0             -0.0093956263   0.00023419698
     22500   0.0014716068  -0.01102951     0             -0.0098159186  -0.062768093  
     23000   0.0031005727  -0.012846485    0             -0.010289533   -0.089703987  
     23500   0.0033390866  -0.014475545    0             -0.011721897   -0.020382627  
     24000   0.0018822783  -0.014649545    0             -0.013097285    0.069588479  
     24500   0.0020731319  -0.015883953    0             -0.014174301    0.034994087  
     25000   0.0020557914  -0.017014702    0             -0.01531935    -0.086567113  
     25500   0.0023236911  -0.018383555    0             -0.016467275   -0.039038013  
     26000   0.002683686   -0.019865225    0             -0.017652067   -0.01138068   
     26500   0.0028937484  -0.021639522    0             -0.019253131   -0.073282835  
     27000   0.0029040991  -0.02319369     0             -0.020798763   -0.020418724  
     27500   0.0023057512  -0.02379326     0             -0.021891774    0.029576316  
     28000   0.0022646293  -0.024719995    0             -0.02285242     0.08235859   
     28500   0.002135543   -0.025269337    0             -0.023508217    0.00065835756
     29000   0.0029006378  -0.027021712    0             -0.02462964     0.061358256  
     29500   0.0023468118  -0.027448806    0             -0.025513458   -0.014209717  
     30000   0.0019854783  -0.028401926    0             -0.02676456    -0.016357754  
     30500   0.0030674529  -0.030768398    0             -0.028238758   -0.0063767644 
     31000   0.0021460795  -0.031243704    0             -0.029473894   -0.041570556  
     31500   0.0027655324  -0.032501904    0             -0.030221249   -0.067178168  
     32000   0.0027247981  -0.033648701    0             -0.031401639   -0.015073301  
     32500   0.0027163959  -0.033952048    0             -0.031711915    0.064559915  
     33000   0.0033157316  -0.035514817    0             -0.032780429    0.0065768203 
     33500   0.0039721481  -0.038102402    0             -0.034826687   -0.052607517  
     34000   0.0022606797  -0.038858201    0             -0.036993883    0.082069629  
     34500   0.005486645   -0.038770532    0             -0.034245854   -0.026147862  
     35000   0.018039332   -0.039955029    0             -0.025078514    0.053769985  
     35500   0.0099180934  -0.042075984    0             -0.03389682     0.018060582  
     36000   0.006142963   -0.0435646      0             -0.038498676   -0.035731002  
     36500   0.0050759603  -0.044338912    0             -0.040152914   -0.034260841  
     37000   0.0037212321  -0.04658286     0             -0.043514067   -0.011240213  
     37500   0.0066892739  -0.047808719    0             -0.042292268   -0.01171876   
     38000   0.014639962   -0.050121541    0             -0.038048388    0.01918762   
     38500   0.0095807048  -0.050111235    0             -0.042210305    0.0061686659 
     39000   0.0073347896  -0.053123115    0             -0.047074326   -0.0003186388 
     39500   0.010627013   -0.054896404    0             -0.046132614   -0.089813505  
     40000   0.0060838366  -0.056125507    0             -0.051108344    0.084885544  
     40500   0.0065661914  -0.057464404    0             -0.052049456    0.19985267   
     41000   0.0050742725  -0.05957778     0             -0.055393174    0.045778503  
     41500   0.01343496    -0.060254548    0             -0.049175125   -0.021841447  
     42000   0.0062883036  -0.061526571    0             -0.056340789   -0.00061394723
     42500   0.0069414052  -0.064961937    0             -0.059237561   -0.037113971  
     43000   0.0071909045  -0.066643863    0             -0.060713732    0.068291744  
     43500   0.013328617   -0.065956258    0             -0.054964533    0.019589467  
     44000   0.0080885055  -0.068972428    0             -0.062302072   -0.055816776  
     44500   0.010582997   -0.069651677    0             -0.060924186    0.029058907  
     45000   0.026277505   -0.071584044    0             -0.049913746    0.097368619  
     45500   0.015523394   -0.072411377    0             -0.059609683   -0.087859782  
     46000   0.0094899154  -0.075297888    0             -0.06747183    -0.069812699  
     46500   0.0054022565  -0.076655718    0             -0.072200633    0.018700911  
     47000   0.0060012769  -0.08077086     0             -0.075821781    0.0063826002 
     47500   0.02125322    -0.080535967    0             -0.063009052    0.044882854  
     48000   0.010097287   -0.083389137    0             -0.075062197   -0.02817498   
     48500   0.0072992389  -0.084455298    0             -0.078435827    0.053820999  
     49000   0.0075953981  -0.084706555    0             -0.07844285    -0.049776336  
     49500   0.020770391   -0.086136743    0             -0.069008003   -0.052577267  
     50000   0.01047065    -0.090382421    0             -0.081747579    0.071747523  
     50500   0.028520633   -0.087621649    0             -0.064101509    0.035248201  
     51000   0.018950506   -0.089672169    0             -0.074044235   -0.039545329  
     51500   0.014108334   -0.091389158    0             -0.079754423   -0.059289394  
     52000   0.019807339   -0.093922243    0             -0.077587703    0.11475844   
     52500   0.010628202   -0.095821531    0             -0.08705676     0.082779955  
     53000   0.0065860482  -0.09712236     0             -0.091691037   -0.0069695281 
     53500   0.014046374   -0.098286183    0             -0.086702545   -0.028637725  
     54000   0.011202543   -0.10194271     0             -0.092704297    0.074162957  
     54500   0.0080283995  -0.10193912     0             -0.09531833     0.0016180853 
     55000   0.011755757   -0.10945346     0             -0.099758832    0.028871802  
     55500   0.021039791   -0.10756111     0             -0.090210202   -0.063306643  
     56000   0.019864605   -0.10988264     0             -0.093500872    0.04632263   
     56500   0.010077451   -0.1121896      0             -0.10387902     0.11178873   
     57000   0.011066353   -0.11309849     0             -0.10397239     0.069142275  
     57500   0.01361933    -0.11511681     0             -0.10388534    -0.0095924287 
     58000   0.0097421644  -0.11788445     0             -0.10985037     0.13241357   
     58500   0.0092517678  -0.11853353     0             -0.11090386     0.02827544   
     59000   0.01963961    -0.11774408     0             -0.10154786    -0.0051998368 
     59500   0.019226927   -0.12066668     0             -0.10481079     0.054838268  
     60000   0.010094485   -0.12066178     0             -0.11233715     0.019860713  
     60500   0.014971014   -0.12481639     0             -0.11247023     0.016711315  
     61000   0.023144681   -0.12635907     0             -0.10727232    -0.031859884  
     61500   0.024252978   -0.12497887     0             -0.10497814     0.10484302   
     62000   0.021252032   -0.12606804     0             -0.1085421     -0.058092774  
     62500   0.016012518   -0.12642523     0             -0.11322017     0.040223053  
     63000   0.01687524    -0.13011117     0             -0.11619465    -0.024402148  
     63500   0.01697319    -0.13166594     0             -0.11766864     0.0944354    
     64000   0.058737604   -0.1306986      0             -0.082259401   -0.03076372   
     64500   0.044770521   -0.1321603      0             -0.095239343   -0.033598094  
     65000   0.037553351   -0.13153933     0             -0.10057017     0.023958625  
     65500   0.020275089   -0.13428917     0             -0.11756889     0.067997149  
     66000   0.022703419   -0.13454533     0             -0.11582248    -0.004598482  
     66500   0.025222816   -0.13481289     0             -0.11401236     0.032378409  
     67000   0.020688054   -0.13891192     0             -0.12185108     0.15652839   
     67500   0.034951244   -0.14089021     0             -0.11206693    -0.039214838  
     68000   0.037962396   -0.14055885     0             -0.10925236     0.07514067   
     68500   0.03024953    -0.14410874     0             -0.11916282    -0.064502105  
     69000   0.016535339   -0.14563633     0             -0.13200012    -0.047680579  
     69500   0.029999167   -0.14639141     0             -0.12165196    -0.33379674   
     70000   0.014671874   -0.15087861     0             -0.13877914    -0.10071032   
     70500   0.015144337   -0.14883112     0             -0.13634202     0.0086365615 
     71000   0.014618378   -0.15337711     0             -0.14132175    -0.023170276  
     71500   0.014917174   -0.15151924     0             -0.13921748     0.080864987  
     72000   0.020817326   -0.15308399     0             -0.13591654    -0.059863278  
     72500   0.027336947   -0.15333119     0             -0.1307872      0.12052557   
     73000   0.027961481   -0.15369635     0             -0.13063733    -0.093854541  
     73500   0.031447269   -0.1548937      0             -0.12896004    -0.058983764  
     74000   0.023541009   -0.15548053     0             -0.13606695     0.023199943  
     74500   0.038756426   -0.15644466     0             -0.12448336    -0.057614694  
     75000   0.032173226   -0.15902394     0             -0.13249161     0.31523624   
     75500   0.054040426   -0.15289505     0             -0.10832947    -0.057419133  
     76000   0.065642997   -0.15334432     0             -0.099210441    0.10246319   
     76500   0.047843573   -0.15384588     0             -0.11439067     0.014874542  
     77000   0.059223064   -0.15778247     0             -0.10894292     0.063059543  
     77500   0.056243456   -0.15154912     0             -0.10516677     0.097578283  
     78000   0.036158662   -0.15761571     0             -0.12779671    -0.11779126   
     78500   0.035361657   -0.15622795     0             -0.12706621     0.11670661   
     79000   0.029310793   -0.15928234     0             -0.13511058    -0.036966285  
     79500   0.041488224   -0.15367407     0             -0.11945993    -0.081678729  
     80000   0.027221362   -0.15882654     0             -0.13637787     0.017880978  
     80500   0.032053306   -0.16264687     0             -0.13621344     0.019808982  
     81000   0.018070376   -0.16486991     0             -0.14996779    -0.025583276  
     81500   0.025543993   -0.1645136      0             -0.14344821    -0.01283527   
     82000   0.01777065    -0.1684782      0             -0.15382326     0.045852386  
     82500   0.038095272   -0.16625195     0             -0.13483589    -0.055918505  
     83000   0.041342627   -0.16559829     0             -0.13150422     0.12949327   
     83500   0.028282289   -0.17000852     0             -0.14668493    -0.025711043  
     84000   0.025319836   -0.17095073     0             -0.15007019     0.030150591  
     84500   0.014525094   -0.17987946     0             -0.16790104    -0.11761903   
     85000   0.010754288   -0.1787165      0             -0.16984775     0.00034126783
     85500   0.020853613   -0.17858506     0             -0.16138769    -0.11877443   
     86000   0.026232078   -0.18088697     0             -0.15925414     0.068522772  
     86500   0.03544956    -0.18101655     0             -0.15178232     0.048631708  
     87000   0.03311467    -0.17938687     0             -0.15207816     0.071201103  
     87500   0.032634614   -0.17823502     0             -0.1513222      0.18282343   
     88000   0.042245313   -0.18226908     0             -0.14743059    -0.0031045237 
     88500   0.083425657   -0.17348676     0             -0.10468803    -0.0047637784 
     89000   0.058427808   -0.17835421     0             -0.13017049     0.24299301   
     89500   0.048599134   -0.18076055     0             -0.14068225     0.060005714  
     90000   0.053957663   -0.17811381     0             -0.13361648    -0.083275488  
     90500   0.052588702   -0.17960321     0             -0.13623483     0.26171807   
     91000   0.0594621     -0.17876115     0             -0.12972447    -0.099564963  
     91500   0.060782098   -0.18009851     0             -0.12997327    -0.018638443  
     92000   0.054381472   -0.17899023     0             -0.1341434      0.095160534  
     92500   0.051322901   -0.18083796     0             -0.13851345    -0.13967188   
     93000   0.045557847   -0.17812452     0             -0.14055428     0.020925305  
     93500   0.048351404   -0.17925817     0             -0.13938416     0.066811609  
     94000   0.040992771   -0.17599992     0             -0.14219437    -0.12769544   
     94500   0.062323645   -0.17621044     0             -0.12481393     0.046698873  
     95000   0.048047603   -0.17656981     0             -0.13694634    -0.049059853  
     95500   0.042727654   -0.17794943     0             -0.14271317    -0.028379475  
     96000   0.028536732   -0.18080261     0             -0.15726919     0.017363197  
     96500   0.031814709   -0.17868201     0             -0.15244534    -0.07603191   
     97000   0.05241495    -0.18649547     0             -0.14327038     0.012979406  
     97500   0.04863868    -0.18261488     0             -0.14250397     0.042043338  
     98000   0.076550969   -0.18194109     0             -0.11881172     0.25712974   
     98500   0.052424949   -0.18211422     0             -0.13888089    -0.024235381  
     99000   0.064082639   -0.18449765     0             -0.13165055     0.062601184  
     99500   0.067250812   -0.18167817     0             -0.12621838    -0.20188849   
    100000   0.069580293   -0.18028635     0             -0.1229055      0.14614426   
    100500   0.048612436   -0.18405305     0             -0.14396378    -0.048476919  
    101000   0.046814283   -0.1843565      0             -0.14575012     0.034882646  
    101500   0.063833688   -0.18368518     0             -0.13104338    -0.12661736   
    102000   0.075107753   -0.18043081     0             -0.11849162    -0.016953414  
    102500   0.056430298   -0.18772401     0             -0.14118758    -0.055946119  
    103000   0.055683209   -0.18984253     0             -0.1439222      0.38901992   
    103500   0.039524      -0.1883166      0             -0.15572231     0.0029693148 
    104000   0.063777443   -0.18746222     0             -0.13486681    -0.039036676  
    104500   0.052532498   -0.19602852     0             -0.15270649     0.027570854  
    105000   0.069707937   -0.1842677      0             -0.12678159     0.064293229  
    105500   0.071479232   -0.18481323     0             -0.12586638     0.095854643  
    106000   0.051543577   -0.1913022      0             -0.1487957     -0.031581256  
    106500   0.036469032   -0.1905308      0             -0.16045585    -0.01850479   
    107000   0.06332898    -0.18927963     0             -0.13705405     0.026091585  
    107500   0.055678923   -0.18403386     0             -0.13811706     0.38920563   
    108000   0.060722275   -0.18639386     0             -0.13631795     0.076431335  
    108500   0.049266114   -0.1895099      0             -0.14888156    -0.36092261   
    109000   0.050385887   -0.19143548     0             -0.1498837     -0.024374445  
    109500   0.071625807   -0.18664692     0             -0.12757919     0.20629129   
    110000   0.082645245   -0.18350808     0             -0.11535294     0.20545007   
    110500   0.12156109    -0.18019488     0             -0.079946971   -9.530984e-05 
    111000   0.065681449   -0.18545417     0             -0.13128858     0.073665487  
    111500   0.054987042   -0.18181657     0             -0.13647035     0.045480234  
    112000   0.058153439   -0.1886414      0             -0.14068394     0.27279216   
    112500   0.076913474   -0.18804483     0             -0.12461651    -0.13541082   
    113000   0.064505243   -0.18527033     0             -0.13207473    -0.056322377  
    113500   0.057476453   -0.1844868      0             -0.13708764     0.19947641   
    114000   0.037912172   -0.18732124     0             -0.15605616     0.22275424   
    114500   0.055806523   -0.18244098     0             -0.13641896     0.30754134   
    115000   0.068644398   -0.18425244     0             -0.12764339    -0.026154396  
    115500   0.047311178   -0.18309117     0             -0.14407501    -0.064767127  
    116000   0.056030542   -0.18366797     0             -0.13746121     0.17531642   
    116500   0.082023252   -0.17902591     0             -0.1113837     -0.030264719  
    117000   0.047298857   -0.18141488     0             -0.14240888     0.031022705  
    117500   0.061742012   -0.17776053     0             -0.12684368     0.048328786  
    118000   0.084445094   -0.18041286     0             -0.11077343     0.1547174    
    118500   0.057382279   -0.18388703     0             -0.13656553     0.065301621  
    119000   0.044834976   -0.18632823     0             -0.14935413    -0.30839451   
    119500   0.050412026   -0.191652       0             -0.15007866     0.019874887  
    120000   0.059140696   -0.188943       0             -0.14017138     0.059989553  
    120500   0.082851843   -0.19731824     0             -0.12899272    -0.05357874   
    121000   0.067293388   -0.19349519     0             -0.13800028    -0.22444027   
    121500   0.052569652   -0.19015874     0             -0.14680607    -0.030718734  
    122000   0.11585581    -0.18955467     0             -0.094011737   -0.25888813   
    122500   0.091134722   -0.18322735     0             -0.10807118    -0.071508353  
    123000   0.10901369    -0.1757556      0             -0.085855165   -0.0046096078 
    123500   0.076501062   -0.18536391     0             -0.1222757     -0.071622367  
    124000   0.094971035   -0.17824893     0             -0.099929066    0.038065015  
    124500   0.068911574   -0.18643645     0             -0.12960707    -0.83095096   
    125000   0.085793051   -0.17933848     0             -0.10858743     0.26367299   
    125500   0.084643552   -0.18270832     0             -0.11290524    -0.15532158   
    126000   0.06671405    -0.17914697     0             -0.12412983    -0.13246852   
    126500   0.093983154   -0.18302008     0             -0.10551489    -0.071222808  
    127000   0.072207016   -0.17687787     0             -0.11733084     0.042920325  
    127500   0.057707819   -0.17936014     0             -0.13177017     0.20144558   
    128000   0.072479059   -0.18310806     0             -0.12333667     0.061057534  
    128500   0.061101492   -0.17377936     0             -0.12339073     0.083117382  
    129000   0.052850749   -0.18441916     0             -0.14083467    -0.085414108  
    129500   0.054425678   -0.18760571     0             -0.14272243    -0.12985743   
    130000   0.092875632   -0.17926923     0             -0.10267739     0.061772544  
    130500   0.074822005   -0.18533715     0             -0.12363361    -0.10606789   
    131000   0.077044835   -0.18621702     0             -0.12268038    -0.0053137813 
    131500   0.10634412    -0.18775834     0             -0.10005943     0.46044215   
    132000   0.08111866    -0.1865726      0             -0.11967639     0.56626806   
    132500   0.095315374   -0.1830428      0             -0.10443897    -0.012532307  
    133000   0.095211998   -0.18265968     0             -0.1041411     -0.011851249  
    133500   0.087248175   -0.18577535     0             -0.11382431    -0.067374186  
    134000   0.10368308    -0.18769742     0             -0.10219299     0.022293657  
    134500   0.11742304    -0.1806536      0             -0.083818214   -0.069028489  
    135000   0.07656771    -0.18691409     0             -0.12377091     0.10244963   
    135500   0.090154013   -0.18383162     0             -0.10948421    -0.32472825   
    136000   0.06174864    -0.18683794     0             -0.13591562    -0.11845863   
    136500   0.089020607   -0.18410295     0             -0.11069023     0.35357315   
    137000   0.098481984   -0.18289101     0             -0.10167577     0.095286411  
    137500   0.084200097   -0.18043762     0             -0.11100024    -0.071740408  
    138000   0.058356991   -0.18029312     0             -0.1321678      0.0092260004 
    138500   0.058156538   -0.18624425     0             -0.13828424    -0.04230032   
    139000   0.066659512   -0.18061204     0             -0.12563987    -0.17823684   
    139500   0.10448001    -0.18095049     0             -0.094788852    0.141716     
    140000   0.083772199   -0.18118761     0             -0.1121031      0.10610502   
    140500   0.073612781   -0.18417522     0             -0.12346889     0.15317547   
    141000   0.072166489   -0.18565524     0             -0.12614163    -0.092636024  
    141500   0.059551711   -0.18661981     0             -0.13750924     0.060968806  
    142000   0.038975961   -0.19345302     0             -0.16131067     0.079438334  
    142500   0.046136256   -0.19121395     0             -0.15316671    -0.0769044    
    143000   0.063054269   -0.19257871     0             -0.14057968    -0.22691688   
    143500   0.049025064   -0.19374919     0             -0.15331963    -0.036173286  
    144000   0.08657215    -0.18965348     0             -0.11825993    -0.047645102  
    144500   0.10123316    -0.19209592     0             -0.10861186    -0.13332423   
    145000   0.095811922   -0.19057804     0             -0.11156472     0.080119249  
    145500   0.088515466   -0.19044722     0             -0.11745107    -0.042044778  
    146000   0.106908      -0.18557101     0             -0.097407079   -0.20552704   
    146500   0.079613592   -0.18560586     0             -0.11995083     0.045080945  
    147000   0.11022722    -0.18127763     0             -0.090376434   -0.10115068   
    147500   0.058259749   -0.18573331     0             -0.13768818    -0.048614922  
    148000   0.08028219    -0.18719105     0             -0.12098465    -0.005247127  
    148500   0.061924489   -0.18659125     0             -0.13552392     0.029337406  
    149000   0.057201905   -0.1915495      0             -0.14437674     0.13564328   
    149500   0.10432901    -0.18557995     0             -0.099542834    0.06028814   
    150000   0.079846916   -0.18020928     0             -0.11436184     0.074341916  
    150500   0.10889377    -0.18314869     0             -0.09334715     0.13109691   
    151000   0.10051967    -0.1799652      0             -0.097069535    0.2760867    
    151500   0.062807289   -0.18616555     0             -0.1343702      0.0054299059 
    152000   0.054009214   -0.18634272     0             -0.14180288    -0.034699243  
    152500   0.066514102   -0.18693071     0             -0.13207846     0.10076669   
    153000   0.088117721   -0.18290626     0             -0.11023813    -0.1795813    
    153500   0.070751627   -0.1861904      0             -0.12784358    -0.043596759  
    154000   0.071516372   -0.18353635     0             -0.12455887     0.14059225   
    154500   0.044018163   -0.18287534     0             -0.14657483     0.10765665   
    155000   0.05219953    -0.18753244     0             -0.144485      -0.061579229  
    155500   0.073062566   -0.18771078     0             -0.1274582      0.010866114  
    156000   0.11432526    -0.18544173     0             -0.091160998    0.062986077  
    156500   0.075362948   -0.18479526     0             -0.12264562    -0.075379011  
    157000   0.073119515   -0.18895708     0             -0.12865753     0.014576561  
    157500   0.085146723   -0.18991793     0             -0.11969989    -0.24111191   
    158000   0.094898364   -0.18252104     0             -0.10426111     0.17278282   
    158500   0.11662249    -0.19115695     0             -0.094981755    0.010509573  
    159000   0.088010233   -0.18942558     0             -0.11684608    -0.028422404  
    159500   0.10514294    -0.18616748     0             -0.099459134    0.21150001   
    160000   0.1108941     -0.18113506     0             -0.089683907   -0.053861453  
    160500   0.10838055    -0.18599369     0             -0.096615385    0.24557007   
    161000   0.10273232    -0.18493551     0             -0.10021514    -0.24544509   
    161500   0.12294712    -0.18214721     0             -0.080756279   -0.059583579  
    162000   0.116461      -0.18497671     0             -0.088934693   -0.0031346951 
    162500   0.10057214    -0.18279283     0             -0.099853898    0.087239164  
    163000   0.092701178   -0.17680219     0             -0.10035422    -0.17492451   
    163500   0.090848072   -0.18368804     0             -0.10876827     0.092702265  
    164000   0.10336148    -0.18406239     0             -0.098823177   -0.02492303   
    164500   0.10998268    -0.18245445     0             -0.09175492    -0.10497618   
    165000   0.087140763   -0.17996181     0             -0.10809935    -0.029781943  
    165500   0.11247789    -0.18352839     0             -0.090771126   -0.11759947   
    166000   0.082113249   -0.18427781     0             -0.11656139     0.025642942  
    166500   0.086814816   -0.18995974     0             -0.11836607     0.0013710706 
    167000   0.1057139     -0.18397482     0             -0.096795628    0.16239891   
    167500   0.12262583    -0.18207621     0             -0.080950234    0.068705132  
    168000   0.13494067    -0.18046366     0             -0.069182      -0.11554171   
    168500   0.099689457   -0.17175799     0             -0.089546983   -0.11762805   
    169000   0.1086858     -0.17160959     0             -0.081979555   -0.88303341   
    169500   0.078730883   -0.16978332     0             -0.10485624    -0.1302556    
    170000   0.083270903   -0.1682482      0             -0.099577093    0.09516121   
    170500   0.092414281   -0.17032766     0             -0.094116278    0.33847576   
    171000   0.11622016    -0.16953479     0             -0.073691388    0.087994811  
    171500   0.087794085   -0.17114262     0             -0.098741378    0.13505365   
    172000   0.087256022   -0.17404368     0             -0.10208616     0.12164516   
    172500   0.076381516   -0.17441375     0             -0.11142412    -0.10647834   
    173000   0.051839675   -0.17511123     0             -0.13236056    -0.013633482  
    173500   0.043433146   -0.17705314     0             -0.14123508     0.075889366  
    174000   0.073602471   -0.18061471     0             -0.11991688    -0.82378553   
    174500   0.072302874   -0.17849466     0             -0.11886857    -0.022408913  
    175000   0.088855612   -0.18040107     0             -0.10712442    -0.016440264  
    175500   0.060616644   -0.18253263     0             -0.13254384    -0.050247658  
    176000   0.048447675   -0.18496646     0             -0.14501306     0.11274215   
    176500   0.028102906   -0.18994977     0             -0.16677412     0.14262739   
    177000   0.039702999   -0.19271249     0             -0.15997057     0.026866838  
    177500   0.062310218   -0.19376742     0             -0.14238199    -0.093375067  
    178000   0.089206205   -0.18828078     0             -0.11471501     0.06178724   
    178500   0.050407696   -0.19363118     0             -0.15206141    -0.1085503    
    179000   0.057188658   -0.19131629     0             -0.14415446    -0.16713677   
    179500   0.086789336   -0.18994708     0             -0.11837443     0.16155621   
    180000   0.058300139   -0.19160362     0             -0.14352518     0.22290209   
    180500   0.07840815    -0.19085627     0             -0.12619534     0.14614828   
    181000   0.085267206   -0.18991632     0             -0.11959892     0.14161336   
    181500   0.082568839   -0.19165689     0             -0.12356476    -0.025735045  
    182000   0.092063195   -0.18677272     0             -0.11085087    -0.10968862   
    182500   0.088782479   -0.18449884     0             -0.1112825     -0.1374224    
    183000   0.068450215   -0.18876141     0             -0.1323125     -0.14574704   
    183500   0.10924847    -0.18559808     0             -0.095504026   -0.1202634    
    184000   0.080597021   -0.18748217     0             -0.12101614    -0.086845     
    184500   0.063252355   -0.18957161     0             -0.13740922    -0.16757018   
    185000   0.051660766   -0.1975539      0             -0.15495076    -0.023750209  
    185500   0.096056816   -0.19080592     0             -0.11159065    -0.088354081  
    186000   0.078780935   -0.19285071     0             -0.12788235    -0.014540293  
    186500   0.10256457    -0.19353758     0             -0.10895554    -0.23648435   
    187000   0.059457777   -0.19228824     0             -0.14325514    -0.065425206  
    187500   0.10922034    -0.19086796     0             -0.10079711    -0.048694623  
    188000   0.093178639   -0.19219101     0             -0.11534928     0.30914131   
    188500   0.059532446   -0.19614106     0             -0.14704637    -0.05574405   
    189000   0.066805198   -0.200825       0             -0.14573268     0.01474919   
    189500   0.077514574   -0.19491029     0             -0.13098626    -0.16445801   
    190000   0.08438895    -0.19507688     0             -0.12548376    -0.48798804   
    190500   0.070744478   -0.1967171      0             -0.13837617     0.14239384   
    191000   0.064183014   -0.19659217     0             -0.1436623      0.026742418  
    191500   0.067665647   -0.19635481     0             -0.14055291     0.034196541  
    192000   0.081413439   -0.19523859     0             -0.12809928    -0.12119651   
    192500   0.16313227    -0.18909498     0             -0.054564517   -0.03623986   
    193000   0.11715151    -0.18197627     0             -0.085364811    0.073604436  
    193500   0.074711687   -0.18832149     0             -0.12670893    -0.19551856   
    194000   0.08688901    -0.19257351     0             -0.12091866    -0.04957823   
    194500   0.084415847   -0.19158322     0             -0.12196791    -0.094957155  
    195000   0.091488588   -0.18863918     0             -0.11319119    -0.058860673  
    195500   0.078207757   -0.18145281     0             -0.11695714     0.0024893598 
    196000   0.073974698   -0.18548694     0             -0.12448215    -0.92030483   
    196500   0.079752324   -0.18904691     0             -0.12327748     0.16728123   
    197000   0.086220814   -0.18716092     0             -0.11605711    -0.28579709   
    197500   0.077685955   -0.19162339     0             -0.12755803    -0.084536624  
    198000   0.080429505   -0.19548426     0             -0.12915638     0.014624915  
    198500   0.063170015   -0.19471772     0             -0.14262324    -0.17263621   
    199000   0.053381161   -0.19615942     0             -0.15213752    -0.27016491   
    199500   0.13880072    -0.1930479      0             -0.078582958    0.24045399   
    200000   0.090650472   -0.19603168     0             -0.12127486     0.28944046   
    200500   0.10344731    -0.19185125     0             -0.10654125     0.070819884  
    201000   0.062642878   -0.19419193     0             -0.14253216    -0.20333109   
    201500   0.059360916   -0.19002752     0             -0.14107429    -0.056644051  
    202000   0.051555115   -0.19463608     0             -0.15212007     0.17593289   
    202500   0.046202158   -0.19931355     0             -0.16121197    -0.33548066   
    203000   0.089089212   -0.19494171     0             -0.12147241     0.1606024    
    203500   0.097556386   -0.18511796     0             -0.10466603    -0.10949197   
    204000   0.068214584   -0.19345384     0             -0.13719925    -0.045378898  
    204500   0.039898139   -0.19646689     0             -0.16356405     0.088243199  
    205000   0.067563035   -0.19472736     0             -0.13901008    -0.071548171  
    205500   0.064142703   -0.19643211     0             -0.14353548     0.0078807785 
    206000   0.041062362   -0.20320603     0             -0.16934309    -0.16724138   
    206500   0.05492153    -0.20141656     0             -0.15612437     0.14155949   
    207000   0.049246093   -0.20529228     0             -0.16468045    -0.33106447   
    207500   0.067908529   -0.2027025      0             -0.1467003      0.15785644   
    208000   0.045743547   -0.20737994     0             -0.16965656    -0.14037307   
    208500   0.047944514   -0.20732932     0             -0.16779087    -0.16481219   
    209000   0.046425693   -0.21172432     0             -0.17343839     0.14470908   
    209500   0.071373596   -0.20200925     0             -0.14314951    -0.12104346   
    210000   0.0810018     -0.20236773     0             -0.13556789    -0.28012931   
    210500   0.10065883    -0.20206759     0             -0.11905717    -0.013790401  
    211000   0.070793328   -0.19503325     0             -0.13665204     0.14365586   
    211500   0.047214578   -0.20642038     0             -0.16748389     0.10830086   
    212000   0.053202107   -0.20626612     0             -0.16239188     0.038651208  
    212500   0.060587778   -0.20778143     0             -0.15781644    -0.036371269  
    213000   0.053817338   -0.20658923     0             -0.16220763     0.0010905544 
    213500   0.084122826   -0.20473989     0             -0.13536623    -0.48845144   
    214000   0.13451522    -0.20019342     0             -0.089262618   -0.15689158   
    214500   0.12749386    -0.18841417     0             -0.083273677    0.0034374377 
    215000   0.093742098   -0.19592616     0             -0.11861977     0.10358224   
    215500   0.10743882    -0.19643455     0             -0.10783287    -0.03701355   
    216000   0.14337375    -0.19319283     0             -0.074956647    0.10643751   
    216500   0.11772548    -0.19342885     0             -0.096344056   -0.073755911  
    217000   0.1015407     -0.18496831     0             -0.10123063     0.15512036   
    217500   0.07901409    -0.19163598     0             -0.12647534    -0.12737211   
    218000   0.065816021   -0.19468281     0             -0.14040625     0.015825476  
    218500   0.098863296   -0.19799565     0             -0.11646595    -0.055912036  
    219000   0.14339291    -0.18348391     0             -0.065231928   -0.070065751  
    219500   0.11583012    -0.18546954     0             -0.089947797    0.13811508   
    220000   0.08329213    -0.19095552     0             -0.12226691     0.24123076   
    220500   0.093114391   -0.18159582     0             -0.10480708     0.10084446   
    221000   0.078505642   -0.19423146     0             -0.12949013     0.09558044   
    221500   0.11506232    -0.18957689     0             -0.094688329   -0.15796431   
    222000   0.064988642   -0.19018533     0             -0.13659108     0.33254521   
    222500   0.088175514   -0.19241544     0             -0.11969964     0.1961683    
    223000   0.08597868    -0.18871069     0             -0.11780657     0.037165908  
    223500   0.095479275   -0.18615776     0             -0.10741877     0.15904465   
    224000   0.090097098   -0.18879862     0             -0.11449815     0.3509985    
    224500   0.085257716   -0.19092238     0             -0.12061281    -0.045940255  
    225000   0.11925595    -0.19097379     0             -0.092626865   -0.071914457  
    225500   0.078458282   -0.18948803     0             -0.12478576     0.016697127  
    226000   0.1069872     -0.18711746     0             -0.098888217   -0.18754458   
    226500   0.074695861   -0.18583152     0             -0.124232       0.023457047  
    227000   0.08136867    -0.18524206     0             -0.11813968     0.08967702   
    227500   0.084601103   -0.1890311      0             -0.11926301     0.12376306   
    228000   0.091856774   -0.19377518     0             -0.11802355     0.28750253   
    228500   0.12111023    -0.1840415      0             -0.084165401   -0.081979273  
    229000   0.096170664   -0.18720746     0             -0.10789829     0.11498107   
    229500   0.078818285   -0.18624676     0             -0.1212476     -0.13860582   
    230000   0.081437285   -0.192713       0             -0.12555403     0.010472932  
    230500   0.0791104     -0.18535341     0             -0.12011335     0.26789489   
    231000   0.086638828   -0.18860385     0             -0.11715531    -0.026179204  
    231500   0.061798655   -0.18712243     0             -0.13615887    -0.3218958    
    232000   0.10813933    -0.18780444     0             -0.09862506    -0.018449463  
    232500   0.085500544   -0.17712676     0             -0.10661693     0.27832753   
    233000   0.078725193   -0.18770534     0             -0.12278295    -0.04367431   
    233500   0.096456401   -0.18258934     0             -0.10304454    -0.11147012   
    234000   0.11952274    -0.17764043     0             -0.079073489    0.12020889   
    234500   0.090552603   -0.18406192     0             -0.10938581    -0.16605607   
    235000   0.10151387    -0.17830356     0             -0.094588016    0.36594      
    235500   0.11645989    -0.17892431     0             -0.082883205    0.01758566   
    236000   0.096626023   -0.17907448     0             -0.099389799    0.13088531   
    236500   0.076967672   -0.1828244      0             -0.11935139     0.017368279  
    237000   0.11683524    -0.18337278     0             -0.087022144   -0.20862528   
    237500   0.11230697    -0.18337913     0             -0.090762817    0.43688265   
    238000   0.11190791    -0.19238612     0             -0.10009891     0.15917607   
    238500   0.087245613   -0.18628275     0             -0.11433382     0.040086853  
    239000   0.082293417   -0.18783775     0             -0.11997275     0.046150649  
    239500   0.10801319    -0.19122675     0             -0.1021514      0.17656862   
    240000   0.13931728    -0.18446915     0             -0.06957822     0.22173619   
    240500   0.1201978     -0.18500108     0             -0.085877435   -0.090559442  
    241000   0.14762346    -0.18731214     0             -0.065571343    0.020535397  
    241500   0.15823435    -0.17948467     0             -0.048993383    0.036837406  
    242000   0.088238845   -0.1848519      0             -0.11208388    -0.13856216   
    242500   0.12147408    -0.18318661     0             -0.083010455    0.23029125   
    243000   0.16136739    -0.17708601     0             -0.04401099     0.044361811  
    243500   0.097299871   -0.18257556     0             -0.10233517    -0.013354443  
    244000   0.08695337    -0.18145221     0             -0.10974428    -0.19858821   
    244500   0.091349245   -0.18596526     0             -0.11063219    -0.44566027   
    245000   0.096297247   -0.18365772     0             -0.10424416    -0.086796721  
    245500   0.091108002   -0.18549524     0             -0.11036111    -0.072314347  
    246000   0.10008986    -0.18426629     0             -0.10172508     0.28084424   
    246500   0.13151803    -0.1808322      0             -0.072373086   -0.10089215   
    247000   0.10499103    -0.18926626     0             -0.1026832     -0.10701441   
    247500   0.12783772    -0.1824865      0             -0.07706243     0.024849577  
    248000   0.11755294    -0.17943434     0             -0.082491832   -0.1391231    
    248500   0.10269167    -0.17682619     0             -0.092139344    0.010936514  
    249000   0.08618955    -0.17746588     0             -0.10638785     0.10310055   
    249500   0.081465588   -0.17917843     0             -0.11199612     0.22423847   
    250000   0.075030526   -0.17575388     0             -0.11387838    -0.13825307   
    250500   0.053681863   -0.18056058     0             -0.1362907      0.046164824  
    251000   0.064314864   -0.1865248      0             -0.1334862      0.20156713   
    251500   0.13753792    -0.18253011     0             -0.069106566    0.02139487   
    252000   0.080649115   -0.18757704     0             -0.12106805     0.06171026   
    252500   0.099992737   -0.19045192     0             -0.10799081     0.014574782  
    253000   0.081370212   -0.18688872     0             -0.11978506     0.018320449  
    253500   0.11260953    -0.18726926     0             -0.094403435   -0.16289522   
    254000   0.1070967     -0.18865628     0             -0.10033674    -0.098540427  
    254500   0.096287533   -0.18489732     0             -0.10549178     0.22051876   
    255000   0.081132596   -0.18578577     0             -0.11887807     0.043740513  
    255500   0.090782162   -0.18720354     0             -0.11233812     0.16637417   
    256000   0.091568299   -0.18990672     0             -0.11439299    -0.065812079  
    256500   0.083260791   -0.19234996     0             -0.1236872      0.033913016  
    257000   0.10071769    -0.18080461     0             -0.097745649   -0.29950216   
    257500   0.13824004    -0.17436737     0             -0.060364812    0.00063485002
    258000   0.12328167    -0.17787995     0             -0.076213125    0.057488724  
    258500   0.120899      -0.17573235     0             -0.076030449   -0.85565868   
    259000   0.098610216   -0.17814884     0             -0.09682785    -0.094061851  
    259500   0.1340471     -0.17757761     0             -0.067032848    0.15101808   
    260000   0.10334321    -0.17103242     0             -0.085808268    0.05133415   
    260500   0.083321915   -0.17853402     0             -0.10982084    -0.15653443   
    261000   0.082200503   -0.18392186     0             -0.11613348    -0.3305693    
    261500   0.089301754   -0.186083       0             -0.11243843    -0.28436668   
    262000   0.099736787   -0.18335308     0             -0.10110304     0.25142095   
    262500   0.11298766    -0.1856009      0             -0.09242325    -0.3808389    
    263000   0.10355249    -0.18101572     0             -0.095618983   -0.36967196   
    263500   0.10520411    -0.1845855      0             -0.097826714    0.040816649  
    264000   0.13612542    -0.1765289      0             -0.064270212   -0.84636172   
    264500   0.1293875     -0.17839178     0             -0.071689648   -0.048514705  
    265000   0.12088573    -0.18393632     0             -0.084245357    0.13334546   
    265500   0.10640978    -0.18265219     0             -0.094899126   -0.052505775  
    266000   0.10004437    -0.18328538     0             -0.10078168     0.29536016   
    266500   0.135029      -0.18139305     0             -0.070038543   -0.01076125   
    267000   0.11341142    -0.18204894     0             -0.088521821   -0.16526982   
    267500   0.13477064    -0.18412136     0             -0.072979912   -0.070233374  
    268000   0.1497994     -0.18008556     0             -0.056550334   -0.26574526   
    268500   0.13487642    -0.17511637     0             -0.063887689   -0.10656044   
    269000   0.11194047    -0.18301127     0             -0.090697203    0.083255458  
    269500   0.086004184   -0.18637631     0             -0.11545115    -0.045432919  
    270000   0.10778986    -0.17889673     0             -0.090005556   -0.070648966  
    270500   0.14029478    -0.17497395     0             -0.059276911   -0.49940915   
    271000   0.10145165    -0.1729699      0             -0.089305657   -0.028914906  
    271500   0.07228347    -0.1837018      0             -0.12409172     0.11489979   
    272000   0.06358332    -0.17918396     0             -0.12674864     0.059754509  
    272500   0.090355635   -0.1898612      0             -0.11534753     0.11838529   
    273000   0.12160222    -0.18168816     0             -0.081406333    0.49386935   
    273500   0.17457853    -0.17528652     0             -0.031316658    0.063935077  
    274000   0.10638687    -0.18446795     0             -0.096733775   -0.021387481  
    274500   0.10876437    -0.1803545      0             -0.090659677    0.31193936   
    275000   0.14149083    -0.17595967     0             -0.059276272   -0.11063348   
    275500   0.10487627    -0.18491373     0             -0.098425298    0.20918167   
    276000   0.078097589   -0.1761755      0             -0.11177068    -0.19651977   
    276500   0.10829224    -0.18115236     0             -0.091846884    0.098512079  
    277000   0.085416929   -0.16855139     0             -0.098110524   -0.10946138   
    277500   0.1065257     -0.17832734     0             -0.090478676   -0.10408127   
    278000   0.11237515    -0.17425643     0             -0.081583893    0.11778654   
    278500   0.13001484    -0.17723415     0             -0.07001467     0.11253514   
    279000   0.1356597     -0.17597166     0             -0.064097032    0.0036906855 
    279500   0.10210025    -0.17512332     0             -0.090924197    0.010387362  
    280000   0.08977694    -0.17895071     0             -0.10491426    -0.034901075  
    280500   0.069453978   -0.18157142     0             -0.12429473     0.077750891  
    281000   0.0683545     -0.17907945     0             -0.12270947    -0.11325845   
    281500   0.069830813   -0.18124508     0             -0.12365763     0.19483584   
    282000   0.10006287    -0.18590768     0             -0.10338873     0.13954581   
    282500   0.082443153   -0.18614189     0             -0.11815341    -0.012368605  
    283000   0.071985619   -0.18956778     0             -0.13020333     0.13509332   
    283500   0.059689573   -0.19386758     0             -0.14464332    -0.40724158   
    284000   0.081585175   -0.19061297     0             -0.12333204     0.060654407  
    284500   0.074173672   -0.19064608     0             -0.1294772     -0.23462735   
    285000   0.095891507   -0.18902793     0             -0.10994898    -0.11809      
    285500   0.080676909   -0.19569673     0             -0.12916481    -0.18017299   
    286000   0.075090938   -0.20299081     0             -0.14106549     0.016629361  
    286500   0.091360773   -0.19782656     0             -0.12248397    -0.032595968  
    287000   0.12972311    -0.18628833     0             -0.079309443    0.29792069   
    287500   0.096663114   -0.19648576     0             -0.11677048     0.19251367   
    288000   0.086736939   -0.19631975     0             -0.1247903      0.11817651   
    288500   0.09702754    -0.20176426     0             -0.12174846     0.15183298   
    289000   0.20196739    -0.18788817     0             -0.021331512    0.14686487   
    289500   0.10778779    -0.19024408     0             -0.10135461    -0.010386029  
    290000   0.10945433    -0.19187373     0             -0.10160992     0.017778796  
    290500   0.12050429    -0.19568769     0             -0.096311293    0.19182943   
    291000   0.14597707    -0.19386479     0             -0.073481725   -0.068611412  
    291500   0.11711823    -0.19151912     0             -0.094935102   -0.045944433  
    292000   0.15428337    -0.19231322     0             -0.065080189    0.07354373   
    292500   0.12871094    -0.19467007     0             -0.088525892   -0.10289417   
    293000   0.12550902    -0.18615581     0             -0.082652161    0.24528742   
    293500   0.15609734    -0.19137822     0             -0.062649261    0.03175609   
    294000   0.11839957    -0.19112381     0             -0.093483113   -0.13349628   
    294500   0.098526009   -0.19144478     0             -0.11019323     0.099891853  
    295000   0.092452643   -0.19080301     0             -0.11455999    -0.17964577   
    295500   0.082201079   -0.19648717     0             -0.12869832    -0.37339244   
    296000   0.10631393    -0.18769483     0             -0.10002081    -0.060390296  
    296500   0.092746926   -0.18436576     0             -0.10788005     0.093481456  
    297000   0.10819124    -0.18652023     0             -0.097298052    0.20250555   
    297500   0.12993881    -0.18294307     0             -0.075786289    0.26462719   
    298000   0.10689971    -0.18688364     0             -0.098726545    0.58030732   
    298500   0.084429379   -0.1887376      0             -0.11911113    -0.012030928  
    299000   0.10144526    -0.19582401     0             -0.11216503     0.14436571   
    299500   0.092461202   -0.19298599     0             -0.11673591     0.082578525  
    300000   0.082934469   -0.19554934     0             -0.12715568    -0.11014337   
    300500   0.072940055   -0.1912987      0             -0.13114715    -0.16878116   
    301000   0.092457673   -0.19016561     0             -0.11391844     0.25013763   
    301500   0.093210582   -0.1915642      0             -0.11469613     0.16958906   
    302000   0.13144837    -0.18645794     0             -0.078056277   -0.031325487  
    302500   0.096364563   -0.18717071     0             -0.10770165     0.11737573   
    303000   0.084848241   -0.18982688     0             -0.11985499     0.41299849   
    303500   0.10079715    -0.19255325     0             -0.10942875     0.004106756  
    304000   0.11668825    -0.18458733     0             -0.088357903    0.16873418   
    304500   0.076777609   -0.19095014     0             -0.12763386     0.059700737  
    305000   0.1379537     -0.19028237     0             -0.076515947   -0.14290889   
    305500   0.18486815    -0.17819553     0             -0.025740112   -0.19869116   
    306000   0.13494588    -0.1752183      0             -0.063932339   -0.1263553    
    306500   0.087118401   -0.17502506     0             -0.10318104    -0.084614104  
    307000   0.093339077   -0.17521155     0             -0.098237511    0.087763324  
    307500   0.12423735    -0.17407053     0             -0.071615578    0.012557844  
    308000   0.094492734   -0.17176838     0             -0.093842953    0.054621127  
    308500   0.096861095   -0.17726229     0             -0.097383745    0.062117487  
    309000   0.10129338    -0.180915       0             -0.097381281   -0.049594843  
    309500   0.093876259   -0.17610073     0             -0.098683695    0.036597524  
    310000   0.079555911   -0.1783884      0             -0.11278095     0.10550934   
    310500   0.097088717   -0.17466204     0             -0.094595782   -0.094092879  
    311000   0.091359582   -0.17994857     0             -0.10460697     0.26474247   
    311500   0.093928946   -0.18326244     0             -0.10580196    -0.35694337   
    312000   0.079271076   -0.18340334     0             -0.11803078    -0.26280138   
    312500   0.09722865    -0.18314607     0             -0.10296442    -0.37062731   
    313000   0.09830356    -0.18137582     0             -0.10030771    -0.12386751   
    313500   0.095721259   -0.18369649     0             -0.10475794    -0.029957535  
    314000   0.083855042   -0.18613187     0             -0.11697905     0.18477164   
    314500   0.075131832   -0.18761076     0             -0.12565171    -0.20218697   
    315000   0.051049676   -0.18702563     0             -0.14492644     0.046583435  
    315500   0.07408414    -0.18460772     0             -0.12351267     0.15785047   
    316000   0.082949285   -0.18096992     0             -0.11256404     0.063174509  
    316500   0.091424824   -0.18380044     0             -0.10840504    -0.17564515   
    317000   0.10766601    -0.18708723     0             -0.098298194    0.084188133  
    317500   0.0794763     -0.18375292     0             -0.11821112     0.20839334   
    318000   0.089225462   -0.18683853     0             -0.11325688    -0.35821593   
    318500   0.088800586   -0.18037576     0             -0.10714449     0.12495559   
    319000   0.082333627   -0.1870969      0             -0.11919874    -0.36322245   
    319500   0.073154189   -0.18538525     0             -0.12505711     0.1440892    
    320000   0.094174631   -0.17921875     0             -0.10155566    -0.0097539916 
    320500   0.1185192     -0.17874118     0             -0.081001826    0.061228082  
    321000   0.09516929    -0.17839893     0             -0.099915574   -0.021666069  
    321500   0.070899896   -0.17924732     0             -0.12077822    -0.022578653  
    322000   0.060170303   -0.18576957     0             -0.13614886     0.11081014   
    322500   0.066701208   -0.18500295     0             -0.12999639     0.030544053  
    323000   0.059752289   -0.19208928     0             -0.1428133     -0.043680809  
    323500   0.088343123   -0.18105712     0             -0.10820311    -0.63562273   
    324000   0.071139833   -0.18675029     0             -0.12808333     0.028090161  
    324500   0.050462006   -0.19012131     0             -0.14850676    -0.19397266   
    325000   0.175032      -0.18621949     0             -0.041875666   -0.071053011  
    325500   0.16628305    -0.17725319     0             -0.040124369   -0.12989057   
    326000   0.12832396    -0.18122241     0             -0.075397356   -0.14064085   
    326500   0.10216534    -0.18570091     0             -0.10144812    -0.12724588   
    327000   0.090143542   -0.18391787     0             -0.1095791     -0.15055807   
    327500   0.13196489    -0.18311042     0             -0.074282787    0.062455911  
    328000   0.11228002    -0.17933857     0             -0.086744492    0.42434668   
    328500   0.11951223    -0.17970076     0             -0.081142487   -0.10730131   
    329000   0.080196032   -0.18336695     0             -0.11723161     0.050041803  
    329500   0.097650983   -0.18659145     0             -0.10606151     0.10910314   
    330000   0.1875498     -0.18439401     0             -0.029727122   -0.072642723  
    330500   0.12645599    -0.177807       0             -0.073522403   -0.019610247  
    331000   0.10913132    -0.18304926     0             -0.093051822   -0.14360462   
    331500   0.092545273   -0.18881575     0             -0.11249634    -0.24605177   
    332000   0.094975817   -0.18284065     0             -0.10451684    -0.020657933  
    332500   0.11654812    -0.18347034     0             -0.087356474    0.57692241   
    333000   0.15449073    -0.1755208      0             -0.048116769   -0.06039504   
    333500   0.13283269    -0.17430151     0             -0.064758233    0.25462216   
    334000   0.11057784    -0.17760421     0             -0.086413868    0.2176943    
    334500   0.11592632    -0.17925301     0             -0.083651935    0.0040348137 
    335000   0.10567676    -0.17755726     0             -0.090408691   -0.075746381  
    335500   0.11758927    -0.18026222     0             -0.083289754    0.055680855  
    336000   0.12053281    -0.17875428     0             -0.079354363    0.031714741  
    336500   0.10950196    -0.17549364     0             -0.085190544    0.21616619   
    337000   0.11310977    -0.17431395     0             -0.081035598   -0.26785566   
    337500   0.10864539    -0.17487536     0             -0.085278645    0.025203874  
    338000   0.1335384     -0.17168261     0             -0.061557358    0.27165232   
    338500   0.083616761   -0.1763962      0             -0.10743988    -0.22508089   
    339000   0.090932602   -0.17836198     0             -0.10337249    -0.15043431   
    339500   0.077141489   -0.18026909     0             -0.11665274    -0.18661209   
    340000   0.074780929   -0.18210832     0             -0.12043865    -0.20532411   
    340500   0.086493161   -0.18112603     0             -0.10979763    -0.24803894   
    341000   0.11320804    -0.18717856     0             -0.093819162    0.12779888   
    341500   0.11294724    -0.17726542     0             -0.084121105    0.010992617  
    342000   0.10912939    -0.185426       0             -0.095430153   -0.12120193   
    342500   0.12608344    -0.18288064     0             -0.078903276   -0.32652678   
    343000   0.14719242    -0.1785827      0             -0.057197368    0.024374473  
    343500   0.099738371   -0.18141873     0             -0.09916738     0.088288376  
    344000   0.13486443    -0.17983618     0             -0.068617381   -0.092763235  
    344500   0.11094832    -0.18448781     0             -0.092991943   -0.28554743   
    345000   0.10645943    -0.17905127     0             -0.091257256   -0.19014899   
    345500   0.091952782   -0.17824911     0             -0.10241831    -0.029038852  
    346000   0.14850721    -0.17883933     0             -0.056369734    0.02867038   
    346500   0.12619366    -0.17587625     0             -0.071807988   -0.14902267   
    347000   0.11406406    -0.17529131     0             -0.081225982    0.084301719  
    347500   0.11655952    -0.17279352     0             -0.076670257    0.069099635  
    348000   0.16612899    -0.17406182     0             -0.037060054    0.15578436   
    348500   0.15264915    -0.17469284     0             -0.048807505    0.0029746468 
    349000   0.10588148    -0.17544965     0             -0.088132259   -0.19586207   
    349500   0.10152198    -0.17769454     0             -0.093972298    0.15104903   
    350000   0.12329024    -0.17084468     0             -0.069170791   -0.32118114   
    350500   0.11757364    -0.17499271     0             -0.078033137   -0.010357106  
    351000   0.098318197   -0.17281602     0             -0.091735849    0.22768322   
    351500   0.076462984   -0.17788612     0             -0.11482931    -0.29863472   
    352000   0.088925145   -0.17937395     0             -0.10603995     0.091107809  
    352500   0.096787072   -0.178463       0             -0.098645503   -0.034892302  
    353000   0.087194672   -0.18444578     0             -0.11253886     0.17566656   
    353500   0.075726446   -0.18414135     0             -0.12169194     0.23855198   
    354000   0.10914066    -0.1870478      0             -0.097042655   -0.31560397   
    354500   0.096323903   -0.18409488     0             -0.10465935    -0.070509321  
    355000   0.080846394   -0.18630663     0             -0.11963495    -0.17883261   
    355500   0.093033467   -0.1803674      0             -0.10364539     0.25482583   
    356000   0.075125405   -0.17957415     0             -0.11762041     0.041033938  
    356500   0.061995975   -0.18711949     0             -0.13599321    -0.04773266   
    357000   0.10789478    -0.18685155     0             -0.097873854    0.16110936   
    357500   0.095301171   -0.18233051     0             -0.10373839    -0.35937727   
    358000   0.12980736    -0.17700612     0             -0.069957747    0.10150357   
    358500   0.11149732    -0.18249204     0             -0.090543424    0.061632949  
    359000   0.094767307   -0.18197565     0             -0.10382379     0.33910387   
    359500   0.09811975    -0.18261488     0             -0.10169836    -0.10558342   
    360000   0.088185878   -0.18887389     0             -0.11614955     0.11248721   
    360500   0.095873296   -0.18129871     0             -0.10223478    -0.74460135   
    361000   0.10579505    -0.18350493     0             -0.096258812   -0.218835     
    361500   0.087609132   -0.18488524     0             -0.11263653    -0.33149969   
    362000   0.14395417    -0.18655214     0             -0.0678373      0.17824764   
    362500   0.1131414     -0.1797954      0             -0.08649096    -0.088684522  
    363000   0.11746799    -0.18818584     0             -0.09131339    -0.38492917   
    363500   0.083316754   -0.18480974     0             -0.11610082     0.098795623  
    364000   0.10905184    -0.19084495     0             -0.10091306     0.22457648   
    364500   0.09827295    -0.185324       0             -0.10428115     0.44776524   
    365000   0.10030807    -0.19193626     0             -0.10921509     0.058352242  
    365500   0.13540939    -0.18784416     0             -0.076175959    0.051160877  
    366000   0.11201871    -0.19420661     0             -0.10182802     0.27481865   
    366500   0.12828411    -0.19156171     0             -0.085769521    0.036822348  
    367000   0.10538214    -0.19738314     0             -0.11047754     0.11765026   
    367500   0.10787162    -0.19416354     0             -0.10520494    -0.23742714   
    368000   0.11837964    -0.18933596     0             -0.091711697    0.31422236   
    368500   0.15266251    -0.19804751     0             -0.072151151   -0.510595     
    369000   0.11929176    -0.18694636     0             -0.0885699     -0.34279362   
    369500   0.085894163   -0.19871359     0             -0.12787916     0.067019626  
    370000   0.10723833    -0.19645234     0             -0.108016       0.42187361   
    370500   0.082480277   -0.19751972     0             -0.12950063     0.078559693  
    371000   0.088266423   -0.2004448      0             -0.12765403    -0.25201217   
    371500   0.071276025   -0.20184602     0             -0.14306675     0.40124298   
    372000   0.097411311   -0.1972691      0             -0.11693681    -0.5437375    
    372500   0.10664641    -0.1981721      0             -0.1102239      0.21681938   
    373000   0.11951303    -0.19567679     0             -0.09711785     0.068982688  
    373500   0.096454943   -0.20345043     0             -0.12390683    -0.0078567839 
    374000   0.11815403    -0.2008547      0             -0.10341649    -0.0528989    
    374500   0.12549208    -0.19912828     0             -0.095638594    0.16941104   
    375000   0.13533612    -0.19587674     0             -0.084268957    0.18492337   
    375500   0.10961617    -0.1956743      0             -0.10527702    -0.096535533  
    376000   0.13607823    -0.18879118     0             -0.076571401   -0.28667586   
    376500   0.15110964    -0.19276745     0             -0.068151703    0.1208208    
    377000   0.15487926    -0.19112433     0             -0.063399886    0.064804297  
    377500   0.18443792    -0.18260136     0             -0.030500754   -0.39601128   
    378000   0.11992132    -0.19012082     0             -0.091225178   -0.1064403    
    378500   0.11714811    -0.1867383      0             -0.090129649    0.5280071    
    379000   0.13352423    -0.18092174     0             -0.070808173   -0.010351324  
    379500   0.12314334    -0.17769834     0             -0.076145597    0.15781872   
    380000   0.11064643    -0.18473816     0             -0.093491254   -0.15803767   
    380500   0.15236342    -0.18268766     0             -0.057037962   -0.79814379   
    381000   0.1521338     -0.18288925     0             -0.05742891     0.1875337    
    381500   0.11561981    -0.17720508     0             -0.081856773    0.17806794   
    382000   0.089558268   -0.18603422     0             -0.11217811     0.0092979561 
    382500   0.13591266    -0.18596452     0             -0.073881284   -0.25769403   
    383000   0.13563845    -0.18488474     0             -0.073027639    0.13624273   
    383500   0.11917003    -0.18770822     0             -0.089432145   -0.42219367   
    384000   0.16274592    -0.17907043     0             -0.044858583    0.40426323   
    384500   0.14900414    -0.18140271     0             -0.058523304   -0.11930084   
    385000   0.09518873    -0.18578201     0             -0.10728262    -0.04946307   
    385500   0.090571565   -0.18877218     0             -0.11408044     0.12924887   
    386000   0.17123379    -0.18355169     0             -0.042340145    0.52542843   
    386500   0.1451339     -0.1806255      0             -0.060937768    0.17185918   
    387000   0.10241526    -0.18363122     0             -0.09917232    -0.21983711   
    387500   0.072231042   -0.18825898     0             -0.12869213     0.18860024   
    388000   0.12078212    -0.18609234     0             -0.086486827    0.35591531   
    388500   0.1732143     -0.18026551     0             -0.037420691    0.57473819   
    389000   0.11585788    -0.18429569     0             -0.088751046    0.14866143   
    389500   0.082316284   -0.18077306     0             -0.1128892     -0.11080442   
    390000   0.074574566   -0.18754519     0             -0.12604571    -0.093761064  
    390500   0.068379943   -0.18913337     0             -0.13274241     0.25981295   
    391000   0.080459678   -0.19003064     0             -0.12367787    -0.069361385  
    391500   0.13394864    -0.19340935     0             -0.082945784    0.16287746   
    392000   0.14929904    -0.18329193     0             -0.06016933     0.072462181  
    392500   0.096757586   -0.18978005     0             -0.10998687     0.10057368   
    393000   0.11130519    -0.18717091     0             -0.09538074    -0.073084151  
    393500   0.10683992    -0.18997573     0             -0.10186793     0.089011819  
    394000   0.1014941     -0.19208568     0             -0.10838643    -0.082815628  
    394500   0.097554849   -0.19559262     0             -0.11514196     0.23913618   
    395000   0.092205625   -0.19776265     0             -0.12172334    -0.12303957   
    395500   0.095812013   -0.19469866     0             -0.11568527     0.01406406   
    396000   0.094969811   -0.19742795     0             -0.1191091     -0.0023404593 
    396500   0.086144655   -0.19529008     0             -0.12424908     0.16265669   
    397000   0.089009237   -0.19415541     0             -0.12075207    -0.10423542   
    397500   0.12927569    -0.19619967     0             -0.089589757   -0.4647795    
    398000   0.10917954    -0.1889591      0             -0.098921894   -0.062090805  
    398500   0.13385745    -0.19127483     0             -0.080886471   -0.0015454577 
    399000   0.10461323    -0.18850272     0             -0.10223122     0.1168507    
    399500   0.10729841    -0.18376203     0             -0.095276137    0.07633477   
    400000   0.11235053    -0.18183541     0             -0.089183176   -0.14075406   
    400500   0.12598063    -0.18181362     0             -0.077921046   -0.02694736   
    401000   0.099095969   -0.18422553     0             -0.10250395    -0.2861711    
    401500   0.13159383    -0.18857662     0             -0.080054998   -0.23704561   
    402000   0.16903248    -0.18274961     0             -0.043353421    0.27832059   
    402500   0.1332425     -0.18496384     0             -0.075082607   -0.015842348  
    403000   0.094264372   -0.18132178     0             -0.10358468     0.044429392  
    403500   0.093577612   -0.18787596     0             -0.11070521     0.060249349  
    404000   0.11580061    -0.18329562     0             -0.087798212   -0.0053830636 
    404500   0.14305312    -0.18382329     0             -0.065851523    0.50576695   
    405000   0.13028149    -0.1753781      0             -0.067938725   -0.28662111   
    405500   0.12049803    -0.1780663      0             -0.078695065    0.3779259    
    406000   0.10440387    -0.17594645     0             -0.089847597   -0.2814726    
    406500   0.10210556    -0.17760239     0             -0.093398895   -0.068198627  
    407000   0.084071713   -0.18300691     0             -0.1136754      0.33560798   
    407500   0.084234487   -0.18760005     0             -0.11813431     0.19289581   
    408000   0.12975791    -0.18362772     0             -0.076620129    0.1319774    
    408500   0.099165816   -0.18644752     0             -0.10466834     0.0088267236 
    409000   0.13693354    -0.18064757     0             -0.067722442    0.24289112   
    409500   0.11923181    -0.17435771     0             -0.076030685   -0.11960281   
    410000   0.13170806    -0.1838761      0             -0.075260283    0.11796509   
    410500   0.10996047    -0.18196078     0             -0.091279562    0.33387157   
    411000   0.10342086    -0.18315273     0             -0.097864539   -0.16332731   
    411500   0.10811702    -0.18453386     0             -0.095372881    0.24873706   
    412000   0.14567275    -0.18833518     0             -0.068203077    0.098925756  
    412500   0.12921882    -0.18117867     0             -0.074615646    0.14435155   
    413000   0.11936024    -0.1772656      0             -0.078832668    0.019543341  
    413500   0.11251177    -0.17667206     0             -0.083886864    0.39085103   
    414000   0.14240304    -0.17863355     0             -0.061197886   -0.25199315   
    414500   0.10263449    -0.17477055     0             -0.090130865    0.32474269   
    415000   0.10117175    -0.17822092     0             -0.094787509   -0.17105934   
    415500   0.13854597    -0.17764284     0             -0.063387991   -0.069478386  
    416000   0.10618685    -0.18136426     0             -0.093795037   -0.0085118871 
    416500   0.080319347   -0.18357882     0             -0.11734177     0.063634833  
    417000   0.1039674     -0.18560995     0             -0.099871038    0.41301956   
    417500   0.1153888     -0.18538478     0             -0.090226975   -0.32970559   
    418000   0.10687601    -0.18517142     0             -0.09703387    -0.40758092   
    418500   0.09739129    -0.17999449     0             -0.099678712    0.14688775   
    419000   0.083193265   -0.18296199     0             -0.11435491     0.1590405    
    419500   0.078870645   -0.18487312     0             -0.11983079    -0.017065534  
    420000   0.1623772     -0.18118893     0             -0.047281149   -0.10634414   
    420500   0.14187923    -0.18348288     0             -0.066479183   -0.025612517  
    421000   0.19093211    -0.17635139     0             -0.018895209    0.23534928   
    421500   0.17229139    -0.17265511     0             -0.030571386   -0.19116143   
    422000   0.13371376    -0.17152346     0             -0.061253597    0.37419886   
    422500   0.13712502    -0.17051652     0             -0.057433482   -0.21549827   
    423000   0.15250973    -0.16538174     0             -0.039611377    0.12012114   
    423500   0.13081685    -0.16146689     0             -0.053586026    0.041675413  
    424000   0.12553654    -0.16720199     0             -0.063675634    0.060370286  
    424500   0.10738336    -0.16813452     0             -0.079578565   -0.078762245  
    425000   0.089420905   -0.16860211     0             -0.094859282    0.24727681   
    425500   0.092072252   -0.1796424      0             -0.10371308     0.14898271   
    426000   0.11179489    -0.1738582      0             -0.081664187    0.5750168    
    426500   0.10795716    -0.17269755     0             -0.083668411    0.48596796   
    427000   0.11364106    -0.17504611     0             -0.081329613    0.018655776  
    427500   0.11896593    -0.17826062     0             -0.080152865   -0.24620425   
    428000   0.086025029   -0.17261835     0             -0.101676       0.74495884   
    428500   0.10916589    -0.18048717     0             -0.09046122    -0.046845563  
    429000   0.17941665    -0.1757371      0             -0.027777384   -0.054751609  
    429500   0.12940246    -0.17582035     0             -0.069105884    0.2001322    
    430000   0.14792757    -0.18053111     0             -0.05853953    -0.22544844   
    430500   0.14054379    -0.17411466     0             -0.058212263    0.16622759   
    431000   0.14694307    -0.17409957     0             -0.052919873   -0.34553523   
    431500   0.13624353    -0.16901293     0             -0.056656836    0.28725785   
    432000   0.094229447   -0.17086307     0             -0.093154774   -0.22262476   
    432500   0.1194644     -0.17115494     0             -0.072636113    0.2817653    
    433000   0.091983603   -0.16815104     0             -0.09229482     0.14739118   
    433500   0.1038008     -0.17623082     0             -0.090629307   -0.30767719   
    434000   0.11885491    -0.17772557     0             -0.07970937     0.012332616  
    434500   0.12712523    -0.17885807     0             -0.074021578   -0.044435565  
    435000   0.12712503    -0.1763898      0             -0.071553467    0.015320446  
    435500   0.12557284    -0.17562885     0             -0.072072565   -0.19158626   
    436000   0.14711711    -0.17934543     0             -0.058022203    0.23855875   
    436500   0.11997869    -0.18081359     0             -0.081870631   -0.28072576   
    437000   0.13098446    -0.18047412     0             -0.072455035   -0.23708955   
    437500   0.10369564    -0.18426363     0             -0.098748838    0.35080613   
    438000   0.10605462    -0.18594158     0             -0.098481401   -0.20891502   
    438500   0.1296083     -0.17105958     0             -0.064175369    0.056789719  
    439000   0.1152444     -0.18089924     0             -0.085860526   -0.06048153   
    439500   0.14433525    -0.17390024     0             -0.054871137    0.51914896   
    440000   0.11573731    -0.176376       0             -0.080930796    0.069690428  
    440500   0.098090372   -0.17851428     0             -0.097621986   -0.12420755   
    441000   0.098101146   -0.18156846     0             -0.10066728     0.042110912  
    441500   0.095896648   -0.18794786     0             -0.10886468     0.84756651   
    442000   0.14060523    -0.18610831     0             -0.070155252    0.0024849028 
    442500   0.094422835   -0.18407889     0             -0.10621112    -0.079112096  
    443000   0.11424062    -0.18843291     0             -0.094221981    0.21041835   
    443500   0.12779943    -0.19243101     0             -0.087038514    0.15448715   
    444000   0.077252356   -0.19159712     0             -0.12788934    -0.049291939  
    444500   0.086161875   -0.19397891     0             -0.12292371    -0.0087680567 
    445000   0.12104491    -0.18377161     0             -0.083949369   -0.025711726  
    445500   0.073774211   -0.18984684     0             -0.12900739    -0.095842196  
    446000   0.1046123     -0.18735042     0             -0.10107969     0.027738398  
    446500   0.074767234   -0.1903764      0             -0.12871802     0.055049996  
    447000   0.10263408    -0.18976622     0             -0.10512687     0.092784742  
    447500   0.094552509   -0.18802176     0             -0.11004705    -0.13716144   
    448000   0.12384111    -0.18674313     0             -0.08461495     0.016592523  
    448500   0.10112256    -0.19173005     0             -0.10833719    -0.22971359   
    449000   0.090160216   -0.18980921     0             -0.11545669    -0.35474088   
    449500   0.11536017    -0.19645634     0             -0.10132215    -0.042129182  
    450000   0.098319892   -0.19522513     0             -0.11414356     0.18856179   
    450500   0.088933473   -0.19534093     0             -0.12200006     0.44519885   
    451000   0.13702857    -0.19352495     0             -0.080521457   -0.16438804   
    451500   0.11992614    -0.1936961      0             -0.09479649    -0.033999431  
    452000   0.12792713    -0.18528487     0             -0.079787066   -0.010170872  
    452500   0.08879461    -0.19539732     0             -0.12217097     0.38353018   
    453000   0.081464663   -0.19781537     0             -0.13063382     0.040880819  
    453500   0.10733623    -0.19071384     0             -0.10219676     0.1296902    
    454000   0.073822297   -0.19692813     0             -0.13604902     0.10968009   
    454500   0.096991007   -0.19199465     0             -0.11200898     0.10883481   
    455000   0.10644012    -0.19153636     0             -0.10375828     0.033463155  
    455500   0.11363078    -0.18467731     0             -0.09096929     0.23634586   
    456000   0.074771797   -0.19257959     0             -0.13091745     0.10011599   
    456500   0.094569015   -0.19461552     0             -0.11662719    -0.090168969  
    457000   0.073804016   -0.19859118     0             -0.13772715     0.52475656   
    457500   0.087745908   -0.19851737     0             -0.12615586    -0.17278216   
    458000   0.10098152    -0.19630447     0             -0.11302794    -0.072356376  
    458500   0.11748384    -0.19485533     0             -0.097969807    0.32057922   
    459000   0.10495309    -0.19904921     0             -0.11249744    -0.17040718   
    459500   0.08957093    -0.19013893     0             -0.11627237    -0.06913677   
    460000   0.073606288   -0.1985664      0             -0.13786542    -0.24189128   
    460500   0.10427614    -0.19676873     0             -0.11077521     0.10298622   
    461000   0.10727439    -0.19638551     0             -0.10791942    -0.00093135139
    461500   0.12406323    -0.19479343     0             -0.092482072   -0.065739274  
    462000   0.11548823    -0.19055598     0             -0.095316176    0.22312551   
    462500   0.10089773    -0.1946887      0             -0.11148126     0.047077618  
    463000   0.15161394    -0.18600737     0             -0.060975747   -0.045212719  
    463500   0.12273608    -0.18695407     0             -0.085737181   -0.019957215  
    464000   0.11088528    -0.18836873     0             -0.096924846   -0.0096939913 
    464500   0.12636236    -0.19052952     0             -0.086322141    0.071001687  
    465000   0.15446756    -0.18546952     0             -0.058084594   -0.037064588  
    465500   0.10237859    -0.17651505     0             -0.09208639    -0.062659872  
    466000   0.092068013   -0.18479571     0             -0.10886989    -0.28947108   
    466500   0.10760538    -0.18442477     0             -0.095685728   -0.62292705   
    467000   0.092401088   -0.19326657     0             -0.11706607    -0.027771831  
    467500   0.099918461   -0.18347434     0             -0.10107448    -0.069778425  
    468000   0.10790679    -0.18651141     0             -0.097523801    0.043538479  
    468500   0.074373606   -0.18609919     0             -0.12476543     0.23443898   
    469000   0.094893017   -0.18528309     0             -0.10702756    -0.43284202   
    469500   0.084426987   -0.18794065     0             -0.11831616     0.14545735   
    470000   0.085556218   -0.19125189     0             -0.12069615    -0.13119359   
    470500   0.11865292    -0.18856471     0             -0.090715083   -0.1002629    
    471000   0.13441884    -0.18246895     0             -0.07161762    -0.26628099   
    471500   0.15664242    -0.16967159     0             -0.040493123    0.17332288   
    472000   0.15283558    -0.17991411     0             -0.053875033    0.24928614   
    472500   0.11070873    -0.17653055     0             -0.085232269    0.45652629   
    473000   0.099260814   -0.181484       0             -0.099626481    0.05351549   
    473500   0.10426318    -0.1786822      0             -0.092699372    0.18917519   
    474000   0.12764386    -0.17182408     0             -0.06655989    -0.075002381  
    474500   0.11257237    -0.17800139     0             -0.085166215   -0.058177319  
    475000   0.12279844    -0.18412552     0             -0.082857195   -0.134755     
    475500   0.12010087    -0.18313967     0             -0.084095957   -0.27336535   
    476000   0.13316668    -0.1776506      0             -0.067831894    0.34022426   
    476500   0.10075868    -0.18083865     0             -0.097745889    0.04061001   
    477000   0.11143344    -0.18073101     0             -0.088835075   -0.24478221   
    477500   0.12126175    -0.17232537     0             -0.072324315    0.0079786579 
    478000   0.11184891    -0.17709091     0             -0.084852345   -0.16376012   
    478500   0.11434962    -0.17496815     0             -0.080667326    0.10808984   
    479000   0.1066349     -0.17363599     0             -0.085697275    0.13962306   
    479500   0.090229125   -0.17697459     0             -0.10256525     0.0545619    
    480000   0.076345226   -0.18317417     0             -0.12021447    -0.0058006758 
    480500   0.11958406    -0.1840466      0             -0.085429082    0.1786581    
    481000   0.080522394   -0.19046337     0             -0.12405888    -0.040807826  
    481500   0.094106217   -0.18946595     0             -0.11185927     0.59952677   
    482000   0.11029414    -0.18658332     0             -0.095626941    0.020929967  
    482500   0.12375295    -0.179518       0             -0.07746252     0.55013515   
    483000   0.10386144    -0.1857242      0             -0.10007268    -0.21942295   
    483500   0.12128879    -0.18874678     0             -0.088723426    0.23657066   
    484000   0.12186541    -0.18445295     0             -0.083954072    0.082739843  
    484500   0.094091337   -0.1888407      0             -0.11124629    -0.63884405   
    485000   0.14149996    -0.18333876     0             -0.06664784    -0.010528742  
    485500   0.15275534    -0.17937482     0             -0.053401916    0.015676091  
    486000   0.14970264    -0.17677601     0             -0.053320578   -0.25799438   
    486500   0.129466      -0.18141707     0             -0.074650206    0.33924236   
    487000   0.14135102    -0.18131815     0             -0.064750055   -0.046483415  
    487500   0.12718846    -0.18197934     0             -0.077090697    0.14653634   
    488000   0.099706554   -0.18628788     0             -0.10406277     0.10809435   
    488500   0.083994826   -0.18967378     0             -0.12040568     0.25615206   
    489000   0.10459094    -0.19258471     0             -0.10633159     0.62428044   
    489500   0.10161295    -0.1856065      0             -0.10180925    -0.46608928   
    490000   0.13016036    -0.18532639     0             -0.077986901    0.11057706   
    490500   0.1483219     -0.18697848     0             -0.0646617     -0.15877769   
    491000   0.10639966    -0.18928548     0             -0.10154076     0.11076426   
    491500   0.15665855    -0.18167        0             -0.052478233   -0.19838656   
    492000   0.11974934    -0.17824869     0             -0.079494875   -0.28488164   
    492500   0.11469537    -0.18173211     0             -0.087146153   -0.16594203   
    493000   0.1225842     -0.18269445     0             -0.081602808   -0.47128094   
    493500   0.12116409    -0.17571736     0             -0.075796841    0.020527952  
    494000   0.11241511    -0.1734844      0             -0.080778907   -0.31628105   
    494500   0.097373058   -0.17888634     0             -0.098585597   -0.086031185  
    495000   0.12377858    -0.18560307     0             -0.08352646     0.063302904  
    495500   0.10671527    -0.18628473     0             -0.098279734   -0.14919364   
    496000   0.10737562    -0.18679235     0             -0.098242787   -0.010071401  
    496500   0.14227277    -0.18613308     0             -0.068804849    0.11270751   
    497000   0.11913761    -0.18912493     0             -0.090875587    0.5509075    
    497500   0.10687086    -0.18921373     0             -0.10108042     0.14874104   
    498000   0.12222117    -0.18876169     0             -0.087969425   -0.075566917  
    498500   0.15115569    -0.18715458     0             -0.062500859    0.1234429    
    499000   0.10518204    -0.185115       0             -0.098374417    0.2378818    
    499500   0.096924569   -0.18547931     0             -0.10554842     0.43068065   
    500000   0.11686323    -0.18395321     0             -0.08757949    -0.088586896  
    500500   0.16568385    -0.1878009      0             -0.051166227    0.32241311   
    501000   0.1622399     -0.17922036     0             -0.045425816   -0.081333707  
    501500   0.14366671    -0.17552379     0             -0.057046009   -0.21780748   
    502000   0.12716899    -0.18025975     0             -0.075387162   -0.13636486   
    502500   0.13224066    -0.17411047     0             -0.065055434    0.15352541   
    503000   0.11675629    -0.18255315     0             -0.086267622    0.060934484  
    503500   0.14115391    -0.18544267     0             -0.069037119    0.26085975   
    504000   0.13778092    -0.17988017     0             -0.06625624    -0.03459247   
    504500   0.12452296    -0.18406981     0             -0.081379327    0.19911698   
    505000   0.12857355    -0.18259688     0             -0.076565998   -0.24820042   
    505500   0.10986836    -0.17901436     0             -0.0884091     -0.074508975  
    506000   0.1520809     -0.17560762     0             -0.050190897    0.2963094    
    506500   0.13576311    -0.17895671     0             -0.066996799    0.23267087   
    507000   0.14366389    -0.17229363     0             -0.053818177   -0.21826969   
    507500   0.1091317     -0.1836705      0             -0.09367275     0.30859138   
    508000   0.08678512    -0.1839069      0             -0.11233773     0.28463503   
    508500   0.085468419   -0.18664692     0             -0.11616359    -0.32934782   
    509000   0.10186139    -0.1936523      0             -0.10965016    -0.53696646   
    509500   0.10857428    -0.18958744     0             -0.10004938     0.062594636  
    510000   0.12097815    -0.18400981     0             -0.08424263     0.23045422   
    510500   0.1399042     -0.1847317      0             -0.069356759    0.03534479   
    511000   0.092936875   -0.18520246     0             -0.10856011     0.14619931   
    511500   0.11561366    -0.19148952     0             -0.096146282   -0.36313047   
    512000   0.18783574    -0.17840448     0             -0.023501783   -0.13065067   
    512500   0.13682653    -0.18312156     0             -0.070284686    0.13860909   
    513000   0.15851915    -0.17766634     0             -0.046940192    0.44324908   
    513500   0.10357238    -0.19019872     0             -0.10478558     0.20237161   
    514000   0.11756542    -0.18432046     0             -0.08736766    -0.055219363  
    514500   0.12932917    -0.18985555     0             -0.083201529   -0.36990295   
    515000   0.16130015    -0.18116912     0             -0.048149556    0.50345652   
    515500   0.12709858    -0.18359164     0             -0.078777122   -0.069466803  
    516000   0.12065301    -0.1891155      0             -0.089616454   -0.21071619   
    516500   0.19497013    -0.17430654     0             -0.013520316    0.020433268  
    517000   0.15882693    -0.17838686     0             -0.047406889    0.11270851   
    517500   0.16413738    -0.16851294     0             -0.033153597    0.078850147  
    518000   0.1466743     -0.16456441     0             -0.043606356    0.074707919  
    518500   0.094679873   -0.18132109     0             -0.10324134    -0.057186603  
    519000   0.11165736    -0.18160031     0             -0.089519722   -0.069255572  
    519500   0.12473313    -0.17828673     0             -0.075422935   -0.070006127  
    520000   0.14062903    -0.18570021     0             -0.069727512    0.3334451    
    520500   0.16425572    -0.17403014     0             -0.038573199    0.080632502  
    521000   0.10572983    -0.17838888     0             -0.091196541    0.30744566   
    521500   0.11516218    -0.18063767     0             -0.085666758    0.073462996  
    522000   0.1162081     -0.18142221     0             -0.08558875    -0.26766494   
    522500   0.11928818    -0.18014548     0             -0.081771966   -0.12114565   
    523000   0.13951603    -0.17953323     0             -0.064478395    0.37345398   
    523500   0.10802321    -0.18096403     0             -0.09188042    -0.34978042   
    524000   0.095845735   -0.18839271     0             -0.10935151    -0.6389907    
    524500   0.15607246    -0.18553148     0             -0.056823047   -0.35508671   
    525000   0.16549497    -0.18080969     0             -0.044330779    0.53071058   
    525500   0.14957572    -0.18303384     0             -0.05968307    -0.023172282  
    526000   0.14871781    -0.17572732     0             -0.053084045    0.4746607    
    526500   0.18517517    -0.17795896     0             -0.025250361   -0.14757853   
    527000   0.11284563    -0.18934749     0             -0.096286965   -0.30859929   
    527500   0.17881184    -0.17854714     0             -0.031086198    0.46062839   
    528000   0.19079381    -0.17654887     0             -0.019206735    0.10235101   
    528500   0.10799731    -0.18796188     0             -0.098899626   -0.064863695  
    529000   0.14640384    -0.17755435     0             -0.056819336    0.04708129   
    529500   0.13854285    -0.17398266     0             -0.059730387    0.093859992  
    530000   0.11901918    -0.17598979     0             -0.077838111   -0.032811111  
    530500   0.16116675    -0.17166196     0             -0.038752406   -0.20741552   
    531000   0.13639644    -0.17458937     0             -0.062107174    0.35131264   
    531500   0.15022759    -0.18075349     0             -0.056865142    0.016227151  
    532000   0.20390445    -0.18106839     0             -0.012914288   -0.27596159   
    532500   0.16081163    -0.17292602     0             -0.040309324    0.86710758   
    533000   0.16030092    -0.17710569     0             -0.044910161    0.25017188   
    533500   0.13320699    -0.17862234     0             -0.068770392    0.24578903   
    534000   0.12174534    -0.17812851     0             -0.077728656   -0.04996803   
    534500   0.114612      -0.17833523     0             -0.083818036    0.02611735   
    535000   0.11329787    -0.18208412     0             -0.088650641    0.12636092   
    535500   0.10468774    -0.18572091     0             -0.099387966    0.11074655   
    536000   0.10812414    -0.17430838     0             -0.08514153     0.35694462   
    536500   0.10413835    -0.18778238     0             -0.10190249    -0.19793732   
    537000   0.12807137    -0.18392936     0             -0.078312615   -0.13999229   
    537500   0.098110784   -0.18902898     0             -0.10811985     0.10978812   
    538000   0.12171708    -0.19063828     0             -0.090261733    0.28876742   
    538500   0.13094852    -0.18594896     0             -0.07795951     0.039904108  
    539000   0.10320841    -0.18857735     0             -0.10346437    -0.42167278   
    539500   0.10106282    -0.19011642     0             -0.10677284    -0.38302153   
    540000   0.13118286    -0.1867746      0             -0.078591886    0.28862624   
    540500   0.16168546    -0.1706654      0             -0.037328077    0.4766729    
    541000   0.13357187    -0.17895566     0             -0.0688028      0.31293509   
    541500   0.15967897    -0.18340346     0             -0.051720831    0.18610946   
    542000   0.18814449    -0.17993424     0             -0.024776927    0.3861872    
    542500   0.16343065    -0.17855259     0             -0.043776059    0.2138185    
    543000   0.17554634    -0.17365298     0             -0.028884996    0.15023503   
    543500   0.13803403    -0.17739232     0             -0.063559654    0.22747912   
    544000   0.15537362    -0.18234494     0             -0.054212809    0.011880977  
    544500   0.17012627    -0.17631349     0             -0.036015284    0.16641059   
    545000   0.16217148    -0.17484464     0             -0.041106515    0.059286483  
    545500   0.16051498    -0.17192181     0             -0.039549751    0.0031377052 
    546000   0.14309272    -0.17137158     0             -0.053367157    0.077071738  
    546500   0.12541958    -0.17284943     0             -0.069419537   -0.39845585   
    547000   0.09308751    -0.1790457      0             -0.10227912    -0.31438591   
    547500   0.13216975    -0.17934712     0             -0.070350553   -0.55073894   
    548000   0.11788987    -0.18259353     0             -0.085373167    0.16729858   
    548500   0.1478854     -0.17897012     0             -0.05701331     0.13360623   
    549000   0.15202122    -0.17661609     0             -0.051248587   -0.25040555   
    549500   0.12229714    -0.17562697     0             -0.074772064   -0.13520734   
    550000   0.11394066    -0.17597957     0             -0.082016008    0.14534581   
    550500   0.11048922    -0.17810175     0             -0.086984483    0.28933271   
    551000   0.11910657    -0.1766082      0             -0.078384458    0.14968398   
    551500   0.12004433    -0.18880802     0             -0.089810938   -0.025844526  
    552000   0.14495132    -0.18740025     0             -0.067863093    0.17880073   
    552500   0.14042479    -0.17927039     0             -0.063466124   -0.10409714   
    553000   0.13157927    -0.17107527     0             -0.062565656    0.26429821   
    553500   0.15632786    -0.17607621     0             -0.047157152    0.37037418   
    554000   0.15153104    -0.17713557     0             -0.052172308    0.40672739   
    554500   0.11083773    -0.17920837     0             -0.087803709   -0.60001136   
    555000   0.13507114    -0.17886713     0             -0.067477867    0.07004524   
    555500   0.15833925    -0.17912616     0             -0.048548364   -0.13059356   
    556000   0.15641494    -0.17657259     0             -0.047581714   -0.32549433   
    556500   0.1217826     -0.18032674     0             -0.079896154   -0.3994504    
    557000   0.12236607    -0.17938022     0             -0.078468456    0.00015888536
    557500   0.10042124    -0.17879297     0             -0.095978477   -0.10555726   
    558000   0.10161394    -0.18461773     0             -0.10081966     0.085829484  
    558500   0.10920166    -0.18727393     0             -0.097218489   -0.11888855   
    559000   0.10027537    -0.18722998     0             -0.10453578    -0.28053066   
    559500   0.089618443   -0.18738517     0             -0.11347944    -0.10319905   
    560000   0.12104814    -0.18930263     0             -0.089477734    0.19782776   
    560500   0.13239149    -0.17884795     0             -0.069668518   -0.2472091    
    561000   0.17268374    -0.17996912     0             -0.037561841    0.060552402  
    561500   0.12515596    -0.17801329     0             -0.07480079     0.88432424   
    562000   0.12358606    -0.18253338     0             -0.080615538   -0.12240284   
    562500   0.10824714    -0.18418571     0             -0.094917427   -0.10049135   
    563000   0.1482122     -0.17684871     0             -0.054622402   -0.37410478   
    563500   0.11263293    -0.1728774      0             -0.079992286   -0.29782842   
    564000   0.12549836    -0.18457785     0             -0.081082978    0.29009473   
    564500   0.1479717     -0.1812179      0             -0.059189926    0.27319535   
    565000   0.10998419    -0.18256579     0             -0.091865011    0.10813326   
    565500   0.10062566    -0.18877388     0             -0.10579081    -0.086005609  
    566000   0.11602701    -0.18749556     0             -0.091811443   -0.46967673   
    566500   0.18043267    -0.18722922     0             -0.038431623   -0.10397146   
    567000   0.12706031    -0.19270068     0             -0.087917716   -0.36101201   
    567500   0.15711755    -0.18179969     0             -0.052229397   -0.16025845   
    568000   0.14637564    -0.18578779     0             -0.065076031    0.34788253   
    568500   0.15213482    -0.17512279     0             -0.0496616      0.074616808  
    569000   0.11885692    -0.18666434     0             -0.088646483   -0.27835292   
    569500   0.086350519   -0.18522463     0             -0.11401385    -0.091511391  
    570000   0.11718339    -0.18532049     0             -0.088682746    0.023803745  
    570500   0.10469459    -0.19087796     0             -0.10453936     0.3905825    
    571000   0.14309971    -0.18162092     0             -0.063610728    0.12164487   
    571500   0.13545772    -0.18674021     0             -0.075032151    0.090269969  
    572000   0.14389159    -0.18917383     0             -0.070510602    0.16538284   
    572500   0.1519259     -0.18288673     0             -0.057597833    0.42070058   
    573000   0.14848345    -0.17896056     0             -0.056510555    0.67362365   
    573500   0.12850992    -0.1808419      0             -0.074863487   -0.0021243594 
    574000   0.12636266    -0.17877053     0             -0.074562899   -0.12095144   
    574500   0.09268358    -0.18403126     0             -0.1075978      0.17259946   
    575000   0.10062982    -0.18414484     0             -0.10115835     0.29972002   
    575500   0.080627218   -0.18506437     0             -0.11857344    -0.095947851  
    576000   0.092666246   -0.19264827     0             -0.1162291      0.16431156   
    576500   0.092091945   -0.19130059     0             -0.11535502    -0.12116683   
    577000   0.11175541    -0.19141578     0             -0.099254325   -0.10529693   
    577500   0.12216824    -0.19300355     0             -0.092254937   -0.11428844   
    578000   0.089657903   -0.19869085     0             -0.12475257    -0.29421353   
    578500   0.1281352     -0.19102928     0             -0.085359892    0.32934628   
    579000   0.10936268    -0.19503907     0             -0.10485083    -0.21875738   
    579500   0.1009482     -0.19269526     0             -0.1094462     -0.27951879   
    580000   0.085707594   -0.19571337     0             -0.1250328      0.01899916   
    580500   0.1462186     -0.19549569     0             -0.074913442   -0.04553813   
    581000   0.2083888     -0.18556518     0             -0.013712968   -0.22968536   
    581500   0.13925743    -0.18313572     0             -0.068294147   -0.64069918   
    582000   0.11984166    -0.19032913     0             -0.091499186   -0.053258907  
    582500   0.14128493    -0.1867208      0             -0.070207207    0.57556003   
    583000   0.13630784    -0.18934253     0             -0.076933403    0.37648796   
    583500   0.19090433    -0.18176219     0             -0.02432891     0.40315959   
    584000   0.15103716    -0.1806783      0             -0.056122325   -0.38853864   
    584500   0.12840182    -0.17581728     0             -0.069928017    0.19865356   
    585000   0.16613998    -0.17159037     0             -0.034579543    0.25596729   
    585500   0.12895816    -0.18254418     0             -0.076196113   -0.18786283   
    586000   0.13768089    -0.18125401     0             -0.067712562    0.033593513  
    586500   0.154593      -0.18066776     0             -0.053179384    0.82589708   
    587000   0.12006858    -0.18298737     0             -0.083970294   -0.13229054   
    587500   0.088245736   -0.18197542     0             -0.10920172     0.31522457   
    588000   0.089988023   -0.18564726     0             -0.11143675     0.40894372   
    588500   0.087148893   -0.18852645     0             -0.11665728    -0.19647102   
    589000   0.11623656    -0.18831275     0             -0.092455829    0.24411533   
    589500   0.11092998    -0.18137575     0             -0.089895006    0.12294381   
    590000   0.11690154    -0.17966586     0             -0.083260545   -0.11210971   
    590500   0.099141129   -0.1861312      0             -0.10437238    -0.20041966   
    591000   0.13654612    -0.19060996     0             -0.078004325    0.089647823  
    591500   0.12413531    -0.18954878     0             -0.087177988    0.055277417  
    592000   0.14303919    -0.18422831     0             -0.066268028   -0.21521365   
    592500   0.1031058     -0.18868436     0             -0.10365599     0.31344001   
    593000   0.17721055    -0.17774926     0             -0.031608841    0.15035885   
    593500   0.18613519    -0.17520995     0             -0.021709651    0.046559273  
    594000   0.15965715    -0.17247434     0             -0.040809709   -0.094771013  
    594500   0.13598582    -0.17743604     0             -0.06529247    -0.075507952  
    595000   0.13597059    -0.1831571      0             -0.071026096   -0.22059498   
    595500   0.1143059     -0.17949493     0             -0.085230171    0.015284236  
    596000   0.17663527    -0.1802815      0             -0.034615509    0.053635467  
    596500   0.19443745    -0.17612086     0             -0.015773926   -0.33950965   
    597000   0.15333371    -0.17412971     0             -0.047679842   -0.078421702  
    597500   0.1731964     -0.17457701     0             -0.031746952    0.0052536775 
    598000   0.19660038    -0.17501077     0             -0.012880131   -0.14823336   
    598500   0.19371319    -0.17387453     0             -0.014124867   -0.31263781   
    599000   0.13505072    -0.17140217     0             -0.060029749   -0.44781896   
    599500   0.12002632    -0.17933438     0             -0.080352142    0.34074355   
    600000   0.1110153     -0.18364921     0             -0.092098112    0.26401445   
    600500   0.1081123     -0.18178514     0             -0.092628051    0.60974625   
    601000   0.11715779    -0.18239668     0             -0.08578004     0.010082074  
    601500   0.097091324   -0.18107703     0             -0.10100862    -0.4249765    
    602000   0.093813658   -0.18706601     0             -0.1097006     -0.79699302   
    602500   0.089676966   -0.18774041     0             -0.11378641     0.24710419   
    603000   0.13543692    -0.18690391     0             -0.075213002    0.3019404    
    603500   0.11392666    -0.18913278     0             -0.095180761    0.30809623   
    604000   0.10880608    -0.19661434     0             -0.10688511     0.076102888  
    604500   0.13703872    -0.18444203     0             -0.071430159    0.18339813   
    605000   0.11322076    -0.19058695     0             -0.097217064   -0.11603517   
    605500   0.20245273    -0.18467231     0             -0.017715404    0.086561361  
    606000   0.19934505    -0.17894246     0             -0.014548372    0.0039363803 
    606500   0.12930081    -0.18143676     0             -0.074806121   -0.22892754   
    607000   0.16649134    -0.17752057     0             -0.040219975    0.022701027  
    607500   0.16971679    -0.17271739     0             -0.032756863   -0.97216532   
    608000   0.15416125    -0.17633922     0             -0.049206899   -0.0074960804 
    608500   0.10824942    -0.18546704     0             -0.096196869    0.37238382   
    609000   0.12102472    -0.18943756     0             -0.089631977    0.4366615    
    609500   0.12098205    -0.18941521     0             -0.089644816   -0.024733225  
    610000   0.16695324    -0.186443       0             -0.048761493   -0.053478139  
    610500   0.15358112    -0.18278112     0             -0.056127215   -0.51006524   
    611000   0.17551984    -0.17948432     0             -0.034738185    0.041897508  
    611500   0.14174891    -0.18025286     0             -0.063356636   -0.10577733   
    612000   0.14886354    -0.17958954     0             -0.056826086   -0.070978514  
    612500   0.15859654    -0.17579755     0             -0.045007573   -0.58948619   
    613000   0.16525556    -0.17727901     0             -0.040997529   -0.38019083   
    613500   0.14383255    -0.18070848     0             -0.062093944    0.30108343   
    614000   0.15669138    -0.18065154     0             -0.051432698   -0.01022367   
    614500   0.11006983    -0.18851954     0             -0.097748137   -0.29672404   
    615000   0.11105645    -0.18775199     0             -0.096166948   -0.12135363   
    615500   0.11738418    -0.18688791     0             -0.090084571    0.099176143  
    616000   0.10857726    -0.19186886     0             -0.10232834    -0.63230527   
    616500   0.12405511    -0.19660695     0             -0.094302287    0.11056292   
    617000   0.15909053    -0.18589432     0             -0.054696965   -0.084140491  
    617500   0.13524109    -0.19114066     0             -0.079611243    0.05989662   
    618000   0.11553273    -0.18471271     0             -0.08943621    -0.21392804   
    618500   0.11475415    -0.1961659      0             -0.10153148    -0.016450427  
    619000   0.12460165    -0.19142402     0             -0.088668649    0.1882024    
    619500   0.13034183    -0.19011799     0             -0.082628852   -0.21401696   
    620000   0.15545378    -0.18475957     0             -0.056561336    0.21076961   
    620500   0.18397731    -0.1811774      0             -0.029456643    0.12744561   
    621000   0.13960604    -0.18388666     0             -0.068757607   -0.15136207   
    621500   0.17862374    -0.18127704     0             -0.033971209    0.35570847   
    622000   0.15808407    -0.186385       0             -0.056017646    0.3466712    
    622500   0.11143459    -0.18535406     0             -0.093457186    0.041019329  
    623000   0.10519094    -0.19070482     0             -0.1039569      0.020332194  
    623500   0.12425918    -0.1903598      0             -0.087886851   -0.45844809   
    624000   0.1158882     -0.19276636     0             -0.097196715    0.14967499   
    624500   0.10750716    -0.19545889     0             -0.10680085     0.28376615   
    625000   0.10331125    -0.20054922     0             -0.11535142    -0.0031070513 
    625500   0.092107941   -0.19613984     0             -0.12018109     0.01847884   
    626000   0.14714309    -0.18989461     0             -0.068549955    0.4764571    
    626500   0.16267099    -0.18636252     0             -0.052212469   -0.27186196   
    627000   0.11457424    -0.18939199     0             -0.094905933    0.19137004   
    627500   0.15163359    -0.18595297     0             -0.060905141    0.23677834   
    628000   0.15657769    -0.19124538     0             -0.062120295    0.2681461    
    628500   0.14532671    -0.18734612     0             -0.067499389   -0.33276612   
    629000   0.12690972    -0.17677063     0             -0.072111857    0.17916721   
    629500   0.10399897    -0.18649088     0             -0.10072594    -0.10219738   
    630000   0.13480504    -0.18216896     0             -0.070999147   -0.20657484   
    630500   0.14215113    -0.17916899     0             -0.061941075    0.3314756    
    631000   0.17090528    -0.18009524     0             -0.039154607    0.22529873   
    631500   0.18049999    -0.17139339     0             -0.022540272   -0.52917312   
    632000   0.16276462    -0.17702273     0             -0.042795451    0.033813537  
    632500   0.17766335    -0.17678675     0             -0.030272934    0.28809722   
    633000   0.14140573    -0.17615981     0             -0.059546604    0.0012626571 
    633500   0.15731293    -0.17071897     0             -0.040987553    0.04470414   
    634000   0.13380201    -0.17335217     0             -0.063009527   -0.16285636   
    634500   0.1092386     -0.18073322     0             -0.090647313    0.073805649  
    635000   0.10403801    -0.18392058     0             -0.098123442   -0.35105478   
    635500   0.14393301    -0.17955278     0             -0.060855394    0.16968903   
    636000   0.11948975    -0.18234497     0             -0.083805231    0.049306474  
    636500   0.16202166    -0.17703351     0             -0.043418936   -0.38334831   
    637000   0.15718445    -0.17676728     0             -0.04714181    -0.052875832  
    637500   0.15814841    -0.17731316     0             -0.04689274     0.42481788   
    638000   0.13816898    -0.17598492     0             -0.062040964    0.39387785   
    638500   0.13674141    -0.18589359     0             -0.073126912   -0.069769152  
    639000   0.1419725     -0.17917996     0             -0.062099353    0.37681502   
    639500   0.11587695    -0.18777724     0             -0.092216874   -0.37150807   
    640000   0.1334966     -0.18319616     0             -0.073105379   -0.46930944   
    640500   0.1329388     -0.18708254     0             -0.077451764   -0.43783015   
    641000   0.15192615    -0.18797206     0             -0.06268296     0.031948819  
    641500   0.11093457    -0.19135836     0             -0.099873831    0.26045951   
    642000   0.15101909    -0.18980308     0             -0.065262005   -0.15866216   
    642500   0.16391581    -0.18144642     0             -0.046269792    0.103128     
    643000   0.1449015     -0.18043467     0             -0.060938597    0.62122578   
    643500   0.1359109     -0.18466736     0             -0.072585579   -0.11553319   
    644000   0.13418012    -0.1848053      0             -0.074150843    0.17008169   
    644500   0.11368186    -0.19744318     0             -0.10369304    -0.44344403   
    645000   0.12449758    -0.18924551     0             -0.086575958    0.46567103   
    645500   0.13017516    -0.18715763     0             -0.079805937   -0.10030855   
    646000   0.11491753    -0.18660108     0             -0.091831915    0.072257392  
    646500   0.15898615    -0.18968356     0             -0.058572287    0.18189577   
    647000   0.10896357    -0.19712618     0             -0.10726708     0.35037656   
    647500   0.12852827    -0.19152688     0             -0.085533337    0.059630482  
    648000   0.13853717    -0.19259056     0             -0.07834297    -0.2829007    
    648500   0.15203545    -0.19353129     0             -0.068152056    0.16437826   
    649000   0.12932326    -0.19528784     0             -0.088638685   -0.15409989   
    649500   0.15491448    -0.1814983      0             -0.053744815   -0.18070097   
    650000   0.16313091    -0.18876127     0             -0.054231934    0.054009417  
    650500   0.13505774    -0.1890434      0             -0.077665184    0.29722802   
    651000   0.10607691    -0.19391853     0             -0.10643997     0.15280613   
    651500   0.099380642   -0.19832474     0             -0.11636841     0.38162245   
    652000   0.12366343    -0.19545894     0             -0.093477295   -0.0041610038 
    652500   0.14629505    -0.18547431     0             -0.064829012   -0.36739419   
    653000   0.14375971    -0.19102401     0             -0.072469533    0.16282358   
    653500   0.13900142    -0.18491522     0             -0.07028477     0.19828875   
    654000   0.16150774    -0.19048757     0             -0.057296816   -0.077851102  
    654500   0.20009346    -0.18703634     0             -0.022025055    0.2044935    
    655000   0.16271779    -0.1795483      0             -0.04535965    -0.14692869   
    655500   0.15322481    -0.19047631     0             -0.064116245   -0.1050731    
    656000   0.13026699    -0.19507252     0             -0.087645103    0.10077868   
    656500   0.11795508    -0.19325219     0             -0.095978052    0.15956363   
    657000   0.10648346    -0.19439456     0             -0.10658074     0.26615183   
    657500   0.17094058    -0.18698771     0             -0.046017958    0.55596742   
    658000   0.1525992     -0.18556513     0             -0.059720982    0.39638434   
    658500   0.10393101    -0.18772899     0             -0.10202009    -0.035335376  
    659000   0.10733608    -0.19508717     0             -0.10657022     0.087881438  
    659500   0.10839067    -0.18997718     0             -0.10059053     0.21482403   
    660000   0.10810972    -0.19246121     0             -0.10330626     0.10629306   
    660500   0.1197233     -0.1979788      0             -0.099246462   -0.58156677   
    661000   0.12159671    -0.19742467     0             -0.097147387    0.051202341  
    661500   0.1507372     -0.19563118     0             -0.071322571   -0.18059112   
    662000   0.16888977    -0.19392199     0             -0.054643486   -0.39163493   
    662500   0.12830211    -0.19141292     0             -0.085605886   -0.15388649   
    663000   0.12339814    -0.18684526     0             -0.085082387   -0.015477716  
    663500   0.12161599    -0.18478714     0             -0.084493955   -0.12957588   
    664000   0.12777811    -0.19055412     0             -0.085179205    0.32525735   
    664500   0.12828616    -0.18682278     0             -0.081028895    0.013524791  
    665000   0.10130445    -0.19188357     0             -0.10834072     0.15863549   
    665500   0.10494721    -0.19969061     0             -0.11314368     0.0026507399 
    666000   0.12316346    -0.19063837     0             -0.089069031   -0.54104883   
    666500   0.12815838    -0.19419009     0             -0.088501583   -0.10846348   
    667000   0.12491435    -0.19539558     0             -0.092382326    0.047608916  
    667500   0.1556659     -0.18189912     0             -0.053525955   -0.21201375   
    668000   0.13042513    -0.1871379      0             -0.079580066   -0.015733476  
    668500   0.14979142    -0.19570654     0             -0.072177893   -0.33427568   
    669000   0.13675689    -0.18675328     0             -0.07397383     0.020109115  
    669500   0.096076721   -0.19374959     0             -0.1145179      0.1220046    
    670000   0.17549597    -0.18949899     0             -0.044772547   -0.74726423   
    670500   0.13844304    -0.1886006      0             -0.074430634    0.0690485    
    671000   0.18322958    -0.18942263     0             -0.038318498    0.18087931   
    671500   0.14466077    -0.19425251     0             -0.074954953    0.20358672   
    672000   0.11935527    -0.19525911     0             -0.096830272    0.023517624  
    672500   0.14484861    -0.19738826     0             -0.077935806   -0.25664472   
    673000   0.14964698    -0.18834257     0             -0.064933035    0.026358623  
    673500   0.13165095    -0.18943114     0             -0.080862406    0.26438092   
    674000   0.12940314    -0.19399172     0             -0.087276698   -0.27647581   
    674500   0.13541221    -0.19011858     0             -0.078448048    0.36099249   
    675000   0.14879902    -0.1861041      0             -0.063393855    0.1571599    
    675500   0.1179886     -0.18872361     0             -0.091421834    0.17931874   
    676000   0.12964923    -0.18862864     0             -0.081710678   -0.073158569  
    676500   0.13618705    -0.18548817     0             -0.073178652    0.31722924   
    677000   0.11373638    -0.18428047     0             -0.090485368    0.16176336   
    677500   0.096556442   -0.18293475     0             -0.10330745     0.021623087  
    678000   0.099503791   -0.19084763     0             -0.10878973    -0.11627768   
    678500   0.16485662    -0.17658522     0             -0.040632731    0.012239764  
    679000   0.13728902    -0.17577444     0             -0.062556161    0.096583965  
    679500   0.13083643    -0.18014663     0             -0.072249615    0.011337087  
    680000   0.14260457    -0.17124793     0             -0.053646072    0.17116709   
    680500   0.13711096    -0.17372835     0             -0.060656908    0.20136995   
    681000   0.1334792     -0.17346594     0             -0.063389509   -0.34328356   
    681500   0.13952019    -0.16903153     0             -0.053973271   -0.20257463   
    682000   0.12837393    -0.17071903     0             -0.064852767    0.033860818  
    682500   0.092610238   -0.17600393     0             -0.099630946   -0.055707456  
    683000   0.14840504    -0.16864049     0             -0.046255142   -0.13389321   
    683500   0.17777082    -0.16140107     0             -0.014798627   -0.22403738   
    684000   0.15003806    -0.15776571     0             -0.034033668    0.26129607   
    684500   0.10683252    -0.17237745     0             -0.08427577    -0.37755364   
    685000   0.13964879    -0.17432668     0             -0.059162365   -0.10994717   
    685500   0.16769508    -0.17153039     0             -0.033237115    0.20074472   
    686000   0.1490391     -0.16980458     0             -0.046896348   -0.13859001   
    686500   0.15035508    -0.17173022     0             -0.047736738    0.084554717  
    687000   0.12817074    -0.17968087     0             -0.073982173   -0.048107959  
    687500   0.12912445    -0.18095522     0             -0.074470019    0.05539156   
    688000   0.1133382     -0.18375105     0             -0.090284313    0.15405455   
    688500   0.11987149    -0.1837465      0             -0.084891957    0.13421455   
    689000   0.14839824    -0.18411381     0             -0.061734072    0.3112736    
    689500   0.19227827    -0.17665229     0             -0.018085972    0.35555157   
    690000   0.16845548    -0.18522608     0             -0.046305724    0.41117851   
    690500   0.14400866    -0.1893489      0             -0.070589124    0.13498093   
    691000   0.12895633    -0.18822893     0             -0.081882381    0.13512602   
    691500   0.16153666    -0.19204881     0             -0.058834209    0.038803424  
    692000   0.14625612    -0.18916659     0             -0.068553404    0.4473962    
    692500   0.15394495    -0.19809659     0             -0.071142643   -0.18123416   
    693000   0.15119891    -0.1983976      0             -0.073708236    0.14576765   
    693500   0.14134401    -0.19796692     0             -0.081404599   -0.47252142   
    694000   0.19537302    -0.20133479     0             -0.040216315    0.036030031  
    694500   0.16671629    -0.19222737     0             -0.054741278   -0.37979232   
    695000   0.14436921    -0.19004444     0             -0.070987325   -0.57833118   
    695500   0.13436834    -0.19306547     0             -0.082255788    0.033266611  
    696000   0.11066816    -0.19073185     0             -0.099467026    0.11757345   
    696500   0.11466812    -0.19693571     0             -0.10237223    -0.31549778   
    697000   0.12142742    -0.20074705     0             -0.10060937    -0.29811503   
    697500   0.10588926    -0.19603999     0             -0.10871618     0.43753164   
    698000   0.14521799    -0.19827435     0             -0.078517273   -0.22095401   
    698500   0.14852254    -0.19182827     0             -0.069346037    0.0049530103 
    699000   0.1173568     -0.19881687     0             -0.10203611     0.14421761   
    699500   0.13840788    -0.19846373     0             -0.084322763    0.0404534    
    700000   0.12530186    -0.1985168      0             -0.095183977   -0.084833318  
    700500   0.11450469    -0.197513       0             -0.1030843      0.015265514  
    701000   0.12841275    -0.19762569     0             -0.091727413   -0.05211118   
    701500   0.11029113    -0.19184416     0             -0.10089026     0.17290099   
    702000   0.094997769   -0.199554       0             -0.12121209    -0.23564195   
    702500   0.11867815    -0.20038777     0             -0.10251733    -0.20171867   
    703000   0.13179449    -0.19811433     0             -0.089427227    0.26874279   
    703500   0.13151246    -0.19803718     0             -0.08958266    -0.12049821   
    704000   0.1128226     -0.20010251     0             -0.10706098    -0.42452472   
    704500   0.13915181    -0.19982387     0             -0.085069403    0.027365853  
    705000   0.14279048    -0.19048562     0             -0.072730441    0.044953489  
    705500   0.15357037    -0.18795106     0             -0.061306022    0.38449801   
    706000   0.11590613    -0.19267276     0             -0.097088328    0.5901291    
    706500   0.11879544    -0.19144913     0             -0.093481977   -0.13021399   
    707000   0.10729827    -0.19756227     0             -0.10907649    -0.17933252   
    707500   0.13326298    -0.19876906     0             -0.088870937   -0.1736352    
    708000   0.13716483    -0.19557109     0             -0.082455232    0.24939129   
    708500   0.14288031    -0.19276841     0             -0.074939151   -0.07041956   
    709000   0.13808896    -0.1937093      0             -0.079831336    0.23124978   
    709500   0.12471609    -0.19383184     0             -0.090982094    0.11364489   
    710000   0.1367403     -0.19672491     0             -0.083959139    0.57552318   
    710500   0.15632181    -0.18975957     0             -0.060845498    0.18608918   
    711000   0.12867062    -0.18841635     0             -0.082305417   -0.17606732   
    711500   0.15236605    -0.18831926     0             -0.062667389    0.30877034   
    712000   0.1490247     -0.18659582     0             -0.063699462   -0.044051442  
    712500   0.1460836     -0.18403322     0             -0.063562302   -0.4576893    
    713000   0.13873037    -0.1779882      0             -0.063581281   -0.18891177   
    713500   0.15090849    -0.17841335     0             -0.053963484    0.23055138   
    714000   0.12167194    -0.18564452     0             -0.085305193   -0.11274073   
    714500   0.17091734    -0.18261596     0             -0.041665369   -0.36967339   
    715000   0.13230746    -0.18205295     0             -0.072942817    0.10060436   
    715500   0.14326003    -0.18129069     0             -0.063148293    0.037621484  
    716000   0.16910412    -0.17187815     0             -0.032422876    0.30021093   
    716500   0.1577641     -0.17991777     0             -0.049814291   -0.04724961   
    717000   0.1412685     -0.17604705     0             -0.059547001   -0.22466829   
    717500   0.15372811    -0.17319281     0             -0.046417696    0.10455595   
    718000   0.15807218    -0.17439457     0             -0.044037018    0.028275385  
    718500   0.12848871    -0.17668544     0             -0.070724512    0.42180304   
    719000   0.11173878    -0.17533023     0             -0.083182496    0.25148739   
    719500   0.12388127    -0.18154878     0             -0.079387481   -0.10737343   
    720000   0.18383442    -0.17706303     0             -0.025460106   -0.88917831   
    720500   0.14727058    -0.17427009     0             -0.052820298   -0.49128221   
    721000   0.14984383    -0.17406119     0             -0.05048932     0.16367139   
    721500   0.22193688    -0.16974047     0              0.01328445    -0.28997502   
    722000   0.16751209    -0.16969566     0             -0.031553288   -0.25350543   
    722500   0.16347819    -0.17165775     0             -0.036842016   -0.095784763  
    723000   0.18383577    -0.1710053      0             -0.019401264   -0.00047223813
    723500   0.16732572    -0.15990376     0             -0.021915079    0.34007606   
    724000   0.13941966    -0.16750242     0             -0.052527056    0.33024649   
    724500   0.12630425    -0.17317234     0             -0.069012882    0.063121935  
    725000   0.1434373     -0.17220212     0             -0.053913531    0.35182411   
    725500   0.15652512    -0.16581682     0             -0.036735081    0.020175845  
    726000   0.12870657    -0.16946808     0             -0.063327499    0.20075773   
    726500   0.12234558    -0.16826333     0             -0.067368472   -0.17862333   
    727000   0.13685625    -0.17998225     0             -0.067120865   -0.2392871    
    727500   0.16854339    -0.17478101     0             -0.035788153   -0.45205584   
    728000   0.13811923    -0.18425585     0             -0.070352919    0.10823299   
    728500   0.14016576    -0.17988453     0             -0.064293892    0.1579846    
    729000   0.16661721    -0.1724453      0             -0.03504091    -0.081668454  
    729500   0.15069048    -0.17541497     0             -0.051144891    0.10718968   
    730000   0.12597672    -0.1794991      0             -0.075609744    0.5383254    
    730500   0.12574109    -0.17351132     0             -0.06981628     0.38206779   
    731000   0.14775481    -0.18175444     0             -0.059905319    0.16337298   
    731500   0.19308227    -0.18167657     0             -0.022447208    0.34189321   
    732000   0.15727247    -0.18034037     0             -0.050642318    0.17431524   
    732500   0.14495157    -0.18420338     0             -0.064666019   -0.0048362074 
    733000   0.1379078     -0.18400078     0             -0.070272201    0.27585323   
    733500   0.19330072    -0.18091352     0             -0.021504006   -0.16181588   
    734000   0.14634654    -0.17500519     0             -0.054317431    0.23989461   
    734500   0.12994052    -0.17438625     0             -0.06722807     0.11577615   
    735000   0.11229818    -0.17896033     0             -0.086351272   -0.030049967  
    735500   0.17417039    -0.17387477     0             -0.030241496   -0.077009296  
    736000   0.14097612    -0.17331189     0             -0.057052967    0.092337168  
    736500   0.14911504    -0.17799154     0             -0.055020683   -0.30081994   
    737000   0.15466292    -0.17702769     0             -0.049481664   -0.084429603  
    737500   0.12775321    -0.17733609     0             -0.071981722   -0.088821278  
    738000   0.13090064    -0.17551706     0             -0.067567095    0.15696389   
    738500   0.13220554    -0.18545282     0             -0.076426738   -0.099788026  
    739000   0.10782162    -0.18912039     0             -0.10020301    -0.39404231   
    739500   0.17529099    -0.17948027     0             -0.034922869    0.054556295  
    740000   0.19218051    -0.17730108     0             -0.018815376   -0.072698614  
    740500   0.14093006    -0.17144027     0             -0.055219329   -0.075026564  
    741000   0.12654309    -0.17704584     0             -0.072689412   -0.019996555  
    741500   0.13648823    -0.18446576     0             -0.071907862    0.18041263   
    742000   0.17650477    -0.17935329     0             -0.03379492    -0.1457458    
    742500   0.14612766    -0.17521162     0             -0.054704376   -0.17405281   
    743000   0.12948979    -0.17854078     0             -0.071754297    0.4818391    
    743500   0.13318971    -0.17984939     0             -0.070011696   -0.28234601   
    744000   0.12977989    -0.17562545     0             -0.068599735   -0.25494724   
    744500   0.1609284     -0.18097411     0             -0.048261112   -0.12099923   
    745000   0.1734011     -0.17872796     0             -0.035729088   -0.59638434   
    745500   0.14454685    -0.17817144     0             -0.058967837    0.063717021  
    746000   0.13022583    -0.17926386     0             -0.071870389   -0.61011826   
    746500   0.13513051    -0.17994282     0             -0.068504601    0.28474778   
    747000   0.18751496    -0.17821165     0             -0.023573486    0.21190608   
    747500   0.15568769    -0.1793483      0             -0.050957164    0.25762082   
    748000   0.13149329    -0.18079217     0             -0.072353464    0.38910194   
    748500   0.15594434    -0.18767191     0             -0.059069125   -0.17306752   
    749000   0.14799132    -0.17295345     0             -0.050909299   -0.013603789  
    749500   0.20099017    -0.17655638     0             -0.010805604    0.64625951   
    750000   0.16611557    -0.17265107     0             -0.035660372    0.33337866   
    750500   0.14694801    -0.17655411     0             -0.055370342   -0.23086552   
    751000   0.11759693    -0.17255928     0             -0.075580491   -0.24583162   
    751500   0.12751949    -0.16758696     0             -0.062425328    0.55813206   
    752000   0.11175682    -0.18597215     0             -0.093809538    0.36900653   
    752500   0.1280856     -0.17495276     0             -0.069324275   -0.21483531   
    753000   0.16976217    -0.18050238     0             -0.040504433    0.2272189    
    753500   0.15722633    -0.18198865     0             -0.052328647    0.081602883  
    754000   0.1977996     -0.17902995     0             -0.015910347   -0.80860163   
    754500   0.15990614    -0.17837133     0             -0.046501366   -0.11409954   
    755000   0.14937864    -0.17296464     0             -0.049776408    0.23825982   
    755500   0.18338447    -0.17343287     0             -0.022201005    0.041385464  
    756000   0.19758318    -0.17346511     0             -0.01052398     0.040464087  
    756500   0.16422449    -0.16892982     0             -0.033498643    0.071668205  
    757000   0.12266075    -0.17158554     0             -0.070430771    0.75925769   
    757500   0.16198338    -0.1720211      0             -0.038438098   -0.12048823   
    758000   0.15985958    -0.16729083     0             -0.035459257    0.14022227   
    758500   0.13215866    -0.17421837     0             -0.065230949    0.12941082   
    759000   0.15742213    -0.16553836     0             -0.035716888   -0.037736757  
    759500   0.13668014    -0.16782152     0             -0.055105361    0.09647453   
    760000   0.12688123    -0.17127461     0             -0.066639329   -0.0829688    
    760500   0.097418372   -0.176415       0             -0.096076891    0.11967246   
    761000   0.11578988    -0.17526511     0             -0.079776539   -0.12043846   
    761500   0.11067861    -0.17464987     0             -0.083376425   -0.90155994   
    762000   0.18572544    -0.16841382     0             -0.01525143     0.11221986   
    762500   0.17198824    -0.17775416     0             -0.035920438    0.26975722   
    763000   0.13980624    -0.17853694     0             -0.063242783   -0.17893187   
    763500   0.090415738   -0.18400381     0             -0.10944057     0.15913624   
    764000   0.10217491    -0.18687437     0             -0.10261368    -0.47389368   
    764500   0.10638886    -0.18628448     0             -0.098548661   -0.13256197   
    765000   0.10325148    -0.19102194     0             -0.10587343    -0.34258323   
    765500   0.14912581    -0.19180267     0             -0.068822937    0.22955991   
    766000   0.14316989    -0.18428498     0             -0.066216922   -0.16088408   
    766500   0.13128126    -0.18068648     0             -0.072422625   -0.082450087  
    767000   0.17265035    -0.17940915     0             -0.037029399   -0.02886005   
    767500   0.1465623     -0.17696821     0             -0.056102528   -0.8242245    
    768000   0.11542649    -0.17834219     0             -0.083153305   -0.0083041391 
    768500   0.13400538    -0.18563939     0             -0.075129024   -0.5767798    
    769000   0.15158758    -0.17588219     0             -0.050872299    0.19180755   
    769500   0.14145569    -0.17040271     0             -0.0537483     -0.060394633  
    770000   0.14079597    -0.17619176     0             -0.060081393   -0.3164004    
    770500   0.13993817    -0.18096116     0             -0.065558198   -0.23970655   
    771000   0.11474078    -0.18048295     0             -0.085859553    0.65011034   
    771500   0.11747104    -0.17472075     0             -0.077845781    0.06565042   
    772000   0.14618573    -0.17811205     0             -0.057556907    0.14501879   
    772500   0.15429489    -0.17784302     0             -0.050600495   -1.0160454    
    773000   0.16479049    -0.17849738     0             -0.042599427   -0.26230019   
    773500   0.19420085    -0.17392968     0             -0.013777857    0.2977525    
    774000   0.21331535    -0.16901455     0              0.0069004381   0.35931758   
    774500   0.16122298    -0.17075983     0             -0.037803899    0.53562947   
    775000   0.14507998    -0.17524406     0             -0.055600797   -0.015471202  
    775500   0.14296316    -0.17257457     0             -0.054676994   -0.11994887   
    776000   0.15532847    -0.17400332     0             -0.045908429    0.12188595   
    776500   0.13961001    -0.17675908     0             -0.061626742   -0.12112831   
    777000   0.16752058    -0.17845592     0             -0.040306547   -0.620455     
    777500   0.15550613    -0.17582142     0             -0.047580019   -0.2540284    
    778000   0.13805375    -0.17354321     0             -0.059694277    0.29783299   
    778500   0.15721227    -0.1694229      0             -0.039774497   -0.27865703   
    779000   0.14076248    -0.17350534     0             -0.057422603   -0.050326041  
    779500   0.14020054    -0.17447842     0             -0.058859086    0.083921973  
    780000   0.13054977    -0.17351435     0             -0.065853732    0.25225872   
    780500   0.12376683    -0.17934112     0             -0.077274196    0.50884455   
    781000   0.13026437    -0.1815675      0             -0.074142248    0.26949896   
    781500   0.15444477    -0.17778451     0             -0.050418379    0.616465     
    782000   0.14329097    -0.17808113     0             -0.059913208    0.37025293   
    782500   0.11791683    -0.17855664     0             -0.081314046    0.10089077   
    783000   0.14072755    -0.17436736     0             -0.058313424    0.11224742   
    783500   0.15537028    -0.16620384     0             -0.038074465   -0.20364876   
    784000   0.12606156    -0.17130753     0             -0.067348216   -0.2434353    
    784500   0.14258832    -0.17553095     0             -0.05794249     0.050497051  
    785000   0.1652646     -0.16443965     0             -0.028150722    0.34963606   
    785500   0.13950107    -0.17859112     0             -0.063548621   -0.029953003  
    786000   0.13300464    -0.17979788     0             -0.070112804   -0.5400241    
    786500   0.15392244    -0.17536255     0             -0.048427173   -0.46415239   
    787000   0.12900922    -0.17952349     0             -0.073133317    0.13004983   
    787500   0.13025569    -0.1754335      0             -0.068015398   -0.41999121   
    788000   0.13726147    -0.16577222     0             -0.05257666     0.02201352   
    788500   0.11788439    -0.17215854     0             -0.074942691    0.057241802  
    789000   0.13415367    -0.17178684     0             -0.06115419    -0.26592877   
    789500   0.097581827   -0.17431947     0             -0.093846561    0.37380323   
    790000   0.1129401     -0.18229361     0             -0.089155178   -0.14859032   
    790500   0.13971946    -0.18076599     0             -0.065543393    0.31735141   
    791000   0.15919168    -0.1716874      0             -0.040406627   -0.43041287   
    791500   0.23850839    -0.16878752     0              0.027903446   -0.13080454   
    792000   0.16571264    -0.15882106     0             -0.022162643    0.038234308  
    792500   0.14963134    -0.17195838     0             -0.048561744   -0.17594009   
    793000   0.14170324    -0.1738547      0             -0.056996143    0.040695843  
    793500   0.13537956    -0.1747073      0             -0.063063701   -0.33507616   
    794000   0.1700813     -0.17161068     0             -0.031349561    0.017597408  
    794500   0.15890582    -0.16739757     0             -0.036352544    0.44001612   
    795000   0.14357039    -0.17052202     0             -0.052123682    0.08589259   
    795500   0.15388374    -0.16966193     0             -0.042758464   -0.31084302   
    796000   0.14553129    -0.1694714      0             -0.049455966    0.096084841  
    796500   0.13238544    -0.17172873     0             -0.062554297    0.16862534   
    797000   0.11472661    -0.17211272     0             -0.077501007   -0.13309752   
    797500   0.093686273   -0.17706333     0             -0.09980297    -0.09824707   
    798000   0.13426464    -0.17129244     0             -0.060568282   -0.12301921   
    798500   0.12901611    -0.17754235     0             -0.071146504    0.70062222   
    799000   0.13046346    -0.17513981     0             -0.067550375    0.11637946   
    799500   0.13591028    -0.17313571     0             -0.061054437   -0.088671119  
    800000   0.13590303    -0.17915208     0             -0.067076786   -0.33337053   
    800500   0.13738058    -0.17900742     0             -0.065713637    0.1123917    
    801000   0.13916774    -0.17892788     0             -0.064160275    0.42377831   
    801500   0.14133703    -0.17211838     0             -0.055561821   -0.48083007   
    802000   0.12912762    -0.17656934     0             -0.070081522   -0.006842377  
    802500   0.13302227    -0.17105313     0             -0.06135352    -0.085531326  
    803000   0.15661375    -0.17558248     0             -0.046427652    0.19763831   
    803500   0.13336886    -0.17481446     0             -0.064829017   -0.0073139264 
    804000   0.1345728     -0.17326973     0             -0.062291443    0.24099993   
    804500   0.11004056    -0.17877875     0             -0.088031482    0.55822199   
    805000   0.14946862    -0.1779182      0             -0.054655756    0.051462439  
    805500   0.12121582    -0.17888718     0             -0.078924005   -0.16341764   
    806000   0.11021479    -0.18676044     0             -0.095869496    0.057005857  
    806500   0.10948025    -0.18881312     0             -0.098527935    0.13299542   
    807000   0.13756419    -0.19279974     0             -0.079354534   -0.15029675   
    807500   0.121667      -0.19162968     0             -0.09129442    -0.26842849   
    808000   0.11973964    -0.19391741     0             -0.095171595    0.018942332  
    808500   0.1284577     -0.18264506     0             -0.076709712   -0.0099063069 
    809000   0.12378533    -0.18836639     0             -0.08628421    -0.18632302   
    809500   0.15670086    -0.18847732     0             -0.059250657    0.19937766   
    810000   0.17735095    -0.1755268      0             -0.029270606    0.17179301   
    810500   0.150736      -0.18130442     0             -0.056996803    0.35669645   
    811000   0.1634624     -0.17660283     0             -0.04180012    -0.40198861   
    811500   0.14429679    -0.17814501     0             -0.05914763    -0.059669686  
    812000   0.14584476    -0.17909468     0             -0.058820727    0.16574182   
    812500   0.14820415    -0.1805223      0             -0.058302625   -0.020666094  
    813000   0.12391295    -0.17955535     0             -0.077367929   -0.5190016    
    813500   0.11266656    -0.18376728     0             -0.090854431   -0.1517648    
    814000   0.1349822     -0.18447127     0             -0.073155359    0.083953899  
    814500   0.12662597    -0.18080578     0             -0.076381009   -0.093995545  
    815000   0.15965684    -0.18141901     0             -0.049754637   -0.079282848  
    815500   0.18816449    -0.18517665     0             -0.030002845    0.41561494   
    816000   0.17310184    -0.17402904     0             -0.031276962    0.059438061  
    816500   0.12290854    -0.18197436     0             -0.080615246   -0.2811722    
    817000   0.11564102    -0.18530043     0             -0.089934626   -0.99761746   
    817500   0.11290195    -0.18902439     0             -0.095917419    0.52727197   
    818000   0.13552606    -0.19010579     0             -0.078341377   -0.25996857   
    818500   0.15161116    -0.17804386     0             -0.053014532    0.3928125    
    819000   0.14887903    -0.17818121     0             -0.055404988   -0.14181058   
    819500   0.14542734    -0.18494337     0             -0.06501365     0.085523681  
    820000   0.19098845    -0.17889132     0             -0.02138868    -0.27634069   
    820500   0.18594365    -0.17680714     0             -0.023464788    0.18858065   
    821000   0.14715878    -0.17631906     0             -0.054961472    0.38578202   
    821500   0.17266904    -0.16976043     0             -0.027365267    0.072249651  
    822000   0.14505464    -0.17922227     0             -0.059599901    0.032185579  
    822500   0.1516271     -0.18292688     0             -0.057884404   -0.047604523  
    823000   0.16156959    -0.17991087     0             -0.046669101   -0.058674371  
    823500   0.20924921    -0.17237538     0              0.00018638613  0.1246022    
    824000   0.19499245    -0.167273       0             -0.0064683699  -0.14234221   
    824500   0.15652997    -0.16778011     0             -0.038694373    0.027638578  
    825000   0.11520783    -0.17257274     0             -0.077564181    0.25486285   
    825500   0.14463207    -0.17626144     0             -0.056987551   -0.21429904   
    826000   0.13314873    -0.1795669      0             -0.069762994    0.20511135   
    826500   0.13729739    -0.17730132     0             -0.064076132   -0.28366847   
    827000   0.13668873    -0.18573672     0             -0.073013481   -0.063277902  
    827500   0.13666504    -0.18272625     0             -0.070022546   -0.74590186   
    828000   0.1590356     -0.17283916     0             -0.041687101    0.24236688   
    828500   0.15631129    -0.1752474      0             -0.046342006    0.40615626   
    829000   0.14972223    -0.17311594     0             -0.049644349   -0.19527673   
    829500   0.15551753    -0.16857665     0             -0.040325851   -0.50536332   
    830000   0.17323046    -0.17710531     0             -0.034247163    0.11689864   
    830500   0.1507129     -0.17448597     0             -0.050197403    0.013534147  
    831000   0.15062917    -0.17561044     0             -0.051390923   -0.092539496  
    831500   0.15590736    -0.16883234     0             -0.040260046   -0.42457755   
    832000   0.13998199    -0.16736104     0             -0.051921947   -0.0096600263 
    832500   0.14394987    -0.17302064     0             -0.054309344    0.85168742   
    833000   0.13320988    -0.17996234     0             -0.070108004    0.21868308   
    833500   0.17815685    -0.17712418     0             -0.030203385    0.15248295   
    834000   0.16464517    -0.17335376     0             -0.037575657    0.36899858   
    834500   0.16231194    -0.17868052     0             -0.044826557    0.22182179   
    835000   0.22571512    -0.17838698     0              0.0077537417  -0.29350416   
    835500   0.17643233    -0.17239304     0             -0.026894405   -0.32606277   
    836000   0.17951096    -0.17629424     0             -0.028256754    0.2951095    
    836500   0.15538381    -0.16908431     0             -0.040943781   -0.050464441  
    837000   0.16665929    -0.16975645     0             -0.032317356   -0.15799453   
    837500   0.15304801    -0.17827397     0             -0.052059705   -0.57407167   
    838000   0.18446241    -0.17561934     0             -0.023498535    0.6534308    
    838500   0.14267187    -0.17745069     0             -0.059793325    0.49824199   
    839000   0.14639762    -0.16409496     0             -0.043365077   -0.23912763   
    839500   0.17209437    -0.16967219     0             -0.027750939   -0.3878554    
    840000   0.17877117    -0.16186492     0             -0.014437508   -0.039889184  
    840500   0.16297361    -0.17204151     0             -0.037641888    0.053870688  
    841000   0.18800342    -0.16521676     0             -0.010175781    0.26114847   
    841500   0.15426037    -0.16143508     0             -0.034221022   -0.25089827   
    842000   0.12366064    -0.17169336     0             -0.069714008    0.36287031   
    842500   0.11497591    -0.16893217     0             -0.074114869    0.058029362  
    843000   0.11441951    -0.17127456     0             -0.076916105   -0.28745628   
    843500   0.1607134     -0.17396441     0             -0.041428721   -0.39467467   
    844000   0.15039507    -0.16816863     0             -0.044142169    0.37531564   
    844500   0.1700379     -0.17738404     0             -0.037158705    0.17706947   
    845000   0.1472199     -0.17528346     0             -0.053875473    0.17020071   
    845500   0.14406226    -0.17502946     0             -0.056225478   -0.0389994    
    846000   0.1320248     -0.17428142     0             -0.06540439    -0.33201373   
    846500   0.17390773    -0.17484887     0             -0.031432201   -0.5808517    
    847000   0.14011775    -0.17557701     0             -0.060025959    0.084544321  
    847500   0.18641479    -0.17878606     0             -0.025055179   -0.24012819   
    848000   0.20628391    -0.17668143     0             -0.0065650639   0.21313402   
    848500   0.18783296    -0.1759692      0             -0.021068799   -0.031617873  
    849000   0.18088563    -0.16883936     0             -0.019668217   -0.30396784   
    849500   0.16331718    -0.16984215     0             -0.035159192    0.020657656  
    850000   0.18089007    -0.16444156     0             -0.015266756    0.18551855   
    850500   0.17196986    -0.16239061     0             -0.020572052   -0.38482811   
    851000   0.15784697    -0.16360726     0             -0.033435429   -0.12844437   
    851500   0.13598473    -0.16412501     0             -0.051982346   -0.33693704   
    852000   0.13698823    -0.17803378     0             -0.065063553   -0.013186792  
    852500   0.13189474    -0.17028995     0             -0.061520176    0.22405818   
    853000   0.15074328    -0.16362548     0             -0.039311857   -0.27121723   
    853500   0.14984387    -0.16877767     0             -0.045205775   -0.0049234828 
    854000   0.15037049    -0.1652209      0             -0.041214708   -0.027124613  
    854500   0.16980901    -0.16926184     0             -0.029225266    0.34808217   
    855000   0.12630911    -0.17168407     0             -0.067520604    0.36629099   
    855500   0.1788372     -0.17628593     0             -0.02880407    -0.030566579  
    856000   0.20149077    -0.1659323      0              0.00023130766 -0.51283181   
    856500   0.15603981    -0.17048454     0             -0.041803029    0.063934263  
    857000   0.17213019    -0.17178491     0             -0.029834127   -0.069338038  
    857500   0.2034292     -0.17989516     0             -0.012132983    0.59074813   
    858000   0.14715832    -0.1779689      0             -0.056611697    0.19075873   
    858500   0.14266061    -0.17926973     0             -0.061621655   -0.0041223395 
    859000   0.15373126    -0.17570389     0             -0.048926168    0.058488672  
    859500   0.16527978    -0.17647762     0             -0.040176165    0.077215748  
    860000   0.19627058    -0.17625333     0             -0.014394658   -0.11477715   
    860500   0.20248264    -0.17557884     0             -0.0085972718   0.030481094  
    861000   0.21373828    -0.17337273     0              0.0028910469  -0.045183654  
    861500   0.18211614    -0.1706489      0             -0.020462994    0.20122348   
    862000   0.16722608    -0.16759724     0             -0.029690733    0.055338758  
    862500   0.18089157    -0.16973701     0             -0.020560964   -0.11792215   
    863000   0.14926858    -0.16564267     0             -0.042545194    0.61738227   
    863500   0.15272013    -0.1766858      0             -0.050741931    0.28198193   
    864000   0.15855349    -0.17221603     0             -0.041461557    0.54429159   
    864500   0.161778      -0.17202448     0             -0.038610853    0.034149708  
    865000   0.14382321    -0.17300498     0             -0.054398135   -0.045708614  
    865500   0.17896548    -0.17989394     0             -0.03230629    -0.16621504   
    866000   0.16305598    -0.17282872     0             -0.038361181   -0.040776044  
    866500   0.18572149    -0.16037552     0             -0.0072163875  -0.049207026  
    867000   0.18191773    -0.16682738     0             -0.01680509    -0.096909632  
    867500   0.15842577    -0.17084707     0             -0.040197925   -0.00049951911
    868000   0.16135096    -0.17187489     0             -0.038813421    0.15167546   
    868500   0.24796769    -0.16648569     0              0.03800609     0.28411103   
    869000   0.16078938    -0.17209671     0             -0.039498364   -0.22976077   
    869500   0.18710652    -0.16389077     0             -0.0095894404   0.2743725    
    870000   0.17665685    -0.1666177      0             -0.020933909    0.15258355   
    870500   0.18016103    -0.16889061     0             -0.020317027   -0.24149096   
    871000   0.16397212    -0.16761963     0             -0.032396566   -0.23843859   
    871500   0.1959857     -0.1649511      0             -0.0033273695  -0.27226098   
    872000   0.16102973    -0.168122       0             -0.035325443    0.13149672   
    872500   0.15493491    -0.16864559     0             -0.040875257    0.0097090876 
    873000   0.19987397    -0.15837326     0              0.0064570197   0.022474129  
    873500   0.17628104    -0.1662         0             -0.020826129   -0.14130843   
    874000   0.16079569    -0.17322674     0             -0.040623185   -0.6867746    
    874500   0.15483417    -0.1643119      0             -0.036624638    0.22154574   
    875000   0.16745552    -0.16985297     0             -0.031757248    0.33966137   
    875500   0.15597117    -0.17355041     0             -0.044925506    0.1497884    
    876000   0.14470774    -0.176761       0             -0.057424721    0.22111651   
    876500   0.20394998    -0.17157549     0             -0.0033838486   0.38063897   
    877000   0.16658715    -0.16250405     0             -0.025124445    0.15660872   
    877500   0.13386307    -0.16557289     0             -0.055179885   -0.10605253   
    878000   0.11187401    -0.1736623      0             -0.081403043    0.33650512   
    878500   0.12147759    -0.17385046     0             -0.073671408   -0.10448191   
    879000   0.16026224    -0.17211483     0             -0.0399512     -0.13355552   
    879500   0.16114619    -0.17404897     0             -0.041156366   -0.23083262   
    880000   0.15664492    -0.17298529     0             -0.043804758    0.36029835   
    880500   0.17563906    -0.17388698     0             -0.029042527    0.12853666   
    881000   0.16287059    -0.16395964     0             -0.029644976    0.19761011   
    881500   0.15018331    -0.16613013     0             -0.042278301   -0.12624347   
    882000   0.16061589    -0.16893013     0             -0.036474848    0.019429621  
    882500   0.18805089    -0.16629196     0             -0.011211839    0.41326054   
    883000   0.19756058    -0.1647765      0             -0.0018540083   0.058177793  
    883500   0.16088919    -0.16891491     0             -0.036234252    0.25932863   
    884000   0.11979438    -0.17388832     0             -0.075097363    0.088464522  
    884500   0.13129697    -0.17466193     0             -0.066385122    0.13183629   
    885000   0.14680952    -0.17511546     0             -0.054045906    0.020262489  
    885500   0.16859664    -0.17158539     0             -0.032548616    0.16554329   
    886000   0.15495753    -0.17238113     0             -0.044592142   -0.12068236   
    886500   0.16371836    -0.17357892     0             -0.038565133    0.59958543   
    887000   0.18187755    -0.16980342     0             -0.019814264    0.33986937   
    887500   0.22162629    -0.16320465     0              0.019564138    0.39138711   
    888000   0.17254294    -0.17112248     0             -0.028831314   -0.042003449  
    888500   0.20793706    -0.16533688     0              0.0061427961  -1.3443104    
    889000   0.16202545    -0.16768537     0             -0.034067664    0.18096804   
    889500   0.13651661    -0.17172385     0             -0.059142551    0.025293861  
    890000   0.13772142    -0.17535912     0             -0.061784251   -0.13506811   
    890500   0.12798477    -0.17919866     0             -0.073653331    0.81395972   
    891000   0.14114434    -0.1828628      0             -0.066465151   -0.24684853   
    891500   0.19890986    -0.17977456     0             -0.015739357    0.14276521   
    892000   0.16741874    -0.17350953     0             -0.035444138   -0.30922673   
    892500   0.14325545    -0.17692177     0             -0.058783149    0.47373701   
    893000   0.15607864    -0.17380483     0             -0.045091287   -0.28852621   
    893500   0.14347423    -0.17761385     0             -0.059294808    0.016131821  
    894000   0.19943513    -0.17368072     0             -0.0092123428  -0.035745742  
    894500   0.19132993    -0.1715124      0             -0.013728142    0.22543066   
    895000   0.16464206    -0.17225815     0             -0.036482611   -0.1048034    
    895500   0.12756261    -0.18224532     0             -0.077048123    0.40042661   
    896000   0.11577811    -0.18526545     0             -0.089786597    0.1365424    
    896500   0.15539439    -0.17859054     0             -0.050441281   -0.81620096   
    897000   0.1667854     -0.17650487     0             -0.038961779   -0.016694926  
    897500   0.16823802    -0.1697504      0             -0.031009371   -0.14363781   
    898000   0.16195164    -0.17266837     0             -0.039111538   -0.28522756   
    898500   0.16120149    -0.17583184     0             -0.042893639   -0.0096484628 
    899000   0.15051623    -0.16683589     0             -0.042709519    0.17614632   
    899500   0.12932719    -0.16722407     0             -0.060571674   -0.50242723   
    900000   0.14025221    -0.17969465     0             -0.064032713    0.14625991   
    900500   0.13213578    -0.17696101     0             -0.067992461    0.10706256   
    901000   0.1727974     -0.18460577     0             -0.042104752   -0.32931536   
    901500   0.19091467    -0.17890792     0             -0.021466116   -0.0073557026 
    902000   0.17862151    -0.17571417     0             -0.028410185   -0.27968306   
    902500   0.13332801    -0.17330946     0             -0.063357708   -0.3115129    
    903000   0.17033097    -0.17641389     0             -0.035946866    0.32597805   
    903500   0.19155775    -0.17088213     0             -0.01291        0.71146768   
    904000   0.14332984    -0.17476786     0             -0.056567887   -0.32527291   
    904500   0.13554303    -0.17775138     0             -0.065972967   -0.39280159   
    905000   0.13585168    -0.18246711     0             -0.070434161    0.30411389   
    905500   0.13768963    -0.17751716     0             -0.063968513   -0.39821449   
    906000   0.16064485    -0.1764077      0             -0.043928548   -0.20260535   
    906500   0.13662942    -0.18301242     0             -0.0703381     -0.043072847  
    907000   0.14195834    -0.18355334     0             -0.066484405    0.29906217   
    907500   0.17605869    -0.17970984     0             -0.034519337    0.26119169   
    908000   0.15968012    -0.17746849     0             -0.045784914   -0.20354431   
    908500   0.13764507    -0.1773869      0             -0.063874991   -0.2335373    
    909000   0.1228075     -0.18173395     0             -0.080458158    0.6161593    
    909500   0.12335978    -0.18023583     0             -0.078504596   -0.2769605    
    910000   0.14284868    -0.18502673     0             -0.067223559   -0.69188744   
    910500   0.18823143    -0.1775351      0             -0.022306088   -0.019744944  
    911000   0.15980862    -0.18365409     0             -0.051864552   -0.027433538  
    911500   0.16534306    -0.18653042     0             -0.050176779   -0.075883872  
    912000   0.15411317    -0.17831574     0             -0.05122307    -0.40022654   
    912500   0.14405915    -0.19414942     0             -0.075348002    0.14799533   
    913000   0.17915579    -0.18578977     0             -0.038045178   -0.66874636   
    913500   0.14009597    -0.19297007     0             -0.07743698     0.11929884   
    914000   0.18314177    -0.18529275     0             -0.034261032   -0.18663348   
    914500   0.14452752    -0.18720693     0             -0.068019264   -0.05989543   
    915000   0.15485716    -0.18457742     0             -0.05687121    -0.14066937   
    915500   0.16937245    -0.18537954     0             -0.04570298     0.18692308   
    916000   0.15878085    -0.17870092     0             -0.047758953    0.29160424   
    916500   0.20011307    -0.17817606     0             -0.013148604   -0.02836949   
    917000   0.14944604    -0.17267216     0             -0.049428338   -0.24964146   
    917500   0.12353069    -0.18120913     0             -0.079336947   -0.1577701    
    918000   0.15362772    -0.18325257     0             -0.056560231    0.092000173  
    918500   0.16249725    -0.18580638     0             -0.051799597   -1.193999     
    919000   0.14803254    -0.18528928     0             -0.063211127    0.071323379  
    919500   0.13814331    -0.1822155      0             -0.068292717    0.027366052  
    920000   0.15634788    -0.18619754     0             -0.057261972    0.13852922   
    920500   0.19391513    -0.18068598     0             -0.020769787   -0.0049977685 
    921000   0.18366217    -0.18387406     0             -0.032413184   -0.10084462   
    921500   0.18416722    -0.18282807     0             -0.030950698   -0.22266304   
    922000   0.1896605     -0.18414767     0             -0.027740147   -0.07470805   
    922500   0.16799592    -0.18767698     0             -0.049135609    0.14366528   
    923000   0.1826873     -0.18272626     0             -0.032069338   -0.025333125  
    923500   0.18115946    -0.17973825     0             -0.030341283   -0.39360981   
    924000   0.17328058    -0.17787778     0             -0.034978298    0.067716677  
    924500   0.15475508    -0.18422826     0             -0.056606224    0.082913293  
    925000   0.14447413    -0.17904224     0             -0.059898605    0.52669912   
    925500   0.15757812    -0.17909893     0             -0.04914881     0.16534984   
    926000   0.1221137     -0.18447635     0             -0.083772724    0.10836446   
    926500   0.17846868    -0.19099557     0             -0.043817612    0.11891599   
    927000   0.15060933    -0.18986313     0             -0.065659975    0.31165331   
    927500   0.18100489    -0.18277463     0             -0.033505133    0.32379174   
    928000   0.18937156    -0.18373817     0             -0.027568931    0.12513572   
    928500   0.16075913    -0.18314309     0             -0.050569691    0.45952728   
    929000   0.18252516    -0.17894104     0             -0.028417824    0.079697194  
    929500   0.18767487    -0.17625362     0             -0.021483586   -0.4364869    
    930000   0.16105066    -0.17561678     0             -0.042802968   -0.30618873   
    930500   0.15874987    -0.1675166      0             -0.036600181    0.36834575   
    931000   0.16151595    -0.17258205     0             -0.039384518   -0.11388517   
    931500   0.15124963    -0.18195297     0             -0.057221777    0.077340791  
    932000   0.14448602    -0.18186224     0             -0.062708803   -0.24188392   
    932500   0.16188982    -0.17560549     0             -0.04209964    -0.19778081   
    933000   0.1676947     -0.1785325      0             -0.040239541    0.22233035   
    933500   0.17165046    -0.17929177     0             -0.037736602   -0.35665923   
    934000   0.16865819    -0.17241078     0             -0.033323257   -0.083263333  
    934500   0.164031      -0.1750867      0             -0.039815076    0.31451361   
    935000   0.18010182    -0.17560113     0             -0.027076369    0.29258957   
    935500   0.19094567    -0.17030866     0             -0.012841292   -0.12484474   
    936000   0.23005585    -0.17466494     0              0.015055458    0.40049885   
    936500   0.20698254    -0.1620312      0              0.0086613067  -0.054685046  
    937000   0.15431879    -0.16817355     0             -0.040911316   -0.18571677   
    937500   0.12916932    -0.16899493     0             -0.062472727    0.33457346   
    938000   0.1221061     -0.17688127     0             -0.076183902   -0.0096821279 
    938500   0.13837478    -0.1763577      0             -0.062244022   -0.20272478   
    939000   0.14806691    -0.17907672     0             -0.056970225    0.10782619   
    939500   0.14469596    -0.17944278     0             -0.060116207    0.57187329   
    940000   0.14215529    -0.17834873     0             -0.061117376   -0.070175617  
    940500   0.22225707    -0.17068276     0              0.012606213    0.18380922   
    941000   0.15883327    -0.17359727     0             -0.04261207     0.31253006   
    941500   0.15667896    -0.17476419     0             -0.04555558     0.067052907  
    942000   0.1709684     -0.17161286     0             -0.030620167    0.17268564   
    942500   0.16779057    -0.16939631     0             -0.031024284   -0.11882719   
    943000   0.16271144    -0.17333224     0             -0.039148826   -0.82155879   
    943500   0.14332865    -0.17543083     0             -0.057231843    0.052827792  
    944000   0.15588281    -0.17699148     0             -0.048439437    0.53386942   
    944500   0.13198417    -0.17833839     0             -0.06949487     0.1014963    
    945000   0.16642339    -0.17413052     0             -0.036885967   -0.45921361   
    945500   0.13706626    -0.17633948     0             -0.063304904    0.66187906   
    946000   0.2010649     -0.17308432     0             -0.0072719213  -0.43908084   
    946500   0.175229      -0.17314553     0             -0.02863925     0.088190823  
    947000   0.13992233    -0.17757559     0             -0.062185691    0.1926167    
    947500   0.14011097    -0.17769902     0             -0.062153552    0.18708264   
    948000   0.13483211    -0.17170812     0             -0.060515985   -0.25979615   
    948500   0.1168573     -0.18091317     0             -0.084544344   -0.41456214   
    949000   0.12115209    -0.18134316     0             -0.08143254     0.18016381   
    949500   0.1502384     -0.1805384      0             -0.056641144    0.060264492  
    950000   0.15889839    -0.17599888     0             -0.044959982    0.10438626   
    950500   0.11417668    -0.18558616     0             -0.091427957    0.29324271   
    951000   0.13650804    -0.18226022     0             -0.069685989   -0.05731485   
    951500   0.17992193    -0.17571321     0             -0.027336795   -0.3677956    
    952000   0.1639162     -0.1848015      0             -0.049624554   -0.35075691   
    952500   0.14473726    -0.18493985     0             -0.065579218   -0.00015074639
    953000   0.15522167    -0.18325542     0             -0.055248598   -0.51396243   
    953500   0.15266518    -0.18637697     0             -0.06047842     0.079520486  
    954000   0.15250014    -0.18021842     0             -0.054455976    0.45905058   
    954500   0.15635478    -0.18446701     0             -0.055525755    0.074360176  
    955000   0.17109137    -0.16471289     0             -0.023618784    0.1054765    
    955500   0.16285304    -0.16865789     0             -0.034357697   -0.22124465   
    956000   0.1508565     -0.16929387     0             -0.044886882   -0.12654688   
    956500   0.14423274    -0.17728227     0             -0.058337703    0.30563046   
    957000   0.16897251    -0.18248769     0             -0.043140956    0.13444653   
    957500   0.1818887     -0.18031368     0             -0.030315337    0.1662511    
    958000   0.18988492    -0.16494876     0             -0.0083561676   0.42011694   
    958500   0.15732056    -0.17652594     0             -0.046788222    0.3228901    
    959000   0.11603831    -0.17820443     0             -0.082510997   -0.68789344   
    959500   0.1647336     -0.17852575     0             -0.042674724    0.19039152   
    960000   0.15477625    -0.18646911     0             -0.058829621   -0.11280526   
    960500   0.13168022    -0.18235098     0             -0.073758107   -0.2922521    
    961000   0.12962436    -0.18186624     0             -0.074968781    0.32800273   
    961500   0.15575315    -0.17981314     0             -0.051368028   -0.2308314    
    962000   0.16512249    -0.17781194     0             -0.041640198    0.063551565  
    962500   0.14607683    -0.17671828     0             -0.056252943    0.26562414   
    963000   0.18152636    -0.18417153     0             -0.034471993    0.060650441  
    963500   0.14756522    -0.18623997     0             -0.0645472      0.17474028   
    964000   0.14012309    -0.18330437     0             -0.067748911   -0.095103132  
    964500   0.14535513    -0.18752138     0             -0.06765121     0.65888917   
    965000   0.14080632    -0.18348708     0             -0.067368184    0.26179839   
    965500   0.14911869    -0.17809923     0             -0.055125364    0.32232706   
    966000   0.16265614    -0.17987619     0             -0.045738379   -0.043060456  
    966500   0.13752797    -0.18414127     0             -0.070725935   -0.20291769   
    967000   0.15192392    -0.17993074     0             -0.054643484    0.022004228  
    967500   0.17085401    -0.16768116     0             -0.026782802    0.07655063   
    968000   0.17724876    -0.17643582     0             -0.030263901    0.017793211  
    968500   0.15836068    -0.177484       0             -0.046888525   -0.093441025  
    969000   0.13657544    -0.18270048     0             -0.070070669   -0.023183461  
    969500   0.13512015    -0.18266615     0             -0.071236475   -0.43432203   
    970000   0.15779283    -0.18155183     0             -0.051424649    0.20836978   
    970500   0.13083472    -0.18823564     0             -0.080340035    0.12837978   
    971000   0.15762997    -0.1774054      0             -0.047412528    0.072407092  
    971500   0.17693982    -0.17704922     0             -0.03113208    -0.26293805   
    972000   0.15469458    -0.18236476     0             -0.054792624    0.023810769  
    972500   0.18623005    -0.18518653     0             -0.031608004    0.51794164   
    973000   0.21778832    -0.172896       0              0.0067077213   0.29061769   
    973500   0.1974278     -0.17777457     0             -0.014961577   -0.0033720577 
    974000   0.1695253     -0.18224496     0             -0.042442352    0.46389073   
    974500   0.17402637    -0.18181598     0             -0.038301474   -0.043727636  
    975000   0.17170974    -0.18821842     0             -0.046614373   -0.41998537   
    975500   0.17887914    -0.17587973     0             -0.028363282    0.061656563  
    976000   0.12800411    -0.18519519     0             -0.079633902    0.36268051   
    976500   0.12658052    -0.18630026     0             -0.08191297    -0.17785386   
    977000   0.13769922    -0.18031305     0             -0.066756493   -0.22056617   
    977500   0.13890378    -0.17744032     0             -0.062890393   -0.27322444   
    978000   0.1937545     -0.17356038     0             -0.013776653    0.17150635   
    978500   0.19720493    -0.170292       0             -0.0076628023  -0.064617284  
    979000   0.174904      -0.17437658     0             -0.030138315    0.28765702   
    979500   0.17405123    -0.1779701      0             -0.034435086   -0.20867021   
    980000   0.12085457    -0.17427857     0             -0.074613311    0.80871257   
    980500   0.14084214    -0.18025114     0             -0.064102699    0.0058042913 
    981000   0.20504348    -0.16961982     0             -0.00052639532  0.41575919   
    981500   0.22982498    -0.16915567     0              0.020374334   -0.28139873   
    982000   0.17982948    -0.16724783     0             -0.018947669   -0.19791682   
    982500   0.19491957    -0.17051162     0             -0.0097670925  -0.31356021   
    983000   0.18119828    -0.16461249     0             -0.015183521   -0.076703872  
    983500   0.20754597    -0.16786457     0              0.0032925818  -0.018743172  
    984000   0.18747861    -0.16957271     0             -0.014964526   -0.1229183    
    984500   0.16718913    -0.17689947     0             -0.039023438   -0.47123145   
    985000   0.19806589    -0.17002152     0             -0.0066823093  -0.25526707   
    985500   0.22781655    -0.16664398     0              0.021229737   -0.37448375   
    986000   0.2150518     -0.16260415     0              0.014742845    0.284871     
    986500   0.19095686    -0.16515468     0             -0.0076780795   0.25926837   
    987000   0.18729926    -0.16633402     0             -0.011873738   -0.22022992   
    987500   0.18809128    -0.16150704     0             -0.0063936026  -0.11225745   
    988000   0.15367588    -0.17486637     0             -0.048134323    0.22519451   
    988500   0.1182972     -0.17741953     0             -0.079863258    0.47391728   
    989000   0.12612229    -0.18301082     0             -0.079001422   -0.064286574  
    989500   0.16324089    -0.17843095     0             -0.043810918   -0.02606598   
    990000   0.15021743    -0.17826044     0             -0.054380476   -0.033129564  
    990500   0.20475057    -0.17754001     0             -0.0086881458  -0.40484397   
    991000   0.17731852    -0.18104679     0             -0.034817344    0.083064939  
    991500   0.18336859    -0.17985313     0             -0.028634357   -0.29926996   
    992000   0.18298222    -0.17372825     0             -0.022828108   -0.51297978   
    992500   0.16551307    -0.17474811     0             -0.03825427    -0.41223926   
    993000   0.19338893    -0.17109456     0             -0.011612307    0.045738857  
    993500   0.18883342    -0.17649186     0             -0.020766403   -0.27931937   
    994000   0.17746124    -0.17913332     0             -0.032786167    0.31895063   
    994500   0.16590124    -0.17139808     0             -0.034584127    0.37264625   
    995000   0.16736228    -0.17765603     0             -0.039637202    0.023250127  
    995500   0.15655171    -0.18177856     0             -0.052674893   -0.21598028   
    996000   0.18979563    -0.18463919     0             -0.02812023    -0.075490647  
    996500   0.19533897    -0.17422657     0             -0.013136175    0.27132486   
    997000   0.17857651    -0.18036311     0             -0.033096228   -0.56095869   
    997500   0.19324811    -0.17214406     0             -0.01277794    -0.39079823   
    998000   0.13656352    -0.17638689     0             -0.063766913    0.21030023   
    998500   0.17130279    -0.18081074     0             -0.039542285    1.2578       
    999000   0.16046388    -0.19080515     0             -0.058475234   -0.30778117   
    999500   0.16869798    -0.17801578     0             -0.038895434    0.21337504   
   1000000   0.15351007    -0.18537205     0             -0.058776742    0.14332916   
   1000001   0.15328456    -0.18578385     0             -0.059374509    0.25838042   
Loop time of 160.289 on 8 procs for 1000000 steps with 1520 atoms

Performance: 539024.704 tau/day, 6238.712 timesteps/s, 9.483 Matom-step/s
90.7% CPU use with 8 MPI tasks x 1 OpenMP threads

MPI task timing breakdown:
Section |  min time  |  avg time  |  max time  |%varavg| %total
---------------------------------------------------------------
Pair    | 14.01      | 14.366     | 14.84      |   7.1 |  8.96
Bond    | 0.06624    | 0.07179    | 0.077158   |   1.2 |  0.04
Neigh   | 3.487      | 3.4883     | 3.4894     |   0.0 |  2.18
Comm    | 24.712     | 25.051     | 25.668     |   6.0 | 15.63
Output  | 0.61102    | 0.68446    | 0.76052    |   5.7 |  0.43
Modify  | 110.6      | 111.27     | 111.75     |   4.1 | 69.42
Other   |            | 5.358      |            |       |  3.34

Nlocal:            190 ave         217 max         155 min
Histogram: 1 0 1 0 0 2 2 1 0 1
Nghost:        658.125 ave         701 max         635 min
Histogram: 1 1 4 0 0 0 0 1 0 1
Neighs:              0 ave           0 max           0 min
Histogram: 8 0 0 0 0 0 0 0 0 0

Total # of neighbors = 0
Ave neighs/atom = 0
Ave special neighs/atom = 2.0657895
Neighbor list builds = 6497
Dangerous builds = 0

unfix ThermoLng

# Now we let the system to create the polymeric network
fix ThermoLng all langevin ${temp} ${temp} ${damp} 12345 # Brownian Dynamics: langevin + nve
fix ThermoLng all langevin 0.05 ${temp} ${damp} 12345 
fix ThermoLng all langevin 0.05 0.05 ${damp} 12345 
fix ThermoLng all langevin 0.05 0.05 1 12345 
run ${steps}
run 1000000
WARNING: Using a manybody potential with bonds/angles/dihedrals and special_bond exclusions (src/pair.cpp:243)
Hybrid pair style last /omp style sw/omp
Last active /omp style is pair_style sw/omp
WARNING: More than one fix rigid command (src/RIGID/fix_rigid_small.cpp:529)
WARNING: More than one fix rigid command (src/RIGID/fix_rigid_small.cpp:529)
WARNING: One or more atoms are time integrated more than once (src/modify.cpp:296)
WARNING: Computing temperature of portions of rigid bodies (src/RIGID/fix_rigid_small.cpp:1178)
WARNING: Computing temperature of portions of rigid bodies (src/RIGID/fix_rigid_small.cpp:1178)
Per MPI rank memory allocation (min/avg/max) = 21.19 | 21.19 | 21.2 Mbytes
   Step          Temp          E_pair         E_mol          TotEng         Press     
   1000001   0.15326154    -0.18578385     0             -0.059393489   -0.029186871  
   1000500   0.12410163    -0.19067158     0             -0.088328563    0.21512362   
   1001000   0.13912096    -0.19606295     0             -0.081333923   -0.12363968   
   1001500   0.15639966    -0.19504474     0             -0.066066468    0.43411005   
   1002000   0.14487958    -0.19304396     0             -0.073565962   -0.12780666   
   1002500   0.12760715    -0.19872617     0             -0.093492247    0.095589328  
   1003000   0.16998561    -0.18686169     0             -0.046679482   -0.09843716   
   1003500   0.1674266     -0.19034234     0             -0.052270467    0.0055832953 
   1004000   0.17612726    -0.18663544     0             -0.041388383   -0.17491916   
   1004500   0.15366506    -0.18803803     0             -0.061314905   -0.32832871   
   1005000   0.20616328    -0.17973414     0             -0.009717254    0.047054224  
   1005500   0.16896609    -0.1836012      0             -0.044259757    0.077096183  
   1006000   0.16349409    -0.18187344     0             -0.047044603   -0.20969193   
   1006500   0.16845684    -0.18426723     0             -0.045345751   -0.1058915    
   1007000   0.14720198    -0.17864431     0             -0.057251095    0.076829842  
   1007500   0.16497085    -0.17953205     0             -0.043485372    0.0018419968 
   1008000   0.15839604    -0.18600183     0             -0.055377201    0.58624887   
   1008500   0.13241146    -0.18400667     0             -0.074810772    0.34626297   
   1009000   0.13791512    -0.18546774     0             -0.07173313    -0.051840437  
   1009500   0.18838653    -0.18385078     0             -0.028493856   -0.36923492   
   1010000   0.14895836    -0.18517413     0             -0.062332483    0.29775638   
   1010500   0.16765161    -0.1843456      0             -0.046088163    0.47665799   
   1011000   0.14716201    -0.18743079     0             -0.066070538   -0.045442912  
   1011500   0.17283326    -0.17930128     0             -0.036770685    0.53122814   
   1012000   0.15879128    -0.17673524     0             -0.045784664    0.38197165   
   1012500   0.15377542    -0.18049522     0             -0.053681086    0.1788047    
   1013000   0.16173111    -0.17525336     0             -0.041878397   -0.41484167   
   1013500   0.16686959    -0.17399573     0             -0.036383207   -0.08004245   
   1014000   0.15986053    -0.17417921     0             -0.042346862    0.030032917  
   1014500   0.15928759    -0.18002671     0             -0.048666844    0.51766487   
   1015000   0.17175954    -0.17876309     0             -0.037117973   -0.1198201    
   1015500   0.19245039    -0.18206148     0             -0.023353219    0.29712447   
   1016000   0.17193931    -0.17813063     0             -0.036337264    0.15419604   
   1016500   0.13497804    -0.18047285     0             -0.069160367   -0.010128221  
   1017000   0.16916747    -0.17669395     0             -0.037186437   -0.42415296   
   1017500   0.238008      -0.17861658     0              0.017661732    0.87754298   
   1018000   0.20995413    -0.17902784     0             -0.0058847526   0.11181592   
   1018500   0.19116492    -0.17353163     0             -0.015883454    0.15205613   
   1019000   0.23511767    -0.16593658     0              0.027958162   -0.18967385   
   1019500   0.15523928    -0.16931414     0             -0.041292805    0.13684956   
   1020000   0.16660297    -0.1733383      0             -0.03594565    -0.00029722552
   1020500   0.14944751    -0.1723857      0             -0.049140663    0.20097038   
   1021000   0.15493281    -0.17285775     0             -0.045089142   -0.33761629   
   1021500   0.1434407     -0.17530544     0             -0.057014053    0.81383635   
   1022000   0.16630748    -0.17534929     0             -0.038200329    0.54946439   
   1022500   0.16048888    -0.17549152     0             -0.043140986   -0.0072438377 
   1023000   0.13399179    -0.18144701     0             -0.070947859   -0.22959271   
   1023500   0.14419094    -0.18673467     0             -0.067824575   -0.00084810429
   1024000   0.18775614    -0.17759583     0             -0.022758775   -0.40125449   
   1024500   0.20766795    -0.18315092     0             -0.011893169    0.018655206  
   1025000   0.17736228    -0.17684004     0             -0.030574498   -0.49648684   
   1025500   0.18401738    -0.1686201      0             -0.016866295   -0.94156327   
   1026000   0.18273418    -0.16939349     0             -0.018697902   -0.2647799    
   1026500   0.20037727    -0.16612157     0             -0.000876243    0.99639007   
   1027000   0.16747354    -0.17128202     0             -0.033171437   -0.2603695    
   1027500   0.15801294    -0.16947582     0             -0.039167126   -0.30835929   
   1028000   0.14761605    -0.1813441      0             -0.059609416    0.24718508   
   1028500   0.13997392    -0.1846968      0             -0.069264359    0.23024329   
   1029000   0.14705795    -0.17914171     0             -0.057867276   -0.17726052   
   1029500   0.16792333    -0.17569891     0             -0.037217398   -0.052058577  
   1030000   0.16504732    -0.18147739     0             -0.045367646    0.19203806   
   1030500   0.21642397    -0.1702166      0              0.0082619835  -0.026556699  
   1031000   0.16700576    -0.18177571     0             -0.044050886   -0.082736776  
   1031500   0.15349002    -0.18590965     0             -0.059330867   -0.17919388   
   1032000   0.17996403    -0.18851056     0             -0.040099439    0.069152127  
   1032500   0.1944276     -0.18026135     0             -0.019922535   -0.16866967   
   1033000   0.15640217    -0.18023957     0             -0.051259233   -0.14918824   
   1033500   0.15269026    -0.17823703     0             -0.05231779    -0.11047855   
   1034000   0.19049431    -0.18533588     0             -0.028240732   -0.38310832   
   1034500   0.19245959    -0.18743988     0             -0.028724023    0.62734544   
   1035000   0.17528514    -0.17886127     0             -0.034308689   -0.12333351   
   1035500   0.19874997    -0.18208032     0             -0.018176979    0.34448998   
   1036000   0.18806628    -0.18328413     0             -0.028191309    0.63295911   
   1036500   0.18672566    -0.17901919     0             -0.025031941    0.213608     
   1037000   0.15477646    -0.18150916     0             -0.053869494    0.2027797    
   1037500   0.18652832    -0.17359576     0             -0.019771257   -0.15521163   
   1038000   0.23310041    -0.1732952      0              0.018935963   -0.78925541   
   1038500   0.17643519    -0.17428923     0             -0.02878824    -0.70899999   
   1039000   0.15986607    -0.17315215     0             -0.041315231   -0.29111352   
   1039500   0.12229487    -0.18017236     0             -0.079319323    0.3348952    
   1040000   0.13001114    -0.18057999     0             -0.073363568    0.1022231    
   1040500   0.15542683    -0.18451302     0             -0.056337014   -0.45992691   
   1041000   0.2074375     -0.18453676     0             -0.013469059    0.034427074  
   1041500   0.18441511    -0.18271007     0             -0.030628269   -0.34979948   
   1042000   0.14986581    -0.17935628     0             -0.055766288   -0.17778364   
   1042500   0.17492089    -0.1829525      0             -0.038700301   -0.78014542   
   1043000   0.16843109    -0.18348796     0             -0.044587711   -0.046259668  
   1043500   0.17478435    -0.18093586     0             -0.03679627     0.079491065  
   1044000   0.16997202    -0.18334968     0             -0.043178677   -0.53115621   
   1044500   0.1894012     -0.18378617     0             -0.027592488    0.23404666   
   1045000   0.16968746    -0.18244493     0             -0.042508602   -0.16108789   
   1045500   0.21067037    -0.17492132     0             -0.0011875645  -0.17235641   
   1046000   0.199105      -0.16892395     0             -0.0047278176   0.178262     
   1046500   0.17451871    -0.17185774     0             -0.027937221   -0.12682783   
   1047000   0.18003268    -0.17216136     0             -0.023693622   -0.21966747   
   1047500   0.15089512    -0.17913277     0             -0.054693936    0.03699299   
   1048000   0.17556975    -0.1754905      0             -0.030703209    0.38773942   
   1048500   0.18083556    -0.17589032     0             -0.026760469    0.32173966   
   1049000   0.1766044     -0.18003444     0             -0.034393905    0.23176205   
   1049500   0.14995359    -0.18201483     0             -0.058352446    0.14837526   
   1050000   0.13618478    -0.17181078     0             -0.059503135    0.36022467   
   1050500   0.16136643    -0.17782581     0             -0.044751583    0.093207226  
   1051000   0.1827867     -0.17836571     0             -0.027626804    0.0059083297 
   1051500   0.19739115    -0.17478694     0             -0.012004175    0.22672523   
   1052000   0.21099875    -0.17100501     0              0.0029995503   0.074408066  
   1052500   0.2255451     -0.16125022     0              0.024750302   -0.023963072  
   1053000   0.20523048    -0.16235894     0              0.0068886946  -0.52334725   
   1053500   0.17543156    -0.16623446     0             -0.021561132   -0.26333792   
   1054000   0.17816286    -0.1667848      0             -0.019859046   -0.3525114    
   1054500   0.21525445    -0.17018023     0              0.0073338904   0.096806137  
   1055000   0.17880737    -0.17472706     0             -0.027269794   -0.31623659   
   1055500   0.17325969    -0.1727437      0             -0.02986145    -0.42788788   
   1056000   0.16511414    -0.18220608     0             -0.04604123    -0.034136383  
   1056500   0.17049616    -0.17249589     0             -0.031892643    0.40581617   
   1057000   0.14518244    -0.17532688     0             -0.055599121   -0.46874413   
   1057500   0.17095865    -0.17996176     0             -0.038977112    0.20909922   
   1058000   0.17315784    -0.18180947     0             -0.039011207   -0.080035216  
   1058500   0.17004272    -0.17361505     0             -0.033385742    0.013933843  
   1059000   0.17199029    -0.17141687     0             -0.02958145    -0.53650883   
   1059500   0.12729333    -0.17462248     0             -0.069647357    0.5121508    
   1060000   0.12896916    -0.17924162     0             -0.072884492    0.17006955   
   1060500   0.13257802    -0.17639509     0             -0.06706183     0.011492736  
   1061000   0.15491576    -0.17766075     0             -0.049906203   -0.15130238   
   1061500   0.1503688     -0.18077715     0             -0.05677235    -0.32106314   
   1062000   0.12577135    -0.18147323     0             -0.077753245   -0.034887254  
   1062500   0.1523071     -0.17245075     0             -0.046847494   -0.70150405   
   1063000   0.13720474    -0.18424877     0             -0.07109999    -0.34082115   
   1063500   0.15392421    -0.18274099     0             -0.055804154    0.033797631  
   1064000   0.21762413    -0.17448332     0              0.004985003   -0.11123055   
   1064500   0.21070089    -0.1713347      0              0.0024242227  -0.15674261   
   1065000   0.19964006    -0.17008283     0             -0.0054454561  -0.37076049   
   1065500   0.15581483    -0.17753804     0             -0.049042063   -0.31536431   
   1066000   0.19535305    -0.16790945     0             -0.0068074481  -0.052481027  
   1066500   0.13933746    -0.17416681     0             -0.059259237    0.044485528  
   1067000   0.16464414    -0.17576883     0             -0.039991571   -0.24166724   
   1067500   0.17359156    -0.16750194     0             -0.024346006   -0.31873238   
   1068000   0.14956251    -0.17591801     0             -0.052578139    0.070287628  
   1068500   0.18731529    -0.17457506     0             -0.020101559   -0.10479516   
   1069000   0.19090695    -0.17005668     0             -0.012621249    0.097468446  
   1069500   0.1568278     -0.17476366     0             -0.045432317    0.057615465  
   1070000   0.16621365    -0.16916539     0             -0.032093811    0.10141553   
   1070500   0.17911509    -0.17427513     0             -0.026564102   -0.60462736   
   1071000   0.1728925     -0.1687882      0             -0.026208757   -0.24108174   
   1071500   0.15218224    -0.17253257     0             -0.04703228     0.34407497   
   1072000   0.15484952    -0.18150026     0             -0.053800341    0.090539259  
   1072500   0.14383312    -0.18462719     0             -0.066012182   -0.19996492   
   1073000   0.15780211    -0.17731063     0             -0.047175798    0.58587545   
   1073500   0.16663575    -0.17899839     0             -0.041578715    0.54781253   
   1074000   0.19547958    -0.17582755     0             -0.014621202    0.22825137   
   1074500   0.25452182    -0.16618579     0              0.043710981   -0.5441609    
   1075000   0.23917235    -0.1697828      0              0.027455717    0.32528198   
   1075500   0.21293727    -0.16851534     0              0.0070878627  -0.34261419   
   1076000   0.1857199     -0.16846314     0             -0.015305312   -0.17040002   
   1076500   0.17718462    -0.16934983     0             -0.023230806   -0.09904575   
   1077000   0.19530508    -0.16655099     0             -0.0054885449   0.4209658    
   1077500   0.173238      -0.16453254     0             -0.021668176   -0.69720957   
   1078000   0.15862666    -0.17539247     0             -0.044577651   -0.19670091   
   1078500   0.18469402    -0.17068368     0             -0.018371866    0.29822438   
   1079000   0.15463219    -0.17304509     0             -0.045524397    0.047091219  
   1079500   0.16694479    -0.17501711     0             -0.037342575   -0.11236795   
   1080000   0.17407569    -0.17888127     0             -0.035326083   -0.62558277   
   1080500   0.15462266    -0.18071579     0             -0.053202955   -0.1779765    
   1081000   0.14589525    -0.18303404     0             -0.062718447   -0.37592892   
   1081500   0.11875591    -0.18530287     0             -0.087368307    0.20477994   
   1082000   0.22577657    -0.1795873      0              0.0066041022  -0.11651575   
   1082500   0.18790522    -0.17284976     0             -0.017889763   -0.54796291   
   1083000   0.17759416    -0.17572811     0             -0.029271344    0.099881889  
   1083500   0.19700601    -0.17233489     0             -0.0098697372   0.29639622   
   1084000   0.1654165     -0.17083238     0             -0.034418176   -0.15463552   
   1084500   0.21909753    -0.16743703     0              0.013246366   -0.10605694   
   1085000   0.19394299    -0.17045463     0             -0.010515453   -0.1318825    
   1085500   0.16626826    -0.17547878     0             -0.038362161   -0.00175676   
   1086000   0.16490262    -0.17358637     0             -0.03759595    -0.11087514   
   1086500   0.16931382    -0.17449651     0             -0.03486831    -0.2011652    
   1087000   0.20912216    -0.1650717      0              0.0073852897  -0.24552615   
   1087500   0.22855816    -0.15599089     0              0.032494411   -0.18490543   
   1088000   0.20628386    -0.16440263     0              0.0057136937  -0.19683368   
   1088500   0.17878317    -0.16671561     0             -0.019278304   -0.23235527   
   1089000   0.15724565    -0.16595393     0             -0.036277989    0.12141525   
   1089500   0.15600095    -0.1740255      0             -0.045376037   -0.188169     
   1090000   0.1863442     -0.17186867     0             -0.018196003   -0.17155876   
   1090500   0.15403029    -0.17092012     0             -0.043895802    0.35067999   
   1091000   0.22708429    -0.17363923     0              0.013630611   -0.71456458   
   1091500   0.23077064    -0.16171696     0              0.028592912    0.18342307   
   1092000   0.24456846    -0.16246667     0              0.039221858   -0.32858263   
   1092500   0.21872575    -0.1594313      0              0.0209455      0.030967459  
   1093000   0.21408471    -0.1590495      0              0.017499965    0.1950929    
   1093500   0.18613987    -0.16264713     0             -0.009142967    0.20669767   
   1094000   0.14481038    -0.16429435     0             -0.04487342    -0.23731467   
   1094500   0.15284086    -0.16568587     0             -0.039642435    0.33957187   
   1095000   0.23856814    -0.16531475     0              0.031425483    0.20111223   
   1095500   0.17476196    -0.16344572     0             -0.01932459     0.19375665   
   1096000   0.19055132    -0.16198681     0             -0.0048446556  -0.08904892   
   1096500   0.21961751    -0.15854396     0              0.02256824     0.1331541    
   1097000   0.23212176    -0.15916514     0              0.032258953    0.12191087   
   1097500   0.21762378    -0.16243179     0              0.017036247   -0.10870497   
   1098000   0.19989425    -0.16985741     0             -0.0050104056  -0.22945075   
   1098500   0.19956275    -0.16964912     0             -0.0050754982  -0.65855972   
   1099000   0.18733741    -0.17193717     0             -0.017445429    0.24979248   
   1099500   0.16421528    -0.17224324     0             -0.036819647   -0.32821989   
   1100000   0.17053843    -0.17702249     0             -0.036384387   -0.040910656  
   1100500   0.15830888    -0.17603022     0             -0.04547747     0.15741459   
   1101000   0.14731656    -0.17826235     0             -0.05677465     0.2140202    
   1101500   0.1359971     -0.17709387     0             -0.064940991    0.012243561  
   1102000   0.16117944    -0.17903516     0             -0.046115137   -0.55586128   
   1102500   0.17944225    -0.16851097     0             -0.020530144   -0.049680222  
   1103000   0.17265115    -0.17793984     0             -0.035559433    0.17637789   
   1103500   0.1381892     -0.17586393     0             -0.061903299   -0.57865058   
   1104000   0.16961626    -0.1785471      0             -0.038669479    0.58977763   
   1104500   0.20092681    -0.16780591     0             -0.002107385    0.019110521  
   1105000   0.15277028    -0.16917524     0             -0.043190015   -0.037839365  
   1105500   0.16252019    -0.16833782     0             -0.034312129   -0.53445615   
   1106000   0.17856286    -0.16178002     0             -0.014524402   -0.063679883  
   1106500   0.16206305    -0.16992043     0             -0.036271725   -0.020690184  
   1107000   0.17483089    -0.16708447     0             -0.022906496    0.77142035   
   1107500   0.1477982     -0.18050433     0             -0.05861943     0.24635107   
   1108000   0.13341031    -0.1803445      0             -0.070324883    0.11229714   
   1108500   0.15369756    -0.17907667     0             -0.052326741   -0.11399751   
   1109000   0.12987055    -0.17772881     0             -0.070628327    0.21602712   
   1109500   0.13315306    -0.17996215     0             -0.070154679    0.0061670978 
   1110000   0.14086418    -0.18872707     0             -0.07256045    -0.36068501   
   1110500   0.1944225     -0.18023445     0             -0.019899841   -0.01922509   
   1111000   0.15505809    -0.17463543     0             -0.046763517   -0.41885438   
   1111500   0.12365663    -0.18815966     0             -0.086183614   -0.18296028   
   1112000   0.18693552    -0.182819       0             -0.02865869    -0.00081462109
   1112500   0.21044416    -0.17328968     0              0.00025752673  0.24597355   
   1113000   0.22351483    -0.17112032     0              0.01320589     0.38606725   
   1113500   0.20195209    -0.17014925     0             -0.0036052115   0.73044721   
   1114000   0.15710159    -0.17251251     0             -0.042955369    0.32202002   
   1114500   0.17020396    -0.17322778     0             -0.032865504    0.027862289  
   1115000   0.18400035    -0.17448559     0             -0.022745828   -0.078146389  
   1115500   0.1354197     -0.1715547      0             -0.059877988   -0.30529618   
   1116000   0.15603593    -0.17534526     0             -0.046666946   -0.51708581   
   1116500   0.1140933     -0.17342075     0             -0.079331306    0.41225065   
   1117000   0.11970832    -0.18563922     0             -0.08691924     0.34358249   
   1117500   0.15732383    -0.17995503     0             -0.050214627    0.36501041   
   1118000   0.1736551     -0.18138715     0             -0.038178819    0.013162993  
   1118500   0.17292082    -0.18049031     0             -0.037887514   -0.11900109   
   1119000   0.17870636    -0.17060228     0             -0.023228313    0.025304387  
   1119500   0.13629087    -0.17303536     0             -0.060640223    0.32740896   
   1120000   0.12683932    -0.17490845     0             -0.070307737    0.15737774   
   1120500   0.14286475    -0.17974903     0             -0.061932605    0.012220873  
   1121000   0.14827727    -0.17936052     0             -0.057080547   -0.15338967   
   1121500   0.15819887    -0.18202079     0             -0.051558764   -0.73043221   
   1122000   0.18341046    -0.1829255      0             -0.031672207   -0.19241819   
   1122500   0.18473567    -0.17606308     0             -0.023716921   -0.044475256  
   1123000   0.12891471    -0.18194583     0             -0.075633608   -0.28288475   
   1123500   0.15162195    -0.17364794     0             -0.048609707   -0.11065869   
   1124000   0.11661146    -0.17619971     0             -0.080033618   -0.1325966    
   1124500   0.12473211    -0.18015482     0             -0.077291863    0.086969176  
   1125000   0.10436324    -0.18492604     0             -0.098860696    0.080908426  
   1125500   0.11791775    -0.1819752      0             -0.084731846   -0.097422157  
   1126000   0.1155242     -0.18495947     0             -0.08969        0.1973043    
   1126500   0.13053524    -0.1820926      0             -0.074443966    0.36096511   
   1127000   0.1252329     -0.19419571     0             -0.090919764    0.098783078  
   1127500   0.15534959    -0.18463932     0             -0.056527008   -0.15485014   
   1128000   0.15613595    -0.183344       0             -0.054583203    0.026767462  
   1128500   0.1546768     -0.18274781     0             -0.055190333   -0.58696432   
   1129000   0.10886684    -0.18132091     0             -0.091541585    0.13178156   
   1129500   0.13188021    -0.19340716     0             -0.084649365    0.37022531   
   1130000   0.14356912    -0.19502281     0             -0.076625515    0.19663719   
   1130500   0.1525529     -0.18617398     0             -0.060368026   -0.1828221    
   1131000   0.16226254    -0.19178405     0             -0.057970827    0.38884905   
   1131500   0.17349073    -0.18754576     0             -0.044472981   -0.46398415   
   1132000   0.14790884    -0.18569343     0             -0.063717296    0.022358809  
   1132500   0.18306895    -0.18670462     0             -0.035732957    0.31955994   
   1133000   0.15714085    -0.18282046     0             -0.053230948   -0.13753409   
   1133500   0.13070983    -0.19276131     0             -0.084968691   -0.48994839   
   1134000   0.14476443    -0.1879143      0             -0.068531269    0.03879143   
   1134500   0.11925966    -0.19965435     0             -0.10130436    -0.17636892   
   1135000   0.10490944    -0.19494399     0             -0.10842821     0.049091182  
   1135500   0.094618916   -0.20322372     0             -0.12519424    -0.41767246   
   1136000   0.15785937    -0.19984603     0             -0.069663982    0.42340363   
   1136500   0.173288      -0.18981075     0             -0.046905159    0.37648392   
   1137000   0.15036932    -0.18504382     0             -0.061038592    0.052411426  
   1137500   0.15531079    -0.19185949     0             -0.063779173    0.09022975   
   1138000   0.17399662    -0.18108286     0             -0.037592883    0.57768949   
   1138500   0.13720013    -0.18333562     0             -0.070190643    0.078766152  
   1139000   0.1320363     -0.18117745     0             -0.072290938    0.18639198   
   1139500   0.14688361    -0.18061293     0             -0.059482268   -0.25688777   
   1140000   0.12348967    -0.1877934      0             -0.085955048   -0.19178676   
   1140500   0.14822393    -0.18789527     0             -0.065659286    0.12008577   
   1141000   0.17745594    -0.18408366     0             -0.037740879   -0.50818042   
   1141500   0.14737099    -0.18647363     0             -0.064941038   -0.22937883   
   1142000   0.11667296    -0.19427553     0             -0.098058715   -0.054802155  
   1142500   0.18113385    -0.19044155     0             -0.041065704   -0.2255972    
   1143000   0.16809984    -0.18299173     0             -0.044364661    0.029765229  
   1143500   0.17870234    -0.17987151     0             -0.032500862   -0.46102291   
   1144000   0.18386946    -0.17178637     0             -0.02015455    -0.31166635   
   1144500   0.19799136    -0.18044804     0             -0.017170301    0.14294547   
   1145000   0.163653      -0.17900662     0             -0.044046731   -0.66288989   
   1145500   0.1470697     -0.18060589     0             -0.059321762    0.06342987   
   1146000   0.15650221    -0.18349195     0             -0.054429113   -0.32837889   
   1146500   0.22041892    -0.17374032     0              0.0080327856  -0.71719667   
   1147000   0.18884856    -0.17112949     0             -0.015391551   -0.33317824   
   1147500   0.1693585     -0.1763216      0             -0.036656549   -0.08489766   
   1148000   0.19522378    -0.17303602     0             -0.012040622   -0.46506261   
   1148500   0.22012957    -0.17490889     0              0.0066255904   0.18634355   
   1149000   0.20567978    -0.17002694     0             -0.00040878324  0.30659131   
   1149500   0.21546161    -0.16787065     0              0.0098143073   0.81296981   
   1150000   0.20027503    -0.16850107     0             -0.0033400457   0.58184792   
   1150500   0.20258777    -0.1660853      0              0.00098296844 -0.59641015   
   1151000   0.21824453    -0.15951199     0              0.020467959   -0.023176217  
   1151500   0.20522092    -0.15954435     0              0.0096953993   0.50757993   
   1152000   0.24231402    -0.1575909      0              0.042238454   -0.3887878    
   1152500   0.20975375    -0.15488664     0              0.018091207   -0.39291016   
   1153000   0.17706826    -0.16083406     0             -0.014810988   -0.080881328  
   1153500   0.1623009     -0.15810728     0             -0.024262423   -0.014470454  
   1154000   0.15949179    -0.16317953     0             -0.031651275    0.13783238   
   1154500   0.14634719    -0.17312597     0             -0.052437672   -0.10351353   
   1155000   0.1622512     -0.16856284     0             -0.03475897    -0.8362246    
   1155500   0.1575953     -0.17481928     0             -0.044854999    0.20231518   
   1156000   0.13091971    -0.17607792     0             -0.06811223    -0.15950599   
   1156500   0.13079034    -0.17093479     0             -0.063075783   -0.11398383   
   1157000   0.17137506    -0.16967186     0             -0.028343809    0.17114022   
   1157500   0.24172601    -0.16755257     0              0.031791873   -0.11443832   
   1158000   0.18208856    -0.16705519     0             -0.016892027    0.083247481  
   1158500   0.15643622    -0.15850365     0             -0.029495233    0.44090729   
   1159000   0.17184676    -0.16175042     0             -0.020033371   -0.10377463   
   1159500   0.13826782    -0.1612668      0             -0.047241325    0.18103637   
   1160000   0.17027003    -0.16478319     0             -0.024366428    0.089458509  
   1160500   0.1599854     -0.16158011     0             -0.029644782    0.062231619  
   1161000   0.14630402    -0.16287912     0             -0.042226428   -0.4992047    
   1161500   0.16120228    -0.16372186     0             -0.030783007    0.23518716   
   1162000   0.15344754    -0.1656705      0             -0.039126759    0.4579705    
   1162500   0.14128118    -0.1756063      0             -0.059095802    0.42522984   
   1163000   0.16032155    -0.17840589     0             -0.04619335     1.1216616    
   1163500   0.15594677    -0.17204123     0             -0.04343644     0.23349604   
   1164000   0.17030791    -0.17765275     0             -0.037204753    0.021381663  
   1164500   0.2388188     -0.16809627     0              0.02885068     0.1839742    
   1165000   0.1830721     -0.17063971     0             -0.019665444   -0.005861167  
   1165500   0.17773299    -0.1820923      0             -0.035521041    0.41420957   
   1166000   0.15459785    -0.17889256     0             -0.051400195   -0.23951328   
   1166500   0.14146984    -0.1815771      0             -0.06491101     0.056565482  
   1167000   0.15887017    -0.17733871     0             -0.046323076    0.29433274   
   1167500   0.17895404    -0.17783787     0             -0.03025965    -0.33417065   
   1168000   0.17619448    -0.17573431     0             -0.030431821    0.011784839  
   1168500   0.14257591    -0.18950962     0             -0.071931395   -0.51835819   
   1169000   0.18049968    -0.18107921     0             -0.032226348    0.067873049  
   1169500   0.20498957    -0.18289128     0             -0.013842318    0.08210002   
   1170000   0.17823494    -0.17914952     0             -0.032164318    0.31126509   
   1170500   0.1683187     -0.1791669      0             -0.040359345   -0.28996053   
   1171000   0.15707608    -0.1826741      0             -0.053138005    0.022758838  
   1171500   0.17265248    -0.18023587     0             -0.037854367   -0.092781252  
   1172000   0.17421243    -0.18563784     0             -0.041969899   -0.36907322   
   1172500   0.17783764    -0.18080066     0             -0.034143109    0.007389885  
   1173000   0.19095015    -0.18584701     0             -0.028375948   -0.13082168   
   1173500   0.18587943    -0.17504964     0             -0.021760249   -0.37314528   
   1174000   0.23975513    -0.17357002     0              0.024149103    0.43297532   
   1174500   0.1884746     -0.17095956     0             -0.015530019    0.49944948   
   1175000   0.20322855    -0.16922966     0             -0.0016329558   0.56899751   
   1175500   0.16251864    -0.17388303     0             -0.039858612   -0.24786029   
   1176000   0.16035932    -0.17411879     0             -0.041875096   -0.36790798   
   1176500   0.13196464    -0.18038756     0             -0.07156014    -0.42048964   
   1177000   0.17124052    -0.18019799     0             -0.038980895    0.16520406   
   1177500   0.15382747    -0.1798101      0             -0.052953042    0.16269003   
   1178000   0.15181055    -0.17525459     0             -0.050060825   -0.29298888   
   1178500   0.15373448    -0.1793597      0             -0.052579328   -0.2513564    
   1179000   0.18403936    -0.17709858     0             -0.025326644   -0.54141707   
   1179500   0.18633303    -0.18049977     0             -0.026836309    0.12132603   
   1180000   0.16415045    -0.17664663     0             -0.04127651    -0.12267616   
   1180500   0.16645847    -0.17680526     0             -0.039531778    0.24718699   
   1181000   0.17662052    -0.17415012     0             -0.02849629     0.059833473  
   1181500   0.13919262    -0.1798881      0             -0.065099981    0.32300033   
   1182000   0.13428668    -0.18688448     0             -0.076142137    0.15795054   
   1182500   0.1465589     -0.18767986     0             -0.066816976   -0.034635068  
   1183000   0.20480747    -0.18103227     0             -0.01213348     0.32475241   
   1183500   0.16532215    -0.18181521     0             -0.045478822    0.021338038  
   1184000   0.14023581    -0.18624314     0             -0.070594727    0.39941388   
   1184500   0.1502738     -0.17717121     0             -0.053244756   -0.26952025   
   1185000   0.14387008    -0.18391409     0             -0.065268603   -0.053439591  
   1185500   0.17678236    -0.18107114     0             -0.035283851    0.086525906  
   1186000   0.12822158    -0.1875836      0             -0.081842973    0.022158426  
   1186500   0.19573138    -0.18800733     0             -0.026593332   -0.30732535   
   1187000   0.18702202    -0.17940271     0             -0.02517107     0.11994295   
   1187500   0.23169999    -0.1833644      0              0.00771188    -0.66439042   
   1188000   0.17519382    -0.18668673     0             -0.04220946    -0.28689615   
   1188500   0.18173576    -0.17714826     0             -0.027276037    0.16994152   
   1189000   0.17427256    -0.18694865     0             -0.043231113    0.18220875   
   1189500   0.14313129    -0.18961436     0             -0.071578127   -0.062757527  
   1190000   0.15335638    -0.18799704     0             -0.061528479    0.54469445   
   1190500   0.14261184    -0.18787926     0             -0.07027141    -0.55421911   
   1191000   0.18931414    -0.17619342     0             -0.020071534    0.2707855    
   1191500   0.17600113    -0.1777883      0             -0.032645266    0.338933     
   1192000   0.19570788    -0.1751463      0             -0.013751669    0.057149894  
   1192500   0.16067379    -0.17554792     0             -0.0430449     -0.40895185   
   1193000   0.19656629    -0.17917822     0             -0.017075688    0.18470747   
   1193500   0.18587077    -0.17425827     0             -0.020976026   -0.03581485   
   1194000   0.20055028    -0.17293955     0             -0.0075515384   0.62027188   
   1194500   0.18332502    -0.16731445     0             -0.01613161    -0.28442205   
   1195000   0.17820599    -0.17399476     0             -0.027033441    0.66137604   
   1195500   0.20494581    -0.16946526     0             -0.00045238787 -0.26951947   
   1196000   0.20161271    -0.17616549     0             -0.009901322    0.57358886   
   1196500   0.17069239    -0.18059704     0             -0.039831959   -0.32849196   
   1197000   0.18021478    -0.17616864     0             -0.027550726    0.32463062   
   1197500   0.17499881    -0.1762139      0             -0.031897451   -0.11694846   
   1198000   0.19847258    -0.1723574      0             -0.0086828059   0.31208356   
   1198500   0.17619826    -0.17075405     0             -0.025448454   -0.26934203   
   1199000   0.15107292    -0.17455284     0             -0.04996738    -0.10779238   
   1199500   0.17292395    -0.16223945     0             -0.019634069    0.52138001   
   1200000   0.17605915    -0.17169572     0             -0.026504827   -0.11914394   
   1200500   0.15779896    -0.165506       0             -0.03537377     0.020867516  
   1201000   0.17768276    -0.16775156     0             -0.021221732   -0.13987776   
   1201500   0.12504624    -0.17362667     0             -0.070504654    0.14281255   
   1202000   0.10508808    -0.17151984     0             -0.084856742   -0.18871966   
   1202500   0.095783632   -0.18042041     0             -0.10143042    -0.15880122   
   1203000   0.1209187     -0.18564334     0             -0.085925186    0.037406377  
   1203500   0.14170977    -0.18280998     0             -0.065946037    0.099898614  
   1204000   0.16385838    -0.18353505     0             -0.048405786    0.084337507  
   1204500   0.13755224    -0.18574467     0             -0.072309321    0.62766892   
   1205000   0.13483721    -0.17736949     0             -0.066173146    0.11749513   
   1205500   0.16355082    -0.17479349     0             -0.039917864    0.032263653  
   1206000   0.20747885    -0.17814717     0             -0.0070453669  -0.1612981    
   1206500   0.22122382    -0.16808925     0              0.01434763     0.29598753   
   1207000   0.17521976    -0.17529034     0             -0.030791672   -0.071902488  
   1207500   0.17565976    -0.17735255     0             -0.032491032    0.21114762   
   1208000   0.18470006    -0.18123262     0             -0.028915826    0.76072456   
   1208500   0.1470007     -0.17474334     0             -0.053516116    0.26004526   
   1209000   0.16035109    -0.16944432     0             -0.037207412    0.46908197   
   1209500   0.14546711    -0.17189508     0             -0.051932562    0.032966594  
   1210000   0.16890928    -0.17050844     0             -0.031213843   -0.30001181   
   1210500   0.14447027    -0.17270669     0             -0.053566237   -0.18597798   
   1211000   0.15619334    -0.17415633     0             -0.045348206    0.27210203   
   1211500   0.14063571    -0.17315674     0             -0.057178546    0.091356067  
   1212000   0.12105243    -0.1792252      0             -0.079396767   -0.086574872  
   1212500   0.15170489    -0.18364426     0             -0.058537625    0.074643515  
   1213000   0.12737761    -0.18241951     0             -0.077374878    0.0037636971 
   1213500   0.181338      -0.17577087     0             -0.026226671   -0.19139377   
   1214000   0.1464726     -0.17647605     0             -0.055684334    0.42022539   
   1214500   0.14626911    -0.17162671     0             -0.051002807    0.28708389   
   1215000   0.16880176    -0.17285942     0             -0.0336535     -0.27083333   
   1215500   0.14376976    -0.17165958     0             -0.053096817   -0.073761816  
   1216000   0.14247321    -0.1720856      0             -0.054592073   -0.15917527   
   1216500   0.15251767    -0.17095463     0             -0.045177719    0.087705521  
   1217000   0.18115929    -0.17081544     0             -0.021418625   -0.29931283   
   1217500   0.18604032    -0.1661009      0             -0.012678829   -0.036406944  
   1218000   0.13544762    -0.17386534     0             -0.062165611   -0.19047485   
   1218500   0.14318033    -0.17428038     0             -0.056203707   -0.10133236   
   1219000   0.1467657     -0.17349847     0             -0.052465052   -0.24066561   
   1219500   0.14396311    -0.17318454     0             -0.054462336    0.57073201   
   1220000   0.14569886    -0.17703154     0             -0.056877906   -0.17932489   
   1220500   0.21271971    -0.17550488     0             -8.1095337e-05 -0.079860278  
   1221000   0.15036309    -0.17590045     0             -0.051900362    0.27687335   
   1221500   0.14377405    -0.18081697     0             -0.062250678   -0.17364401   
   1222000   0.13485046    -0.17756344     0             -0.066356167    0.089899611  
   1222500   0.14219489    -0.18698417     0             -0.069720164   -0.09794524   
   1223000   0.13834567    -0.18303601     0             -0.068946344   -0.23372308   
   1223500   0.11974705    -0.19337549     0             -0.094623556    0.84252621   
   1224000   0.18788385    -0.18085127     0             -0.025908901    0.23273719   
   1224500   0.11862285    -0.18101466     0             -0.08318983     0.34706493   
   1225000   0.167699      -0.18714359     0             -0.048847085   -0.40562754   
   1225500   0.12594926    -0.17953555     0             -0.07566884     0.009869892  
   1226000   0.12866163    -0.18430792     0             -0.078204402   -0.25647588   
   1226500   0.19901794    -0.18185751     0             -0.017733177   -0.052569825  
   1227000   0.17363947    -0.18185742     0             -0.038661972   -0.11283813   
   1227500   0.19857252    -0.17758192     0             -0.013824914    0.4093027    
   1228000   0.15276672    -0.17267941     0             -0.046697118    0.92980271   
   1228500   0.20218623    -0.17187152     0             -0.0051343869  -0.15461726   
   1229000   0.1884694     -0.1670671      0             -0.011641842   -0.30459041   
   1229500   0.14447991    -0.17069238     0             -0.051543984   -0.32231416   
   1230000   0.12893528    -0.17443345     0             -0.068104261   -0.0019606922 
   1230500   0.13471611    -0.17591105     0             -0.064814572    0.16358464   
   1231000   0.18397225    -0.16880016     0             -0.017083572    0.32677615   
   1231500   0.18242535    -0.17116289     0             -0.020721981   -0.5777007    
   1232000   0.19291338    -0.17227486     0             -0.013184785   -0.46959504   
   1232500   0.175016      -0.17110585     0             -0.026775225    0.014739626  
   1233000   0.16147645    -0.17096247     0             -0.037797515   -0.57347507   
   1233500   0.15058277    -0.17384171     0             -0.049660458   -0.29138611   
   1234000   0.13674176    -0.17728452     0             -0.064517551   -0.013573876  
   1234500   0.15935574    -0.17441992     0             -0.043003852    0.72711618   
   1235000   0.14300645    -0.18112299     0             -0.063189714    0.01166395   
   1235500   0.12683173    -0.1747082      0             -0.070113744    0.038260385  
   1236000   0.131891      -0.17985435     0             -0.071087662   -0.0420312    
   1236500   0.13161611    -0.18154547     0             -0.07300547    -0.52302831   
   1237000   0.166137      -0.18060919     0             -0.043600816   -0.34983152   
   1237500   0.14907208    -0.17402159     0             -0.051086164    0.1856888    
   1238000   0.11616647    -0.18286863     0             -0.087069501   -0.0058824002 
   1238500   0.11781521    -0.18600256     0             -0.088843763   -0.10151115   
   1239000   0.1330905     -0.18700439     0             -0.077248516   -0.20639593   
   1239500   0.15204679    -0.17618934     0             -0.050800756   -0.11793955   
   1240000   0.12462297    -0.18342693     0             -0.080653976    0.23446838   
   1240500   0.1668053     -0.18285121     0             -0.045291715    0.12521531   
   1241000   0.17294104    -0.18303933     0             -0.040419865   -0.50055598   
   1241500   0.14406504    -0.18774717     0             -0.0689409     -0.30939436   
   1242000   0.13492884    -0.19189949     0             -0.080627576   -0.093067196  
   1242500   0.19556903    -0.1841172      0             -0.022837081   -0.24614095   
   1243000   0.18632362    -0.18438505     0             -0.03072935    -0.1125987    
   1243500   0.16033989    -0.17831185     0             -0.046084176   -0.042452048  
   1244000   0.17959142    -0.18096451     0             -0.032860663    0.20886088   
   1244500   0.14390245    -0.18000782     0             -0.061335636    0.094954852  
   1245000   0.1596359     -0.18157318     0             -0.049926077    0.11617657   
   1245500   0.17808092    -0.175354       0             -0.028495818   -0.14268918   
   1246000   0.12572563    -0.17782918     0             -0.07414689    -0.0072829741 
   1246500   0.14963539    -0.1871841      0             -0.063784124   -0.092514854  
   1247000   0.17139152    -0.1841056      0             -0.04276398     0.11590461   
   1247500   0.14044116    -0.18936222     0             -0.073544459   -0.22065014   
   1248000   0.12889358    -0.19464193     0             -0.088347123    0.38168863   
   1248500   0.19410724    -0.18337897     0             -0.023304351    0.43661521   
   1249000   0.21370481    -0.18848185     0             -0.012245679    0.27587304   
   1249500   0.19178071    -0.17670738     0             -0.018551384    0.20226289   
   1250000   0.18098885    -0.17498909     0             -0.025732817    0.47299759   
   1250500   0.12914405    -0.17730233     0             -0.070800969   -0.20704913   
   1251000   0.14365068    -0.17680433     0             -0.058339777   -0.087567391  
   1251500   0.1417758     -0.18235566     0             -0.065437258   -0.03041634   
   1252000   0.15521582    -0.18458679     0             -0.056584795    0.11199821   
   1252500   0.13791287    -0.17780907     0             -0.064076314   -0.19063586   
   1253000   0.14477009    -0.18427184     0             -0.064884137    0.23948575   
   1253500   0.14901508    -0.17854784     0             -0.055659419   -0.17608396   
   1254000   0.13242023    -0.17761436     0             -0.068411234    0.259107     
   1254500   0.12770973    -0.18127084     0             -0.07595232     0.49752543   
   1255000   0.12969739    -0.18046619     0             -0.073508512   -0.1469894    
   1255500   0.14402454    -0.17884104     0             -0.06006817    -0.0054557588 
   1256000   0.12715945    -0.1818168      0             -0.076952081    0.49525478   
   1256500   0.10312415    -0.17976536     0             -0.094721862    0.17312118   
   1257000   0.10791369    -0.18511582     0             -0.096122525   -0.23846668   
   1257500   0.11825738    -0.18817695     0             -0.090653507    0.39888881   
   1258000   0.17888312    -0.18611043     0             -0.038590695   -0.24467453   
   1258500   0.15955519    -0.17982182     0             -0.048241279    0.0053025191 
   1259000   0.16369591    -0.17504694     0             -0.040051669   -0.31422406   
   1259500   0.16933044    -0.17403327     0             -0.034391355   -0.13300594   
   1260000   0.14541067    -0.17026609     0             -0.050350123   -0.051445093  
   1260500   0.17416493    -0.17639804     0             -0.032769265   -0.022559739  
   1261000   0.16319077    -0.17927171     0             -0.04469301    -0.69037253   
   1261500   0.17775886    -0.17763656     0             -0.031043976   -0.21209174   
   1262000   0.15603702    -0.17944813     0             -0.050768916   -0.27226824   
   1262500   0.18195123    -0.17573636     0             -0.025686441    0.20727788   
   1263000   0.15172992    -0.17446096     0             -0.049333688   -0.11565583   
   1263500   0.15014694    -0.17237497     0             -0.048553131   -0.31922869   
   1264000   0.17972131    -0.17684304     0             -0.028632081    0.23733365   
   1264500   0.12183648    -0.18043414     0             -0.079959126    0.10455333   
   1265000   0.13071448    -0.18103755     0             -0.073241094    0.024921059  
   1265500   0.11942836    -0.18653487     0             -0.088045758    0.30735047   
   1266000   0.18336715    -0.18228237     0             -0.031064788    0.040481299  
   1266500   0.15197589    -0.18231456     0             -0.056984446   -0.2682008    
   1267000   0.13862995    -0.19284621     0             -0.078522111   -0.15421678   
   1267500   0.15807505    -0.19285361     0             -0.062493699   -0.27013783   
   1268000   0.19618319    -0.18599239     0             -0.024205789   -0.17798034   
   1268500   0.17111866    -0.19084176     0             -0.049725157   -0.59287107   
   1269000   0.20141574    -0.18173654     0             -0.015634808   -0.43950853   
   1269500   0.15288003    -0.18223606     0             -0.056160324    0.19472637   
   1270000   0.13265383    -0.18277917     0             -0.073383401    0.17855003   
   1270500   0.1601335     -0.1813574      0             -0.049299943   -0.22801629   
   1271000   0.13619936    -0.18906871     0             -0.076749045   -0.03763262   
   1271500   0.14366833    -0.18674463     0             -0.068265519   -0.14958521   
   1272000   0.13330591    -0.18618045     0             -0.076246924   -0.14906327   
   1272500   0.1470736     -0.19116685     0             -0.069879503   -0.22647925   
   1273000   0.19210088    -0.18758089     0             -0.029160853   -0.023369083  
   1273500   0.18825803    -0.1842527      0             -0.029001755    0.48523956   
   1274000   0.16889651    -0.18580053     0             -0.046516472    0.16779742   
   1274500   0.15228665    -0.17981414     0             -0.05422775    -0.19772433   
   1275000   0.15691464    -0.18565296     0             -0.056249991   -0.066597716  
   1275500   0.20325723    -0.17703387     0             -0.0094135169   0.47569603   
   1276000   0.15580801    -0.1836013      0             -0.055110948    0.24258697   
   1276500   0.16394858    -0.18163577     0             -0.046432124    0.28490875   
   1277000   0.14319814    -0.18101004     0             -0.062918679    0.14199531   
   1277500   0.13327832    -0.18478381     0             -0.074873039   -0.34777071   
   1278000   0.11226009    -0.19012834     0             -0.097550695    0.30061814   
   1278500   0.12716248    -0.19089383     0             -0.086026609    0.24602651   
   1279000   0.16817885    -0.19062578     0             -0.051933557    0.032790179  
   1279500   0.1436955     -0.19659392     0             -0.078092401    0.043871251  
   1280000   0.15934867    -0.19303837     0             -0.061628129   -0.32190718   
   1280500   0.13155781    -0.19822302     0             -0.089731103    0.15844368   
   1281000   0.16411117    -0.19942315     0             -0.064085417    0.083745594  
   1281500   0.14358786    -0.19617682     0             -0.077764075   -0.31425371   
   1282000   0.16088204    -0.18707089     0             -0.054396128    0.079007545  
   1282500   0.13905146    -0.19903956     0             -0.084367844   -0.54488723   
   1283000   0.20473781    -0.18662181     0             -0.017780462   -0.0028573181 
   1283500   0.1503608     -0.18467199     0             -0.060673794    0.16890642   
   1284000   0.12175201    -0.19119253     0             -0.090787172   -0.10714665   
   1284500   0.10959291    -0.19499679     0             -0.10461869    -0.2182616    
   1285000   0.12260197    -0.19823205     0             -0.097125754    0.39874025   
   1285500   0.099584327   -0.20107442     0             -0.1189501      0.66279271   
   1286000   0.11301926    -0.19717263     0             -0.10396892    -0.2592335    
   1286500   0.15512578    -0.19710645     0             -0.069178708   -0.3109438    
   1287000   0.14467421    -0.19134227     0             -0.072033637   -0.060836105  
   1287500   0.19899584    -0.18419022     0             -0.02008411     0.24071039   
   1288000   0.16032373    -0.18225836     0             -0.050044024   -0.032432148  
   1288500   0.17616814    -0.17835803     0             -0.033077261   -0.68658007   
   1289000   0.18020417    -0.18377028     0             -0.035161123    0.14003283   
   1289500   0.21898455    -0.18086753     0             -0.00027731124  0.19618113   
   1290000   0.15065418    -0.18409886     0             -0.059858717    0.079813533  
   1290500   0.16188076    -0.17924988     0             -0.045751499    0.26938575   
   1291000   0.15387743    -0.18109881     0             -0.054200541    0.4860417    
   1291500   0.21062561    -0.18034989     0             -0.0066530474  -0.5572005    
   1292000   0.19223201    -0.17279446     0             -0.014266283   -0.20435984   
   1292500   0.14082731    -0.17739164     0             -0.061255441    0.052287487  
   1293000   0.16607955    -0.17630659     0             -0.039345595    0.27571901   
   1293500   0.16705229    -0.18186241     0             -0.044099218    0.12362383   
   1294000   0.17232422    -0.18776831     0             -0.045657512   -0.83899089   
   1294500   0.15317198    -0.18540054     0             -0.059084039   -0.16216071   
   1295000   0.17991805    -0.1816295      0             -0.033256297    0.035815077  
   1295500   0.19448811    -0.18603735     0             -0.025648634   -0.38486864   
   1296000   0.18783599    -0.18099831     0             -0.026095409   -0.31703612   
   1296500   0.23568439    -0.17845688     0              0.015905212    0.088851968  
   1297000   0.22418167    -0.1751586      0              0.0097175322  -0.063246114  
   1297500   0.20164603    -0.17557458     0             -0.0092829392   0.19981011   
   1298000   0.14507597    -0.17742579     0             -0.057785839    0.34106626   
   1298500   0.14800386    -0.17070517     0             -0.048650676   -0.10467354   
   1299000   0.14434217    -0.17830049     0             -0.059265678    0.35286555   
   1299500   0.15502916    -0.17744327     0             -0.049595216    0.022225355  
   1300000   0.13974452    -0.17765117     0             -0.062407907   -0.14299468   
   1300500   0.16173131    -0.17524652     0             -0.041871395   -0.071731729  
   1301000   0.18367068    -0.17897455     0             -0.027506654    0.35651144   
   1301500   0.22030897    -0.17481969     0              0.0068627393  -0.4025912    
   1302000   0.20408152    -0.16591865     0              0.0023814766   0.077062864  
   1302500   0.19615033    -0.16940295     0             -0.007643453    0.44390647   
   1303000   0.18472707    -0.17426935     0             -0.021930284    0.63602115   
   1303500   0.20943811    -0.16782033     0              0.0048972188   0.62136708   
   1304000   0.17870462    -0.16880574     0             -0.021433214   -0.26791223   
   1304500   0.16846385    -0.17268872     0             -0.033761453    0.28651943   
   1305000   0.19253776    -0.16858579     0             -0.0098054704   0.3725133    
   1305500   0.2100597     -0.16722175     0              0.0060084      0.34628403   
   1306000   0.19082845    -0.16473544     0             -0.0073647436  -0.10450505   
   1306500   0.19039629    -0.16117037     0             -0.0041560606  -0.57782839   
   1307000   0.1925601     -0.1698815      0             -0.011082761   -0.16127658   
   1307500   0.16651252    -0.16254409     0             -0.025226035   -0.13712982   
   1308000   0.16387819    -0.16640344     0             -0.031257836    0.18556907   
   1308500   0.12535978    -0.17202693     0             -0.068646351    0.04386754   
   1309000   0.12611172    -0.174126       0             -0.070125312   -0.085824763  
   1309500   0.15300672    -0.17941728     0             -0.053237066   -0.075470163  
   1310000   0.13767972    -0.17602692     0             -0.062486435   -0.21981004   
   1310500   0.14294974    -0.16836991     0             -0.050483395   -0.62509635   
   1311000   0.14154311    -0.17322943     0             -0.056502927    0.17683758   
   1311500   0.1547481     -0.16301235     0             -0.035396069   -0.01267027   
   1312000   0.17025779    -0.17461112     0             -0.034204455    0.38484987   
   1312500   0.1383286     -0.17238808     0             -0.05831249    -0.28349751   
   1313000   0.1563484     -0.17091028     0             -0.041974272    0.074809488  
   1313500   0.15507342    -0.16755761     0             -0.039673046    0.45192167   
   1314000   0.16879698    -0.16871593     0             -0.029513944    0.038404162  
   1314500   0.17968669    -0.16539666     0             -0.017214253    0.21973833   
   1315000   0.18737912    -0.16133951     0             -0.0068133785   0.62235949   
   1315500   0.16477057    -0.17056882     0             -0.034687297    0.0032440988 
   1316000   0.16349733    -0.17068254     0             -0.03585102     0.39219829   
   1316500   0.17238994    -0.16902213     0             -0.026857132   -0.070766395  
   1317000   0.17196523    -0.17184221     0             -0.030027467   -0.34027311   
   1317500   0.16580049    -0.1741287      0             -0.037397831    0.35499089   
   1318000   0.14778397    -0.17964778     0             -0.05777462    -0.124628     
   1318500   0.17503329    -0.18174133     0             -0.037396445    0.27356313   
   1319000   0.1766082     -0.17535648     0             -0.029712812   -0.52122268   
   1319500   0.19552627    -0.18336069     0             -0.022115839   -0.37986212   
   1320000   0.19096019    -0.18139926     0             -0.023919924   -0.45584621   
   1320500   0.17085376    -0.17536272     0             -0.034464571    0.11887541   
   1321000   0.18114147    -0.1800126      0             -0.030630474    0.27495938   
   1321500   0.17716619    -0.17294394     0             -0.026840112    0.441304     
   1322000   0.15880418    -0.16437539     0             -0.033414183    0.81017748   
   1322500   0.16060642    -0.17708751     0             -0.044640044    0.68806151   
   1323000   0.15862372    -0.182738       0             -0.051925614   -0.28288734   
   1323500   0.19715109    -0.16885763     0             -0.0062728414   0.44645853   
   1324000   0.15743625    -0.18226239     0             -0.052429271   -0.73066331   
   1324500   0.1811277     -0.18223827     0             -0.032867493   -0.16793109   
   1325000   0.15138921    -0.1751456      0             -0.050299301    0.36394624   
   1325500   0.1642767     -0.18265801     0             -0.047183771   -0.24758171   
   1326000   0.1763494     -0.18419716     0             -0.038766909    0.17582701   
   1326500   0.16203206    -0.17315636     0             -0.039533212   -0.73608258   
   1327000   0.17047792    -0.17748349     0             -0.036895286   -0.16588405   
   1327500   0.16834089    -0.17549465     0             -0.036668793    0.0144993    
   1328000   0.19038727    -0.1723101      0             -0.015303227   -0.050155266  
   1328500   0.16229844    -0.1749515      0             -0.041108682   -0.046532696  
   1329000   0.17138865    -0.17101847     0             -0.02967921    -0.43244911   
   1329500   0.17421861    -0.17181487     0             -0.028141823    0.14902541   
   1330000   0.17800335    -0.16911419     0             -0.022319982   -0.57583069   
   1330500   0.17265147    -0.16904856     0             -0.026667891   -0.0024447986 
   1331000   0.14631907    -0.1716987      0             -0.051033592   -0.095894545  
   1331500   0.13205703    -0.17359906     0             -0.064695446   -0.11510065   
   1332000   0.19717563    -0.17517983     0             -0.012574792   -0.17328282   
   1332500   0.16290777    -0.17021035     0             -0.035865024    0.5851086    
   1333000   0.13184543    -0.17704304     0             -0.068313929   -0.36220704   
   1333500   0.14774532    -0.17327607     0             -0.051434783    0.10126963   
   1334000   0.16636051    -0.17690737     0             -0.039714678    0.17762717   
   1334500   0.16148101    -0.17812109     0             -0.044952369    0.089977246  
   1335000   0.20572405    -0.16621492     0              0.0034397534  -0.32886344   
   1335500   0.16379038    -0.16912137     0             -0.034048185   -0.020791201  
   1336000   0.17038697    -0.16625258     0             -0.025739382    0.15084      
   1336500   0.16979199    -0.17610129     0             -0.036078748   -0.086746919  
   1337000   0.17021322    -0.16762514     0             -0.027255219   -0.036851613  
   1337500   0.17027396    -0.17159439     0             -0.031174381    0.22012102   
   1338000   0.22390494    -0.17441032     0              0.0102376     -0.34088109   
   1338500   0.18325871    -0.16931505     0             -0.018186889    0.33229868   
   1339000   0.1701268     -0.17462303     0             -0.034324377   -0.1278996    
   1339500   0.14165178    -0.17096649     0             -0.05415036     0.17466677   
   1340000   0.16865185    -0.17558911     0             -0.036506813    0.015281421  
   1340500   0.17979772    -0.17000695     0             -0.021732971   -0.097432428  
   1341000   0.19619668    -0.18125843     0             -0.0194607     -0.6530842    
   1341500   0.20083389    -0.17302817     0             -0.0074062796   0.67502584   
   1342000   0.17326225    -0.17662838     0             -0.033744014    0.02903633   
   1342500   0.19976491    -0.16992147     0             -0.0051811328   0.0036269165 
   1343000   0.18877489    -0.18101148     0             -0.025334292    0.65018967   
   1343500   0.168969      -0.17706219     0             -0.037718351   -0.04406276   
   1344000   0.14724649    -0.18223297     0             -0.060803053    0.13320881   
   1344500   0.13939777    -0.1805905      0             -0.065633195    0.20432933   
   1345000   0.16218793    -0.17270758     0             -0.038955885    0.2269601    
   1345500   0.1487133     -0.18223705     0             -0.059597489   -0.41499026   
   1346000   0.1362667     -0.17905302     0             -0.066677819    0.40262023   
   1346500   0.1793535     -0.17415603     0             -0.026248391    0.011733986  
   1347000   0.12598523    -0.17906045     0             -0.075164075    0.41817162   
   1347500   0.15266053    -0.17962809     0             -0.053733372   -0.17731627   
   1348000   0.16105849    -0.17291821     0             -0.040097937    0.15661247   
   1348500   0.14735035    -0.18173335     0             -0.060217781   -0.72361394   
   1349000   0.13805836    -0.18464833     0             -0.070795596   -0.12364464   
   1349500   0.15713787    -0.17542075     0             -0.045833697    0.045909672  
   1350000   0.23494416    -0.17829315     0              0.015458492    0.029650031  
   1350500   0.18626569    -0.17434004     0             -0.020732115   -0.45605937   
   1351000   0.18859348    -0.175854       0             -0.020326419   -0.45308721   
   1351500   0.17667274    -0.18085724     0             -0.03516035     0.090604156  
   1352000   0.15145715    -0.18232026     0             -0.057417931   -0.14053844   
   1352500   0.20113521    -0.17668399     0             -0.010813602    0.10074338   
   1353000   0.19647264    -0.1800967      0             -0.0180714      0.0026674716 
   1353500   0.20456501    -0.16989612     0             -0.0011972733   0.14732887   
   1354000   0.2027199     -0.17406277     0             -0.0068855332   0.063201542  
   1354500   0.19334463    -0.17346441     0             -0.014018695    0.021036971  
   1355000   0.18801182    -0.17535502     0             -0.020307121    0.28281301   
   1355500   0.16545904    -0.17656043     0             -0.04011115     0.13443179   
   1356000   0.21533004    -0.16896759     0              0.0086088644  -0.065761488  
   1356500   0.18638599    -0.1555733      0             -0.0018661703   0.20715371   
   1357000   0.15546839    -0.16356976     0             -0.035359478   -0.12041438   
   1357500   0.1450943     -0.16415423     0             -0.044499163   -0.0054751999 
   1358000   0.14336285    -0.16787699     0             -0.049649801    0.46773673   
   1358500   0.16757622    -0.17227252     0             -0.034077261   -0.68787485   
   1359000   0.19781411    -0.16530975     0             -0.0021781784  -0.051500942  
   1359500   0.17933091    -0.17437403     0             -0.026485014    0.087642599  
   1360000   0.20702939    -0.16764255     0              0.0030885979   0.29571012   
   1360500   0.17482014    -0.17580843     0             -0.031639325    0.20116221   
   1361000   0.15965991    -0.18262667     0             -0.050959765   -0.04910667   
   1361500   0.14480518    -0.17949737     0             -0.060080729    0.35020026   
   1362000   0.13499598    -0.18194988     0             -0.070622605    0.020938889  
   1362500   0.19553998    -0.17949394     0             -0.01823778     0.20657298   
   1363000   0.19570988    -0.18040873     0             -0.019012452    0.055291369  
   1363500   0.15936043    -0.18824975     0             -0.056829815   -0.66042728   
   1364000   0.14011796    -0.18757434     0             -0.07202311     0.23293818   
   1364500   0.16259396    -0.18974423     0             -0.055657693    0.046138741  
   1365000   0.15927789    -0.18965267     0             -0.058300804   -0.34542752   
   1365500   0.1420106     -0.19603694     0             -0.078924905    0.34022099   
   1366000   0.18222269    -0.19079776     0             -0.040523987    0.14474691   
   1366500   0.19253024    -0.18519158     0             -0.026417466    0.16915698   
   1367000   0.17468213    -0.18945226     0             -0.045396971   -0.046116342  
   1367500   0.15704209    -0.19115886     0             -0.0616508     -0.47986366   
   1368000   0.15799531    -0.18864106     0             -0.058346906    0.2353242    
   1368500   0.1651961     -0.18905018     0             -0.052817738    0.09851896   
   1369000   0.23809073    -0.18623794     0              0.010108593    0.12297189   
   1369500   0.22072614    -0.17945219     0              0.0025742701   0.23656881   
   1370000   0.19283704    -0.17372894     0             -0.01470182    -0.63671897   
   1370500   0.18295587    -0.1801781      0             -0.029299689    0.52434482   
   1371000   0.18706729    -0.17953045     0             -0.025261469    0.20626457   
   1371500   0.21682826    -0.18153144     0             -0.0027194521  -0.27059232   
   1372000   0.19690361    -0.18061675     0             -0.018236046    0.23430516   
   1372500   0.16340063    -0.1795125      0             -0.044760729   -0.00097324689
   1373000   0.17516286    -0.17458175     0             -0.030130006   -0.37566607   
   1373500   0.17681429    -0.18395172     0             -0.038138096   -0.11938822   
   1374000   0.18447029    -0.17773615     0             -0.025608843   -0.6729693    
   1374500   0.19024999    -0.18377467     0             -0.026881009    0.37028817   
   1375000   0.24045679    -0.17833756     0              0.019960197    0.61624235   
   1375500   0.21420474    -0.17294194     0              0.0037065094   0.0018352119 
   1376000   0.17954203    -0.17796842     0             -0.029905305   -0.75489201   
   1376500   0.22442054    -0.17636045     0              0.0087126785   0.15503655   
   1377000   0.18512789    -0.17750283     0             -0.024833225    0.028002747  
   1377500   0.21773369    -0.17067437     0              0.0088842973  -0.10711001   
   1378000   0.20043161    -0.16988184     0             -0.0045916892   0.12536796   
   1378500   0.18723857    -0.17449768     0             -0.02008745    -0.43374051   
   1379000   0.16969018    -0.17353525     0             -0.033596671    0.45155549   
   1379500   0.24375553    -0.17268091     0              0.028337222    0.19957641   
   1380000   0.16690479    -0.17506944     0             -0.037427894   -0.12598001   
   1380500   0.16920089    -0.18186468     0             -0.042329604    0.42085512   
   1381000   0.12595062    -0.17688338     0             -0.073015549   -0.11832353   
   1381500   0.12453513    -0.18332145     0             -0.080620929    0.089096911  
   1382000   0.13144146    -0.18713372     0             -0.078737751   -0.17350234   
   1382500   0.14384729    -0.18622876     0             -0.067602063   -0.62090545   
   1383000   0.16479879    -0.18606427     0             -0.050159482   -0.085472881  
   1383500   0.19904752    -0.18102011     0             -0.016871383   -0.042106697  
   1384000   0.19068379    -0.1775401      0             -0.020288695   -0.29628751   
   1384500   0.21745009    -0.17764963     0              0.0016751597  -0.21664255   
   1385000   0.17248039    -0.17968318     0             -0.037443602    0.6038067    
   1385500   0.15233073    -0.18446283     0             -0.058840082   -0.30839017   
   1386000   0.16493597    -0.17573344     0             -0.039715517   -0.061456614  
   1386500   0.19252384    -0.17676398     0             -0.017995141   -0.081599874  
   1387000   0.17245471    -0.17528466     0             -0.033066257   -0.1037925    
   1387500   0.1423759     -0.1734378      0             -0.056024522    0.067584979  
   1388000   0.16495274    -0.17756612     0             -0.041534369    0.09978414   
   1388500   0.17299923    -0.17531689     0             -0.032649433   -0.27136388   
   1389000   0.16307035    -0.17418829     0             -0.039708887    0.23290376   
   1389500   0.18246304    -0.17203399     0             -0.021562007    0.10828122   
   1390000   0.21104968    -0.16423243     0              0.0098141335  -0.09383352   
   1390500   0.17727296    -0.15782297     0             -0.011631097    0.18970647   
   1391000   0.23116354    -0.16554884     0              0.025085043   -0.010069673  
   1391500   0.21336153    -0.16294568     0              0.013007396   -0.015214326  
   1392000   0.14888788    -0.16914309     0             -0.046359566   -0.077210838  
   1392500   0.1423109     -0.1719696      0             -0.054609927   -0.10160471   
   1393000   0.13537823    -0.17357599     0             -0.061933476    0.74709479   
   1393500   0.144068      -0.17363848     0             -0.054829764   -0.38071112   
   1394000   0.1360483     -0.17581245     0             -0.063617356    0.051380925  
   1394500   0.17734225    -0.17783269     0             -0.031583667   -0.034385986  
   1395000   0.18144584    -0.1715596      0             -0.021926472    0.089790357  
   1395500   0.15507086    -0.17251164     0             -0.04462919     0.030945288  
   1396000   0.17517881    -0.17228497     0             -0.027820071   -0.074776518  
   1396500   0.20489951    -0.16798229     0              0.00099240424 -0.11334599   
   1397000   0.21321474    -0.16135626     0              0.014475759   -0.52886088   
   1397500   0.1788597     -0.16472917     0             -0.017228753    0.16088766   
   1398000   0.16003817    -0.16390274     0             -0.031923893   -0.030794295  
   1398500   0.17069822    -0.17023292     0             -0.02946304    -0.023079092  
   1399000   0.16223622    -0.16692459     0             -0.033133071   -0.093139796  
   1399500   0.19052768    -0.16734094     0             -0.010218277    0.45361325   
   1400000   0.18094514    -0.1696816      0             -0.020461378   -0.073178918  
   1400500   0.13870556    -0.17203811     0             -0.057651647   -0.26665447   
   1401000   0.14426597    -0.17394726     0             -0.054975289   -0.11259154   
   1401500   0.13182473    -0.17322962     0             -0.064517576    0.086451619  
   1402000   0.13947724    -0.18339996     0             -0.068377115   -0.049502297  
   1402500   0.20399673    -0.1732452      0             -0.0050149989  -0.53865667   
   1403000   0.14872842    -0.17775497     0             -0.05510294    -0.23525401   
   1403500   0.1394961     -0.1765481      0             -0.061509703   -0.057856758  
   1404000   0.16668831    -0.17854566     0             -0.041082639    0.2341523    
   1404500   0.19946782    -0.1769622      0             -0.012466862   -0.22638485   
   1405000   0.1482798     -0.17338824     0             -0.051106188    0.1342441    
   1405500   0.12461284    -0.17546451     0             -0.072699916    0.72688656   
   1406000   0.12549978    -0.18351186     0             -0.080015831   -0.081328876  
   1406500   0.14888156    -0.1823189      0             -0.059540584   -0.13737439   
   1407000   0.15858549    -0.17921015     0             -0.04842929    -0.46264882   
   1407500   0.14413153    -0.18073478     0             -0.06187368     0.13117814   
   1408000   0.12491667    -0.18913465     0             -0.086119492   -0.064666967  
   1408500   0.16344138    -0.17915089     0             -0.04436552     0.39559127   
   1409000   0.17712992    -0.17125346     0             -0.025179545   -0.0210498    
   1409500   0.15133642    -0.18419481     0             -0.059392053   -0.0076329865 
   1410000   0.18443466    -0.18159568     0             -0.029497755   -0.13447705   
   1410500   0.1740995     -0.17744968     0             -0.033874863   -0.26342923   
   1411000   0.14546617    -0.18311688     0             -0.06315514    -0.66470517   
   1411500   0.14848091    -0.18496406     0             -0.062516152    0.47790254   
   1412000   0.19402805    -0.18045193     0             -0.020442613    0.12433624   
   1412500   0.23443423    -0.17443174     0              0.018899381    0.62432923   
   1413000   0.2334764     -0.18093034     0              0.011610882    0.15697265   
   1413500   0.18980997    -0.17998041     0             -0.02344962    -0.2399939    
   1414000   0.17647525    -0.18073751     0             -0.035203474   -0.25478592   
   1414500   0.23724692    -0.17218728     0              0.02346339     0.55903357   
   1415000   0.21782274    -0.16886016     0              0.010771946   -0.10358759   
   1415500   0.16621471    -0.17080576     0             -0.033733302   -0.88605881   
   1416000   0.16915594    -0.16793004     0             -0.028432032    0.61125452   
   1416500   0.16983041    -0.1646674      0             -0.024613174   -0.11050977   
   1417000   0.16014308    -0.1712467      0             -0.039181336    0.09459608   
   1417500   0.18374231    -0.17024379     0             -0.018716826    0.29194396   
   1418000   0.19479852    -0.16650126     0             -0.0058565539  -0.60686342   
   1418500   0.19719991    -0.16607892     0             -0.0034538555  -0.61270553   
   1419000   0.16683298    -0.16331798     0             -0.025735652   -0.18733363   
   1419500   0.13728098    -0.16964145     0             -0.056429797   -0.025890224  
   1420000   0.19292824    -0.17007469     0             -0.010972347    0.081362496  
   1420500   0.15446176    -0.1732514      0             -0.045871259   -0.29986531   
   1421000   0.1401043     -0.16802796     0             -0.052487999   -0.33613863   
   1421500   0.12640005    -0.17567798     0             -0.071439522    0.007184561  
   1422000   0.18081933    -0.17857874     0             -0.029462276    0.15406544   
   1422500   0.19898468    -0.16701987     0             -0.0029229593   0.053865268  
   1423000   0.18140565    -0.17572052     0             -0.026120531   -0.054264695  
   1423500   0.1792207     -0.17639688     0             -0.02859875     0.13372133   
   1424000   0.19982305    -0.17296606     0             -0.0081777707   0.053255986  
   1424500   0.16858533    -0.17007643     0             -0.031048987   -0.14348616   
   1425000   0.16731943    -0.17065849     0             -0.032675002   -0.43596761   
   1425500   0.14043967    -0.18058881     0             -0.06477228     0.24223616   
   1426000   0.13882635    -0.17724354     0             -0.062757466   -0.26383595   
   1426500   0.12522531    -0.18070193     0             -0.077432241    0.16958207   
   1427000   0.12263298    -0.18478712     0             -0.083655252    0.45591442   
   1427500   0.18001928    -0.18340382     0             -0.034947134   -0.32154446   
   1428000   0.17098222    -0.18019176     0             -0.039187669   -0.86215062   
   1428500   0.20780648    -0.17802742     0             -0.0066554285  -0.17389039   
   1429000   0.13310518    -0.18117424     0             -0.07140625     0.070393831  
   1429500   0.14698491    -0.17884006     0             -0.057625863    0.64137977   
   1430000   0.13406999    -0.17844264     0             -0.067878999   -0.48105076   
   1430500   0.13568607    -0.1871919      0             -0.075295526   -0.014234948  
   1431000   0.13534024    -0.19093779     0             -0.079326614    0.074327585  
   1431500   0.17827326    -0.18876794     0             -0.04175114    -1.0123664    
   1432000   0.16315503    -0.18724995     0             -0.05270072    -0.64926613   
   1432500   0.16462388    -0.19069555     0             -0.054935       0.53789018   
   1433000   0.18225375    -0.18457629     0             -0.034276905   -0.2211306    
   1433500   0.15861844    -0.19336564     0             -0.06255761     0.063271256  
   1434000   0.22347262    -0.18329319     0              0.00099820952  0.46605702   
   1434500   0.2065474     -0.17676712     0             -0.0064334539   0.043672024  
   1435000   0.20545142    -0.17744194     0             -0.0080120996  -0.15724742   
   1435500   0.15495205    -0.1782522      0             -0.050467728    0.20958188   
   1436000   0.14533547    -0.18377335     0             -0.0639194      0.21987003   
   1436500   0.12735912    -0.18519679     0             -0.080167404   -0.055530296  
   1437000   0.15601284    -0.18841134     0             -0.059752066   -0.41408108   
   1437500   0.14935133    -0.18637139     0             -0.063205669   -0.095649147  
   1438000   0.17299214    -0.18448701     0             -0.041825404   -0.29886878   
   1438500   0.18931941    -0.18834115     0             -0.032214918   -0.040531913  
   1439000   0.18562112    -0.18748118     0             -0.034404811    0.068188738  
   1439500   0.17036985    -0.17574023     0             -0.035241141   -0.044272945  
   1440000   0.14617597    -0.1807865      0             -0.060239405   -0.76318613   
   1440500   0.181856      -0.17835367     0             -0.028382293   -0.28453561   
   1441000   0.21563669    -0.17378456     0              0.0040447794  -0.14732238   
   1441500   0.18991341    -0.17445244     0             -0.017836348   -0.15082565   
   1442000   0.17883987    -0.16987848     0             -0.022394418    0.46186892   
   1442500   0.23894424    -0.17679361     0              0.020256786    0.08477965   
   1443000   0.15131462    -0.1732235      0             -0.048438707   -0.058884443  
   1443500   0.20268499    -0.16925047     0             -0.002102023    0.33751078   
   1444000   0.1513903     -0.17617903     0             -0.051331832   -0.091266655  
   1444500   0.16807215    -0.17542215     0             -0.036817914   -0.0062348437 
   1445000   0.1545953     -0.18182019     0             -0.054329927   -0.13872697   
   1445500   0.20026907    -0.17541568     0             -0.010259573    0.12436208   
   1446000   0.19446321    -0.17468616     0             -0.014317982    0.19089625   
   1446500   0.16533581    -0.17441089     0             -0.038063237   -0.32016255   
   1447000   0.17014947    -0.1710049      0             -0.030687556    0.02516114   
   1447500   0.14152846    -0.17115087     0             -0.054436448   -0.19102624   
   1448000   0.15551854    -0.1757747      0             -0.047523058    0.33834478   
   1448500   0.13360549    -0.1858875      0             -0.075706915   -0.38143988   
   1449000   0.13079696    -0.18348245     0             -0.075617984    0.2921729    
   1449500   0.12635814    -0.18567183     0             -0.08146793    -0.095495844  
   1450000   0.12869663    -0.1864         0             -0.080267616   -0.20900125   
   1450500   0.14090451    -0.18365972     0             -0.067459841    0.058665809  
   1451000   0.21691404    -0.17974089     0             -0.0008581683   0.18707345   
   1451500   0.19319402    -0.17762525     0             -0.018303728    0.082606427  
   1452000   0.17070835    -0.17768345     0             -0.036905215   -0.24876268   
   1452500   0.16987877    -0.18529082     0             -0.045196717    0.16976157   
   1453000   0.13105995    -0.18308293     0             -0.075001582   -0.17406063   
   1453500   0.16841807    -0.18451277     0             -0.045623263    0.21579156   
   1454000   0.18597153    -0.17892354     0             -0.025558208    0.21825698   
   1454500   0.14422415    -0.17479492     0             -0.055857446    0.059516236  
   1455000   0.18714796    -0.17771589     0             -0.023380382    0.26662652   
   1455500   0.15770084    -0.17587515     0             -0.045823832    0.1494525    
   1456000   0.16013972    -0.16923681     0             -0.037174212    0.27880301   
   1456500   0.16993224    -0.17800542     0             -0.037867226    0.021373012  
   1457000   0.16567558    -0.18126683     0             -0.04463897    -0.28142101   
   1457500   0.2267852     -0.17252046     0              0.014502726    0.26263142   
   1458000   0.20453298    -0.16996359     0             -0.0012911611   0.010468178  
   1458500   0.14641609    -0.17321421     0             -0.052469097    0.15533276   
   1459000   0.12082763    -0.17640498     0             -0.076761934    0.59355497   
   1459500   0.2246223     -0.17748519     0              0.0077543203  -0.22870395   
   1460000   0.17925971    -0.17221989     0             -0.024389601   -0.23502866   
   1460500   0.15906212    -0.18382019     0             -0.052646265   -0.13417274   
   1461000   0.18917561    -0.17405827     0             -0.018050617    0.00050727556
   1461500   0.17399991    -0.16666244     0             -0.023169749   -0.12187557   
   1462000   0.20244841    -0.16435514     0              0.0025982021   0.40652339   
   1462500   0.18032897    -0.17325397     0             -0.02454189    -0.042894784  
   1463000   0.19931862    -0.17475508     0             -0.010382784   -0.35237105   
   1463500   0.15822798    -0.16920772     0             -0.038721688    0.1751495    
   1464000   0.20305797    -0.17554923     0             -0.0080932034  -0.045827605  
   1464500   0.1719667     -0.17487616     0             -0.033060194   -0.27498416   
   1465000   0.16563118    -0.18031474     0             -0.043723503    0.35990455   
   1465500   0.14167932    -0.18072919     0             -0.063890361    0.017725287  
   1466000   0.14235878    -0.17534152     0             -0.057942358   -0.13789276   
   1466500   0.11639183    -0.17997182     0             -0.083986851   -0.6951044    
   1467000   0.12336462    -0.18311732     0             -0.081382092   -0.04212918   
   1467500   0.10677807    -0.18424421     0             -0.096187431   -0.055417544  
   1468000   0.12785837    -0.18426651     0             -0.078825415    0.13478451   
   1468500   0.12887269    -0.18448347     0             -0.078205891    0.25892598   
   1469000   0.14503093    -0.16772262     0             -0.048119818   -0.14362309   
   1469500   0.1339928     -0.18785922     0             -0.077359239   -0.37685563   
   1470000   0.17991593    -0.17119582     0             -0.022824362   -0.31054671   
   1470500   0.17079973    -0.18146607     0             -0.040612479   -0.64469078   
   1471000   0.18780577    -0.16705223     0             -0.012174243    0.21174846   
   1471500   0.17773883    -0.17591713     0             -0.029341061    0.085224392  
   1472000   0.12112795    -0.17852045     0             -0.078629729    0.49352197   
   1472500   0.09400875    -0.18587837     0             -0.10835208    -0.24687004   
   1473000   0.13028362    -0.18314992     0             -0.075708796   -0.23047467   
   1473500   0.13589106    -0.1836609      0             -0.07159547    -0.20549163   
   1474000   0.14000932    -0.1831965      0             -0.067734868   -0.057520525  
   1474500   0.14015739    -0.17801201     0             -0.062428272    0.082324058  
   1475000   0.12867557    -0.18421493     0             -0.07809991    -0.44375329   
   1475500   0.11687462    -0.18773586     0             -0.091352745    0.1831104    
   1476000   0.12098203    -0.18013963     0             -0.080369256    0.57223492   
   1476500   0.1360347     -0.18515709     0             -0.072973216   -0.52991395   
   1477000   0.1394191     -0.18739861     0             -0.072423716    0.17304896   
   1477500   0.12527664    -0.18693789     0             -0.083625879   -0.1748066    
   1478000   0.12251146    -0.18862535     0             -0.087593691    0.10624859   
   1478500   0.19343466    -0.17851524     0             -0.018995274   -0.20018695   
   1479000   0.21753728    -0.17937828     0              1.8417153e-05  0.41080626   
   1479500   0.17515942    -0.17885717     0             -0.034408263   -0.42447327   
   1480000   0.16219984    -0.18317723     0             -0.04941571    -0.77203508   
   1480500   0.16401953    -0.17769674     0             -0.042434584    0.073896794  
   1481000   0.12909687    -0.18656209     0             -0.080099635   -0.36160544   
   1481500   0.12558384    -0.19052573     0             -0.086960375   -0.31730437   
   1482000   0.16293783    -0.18971255     0             -0.055342436   -0.075268972  
   1482500   0.14533983    -0.1886559      0             -0.06879835     0.59113598   
   1483000   0.1827828     -0.18579178     0             -0.035056104    0.2975328    
   1483500   0.17776127    -0.18027356     0             -0.033678986    0.027276328  
   1484000   0.16762351    -0.18854134     0             -0.050307083    0.18733406   
   1484500   0.18675142    -0.18428446     0             -0.03027597     0.43638634   
   1485000   0.19287019    -0.18515234     0             -0.026097883    0.32423339   
   1485500   0.1727853     -0.17854501     0             -0.036053972    0.050447413  
   1486000   0.17789493    -0.1790639      0             -0.032359095   -0.10230279   
   1486500   0.14301809    -0.18346909     0             -0.065526208   -0.027047997  
   1487000   0.1599411     -0.18594643     0             -0.054047635    0.20810487   
   1487500   0.19057161    -0.17989172     0             -0.022732833    0.41829651   
   1488000   0.17466354    -0.18432646     0             -0.040286496   -0.2274021    
   1488500   0.19571904    -0.17983916     0             -0.018435335   -0.43143253   
   1489000   0.1819567     -0.16645946     0             -0.016405044   -0.047540639  
   1489500   0.1612563     -0.17181882     0             -0.038835413   -0.38683458   
   1490000   0.14813357    -0.18330976     0             -0.061148298   -0.20381161   
   1490500   0.15805749    -0.17804902     0             -0.04770359     0.27720716   
   1491000   0.13941515    -0.17854912     0             -0.063577479    0.016534793  
   1491500   0.17768575    -0.18211051     0             -0.035578215    0.25512377   
   1492000   0.17424928    -0.18494987     0             -0.041251534   -0.085672702  
   1492500   0.16703414    -0.1837628      0             -0.046014577   -0.088662644  
   1493000   0.17295542    -0.17451567     0             -0.031884339    0.12923021   
   1493500   0.19873122    -0.17610145     0             -0.012213571    0.48760505   
   1494000   0.17732615    -0.17907656     0             -0.032840815   -0.049280398  
   1494500   0.14522546    -0.18177856     0             -0.062015323   -0.25569232   
   1495000   0.12271877    -0.18834558     0             -0.087142966   -0.33994206   
   1495500   0.23791952    -0.17896585     0              0.017239485   -0.20896719   
   1496000   0.21304614    -0.17662569     0             -0.00093269833 -0.32323021   
   1496500   0.15282734    -0.17750986     0             -0.051477575   -0.032400978  
   1497000   0.1787589     -0.18039886     0             -0.032981564   -0.40081388   
   1497500   0.13777367    -0.18548961     0             -0.071871658    0.10569928   
   1498000   0.14681596    -0.18173578     0             -0.060660907   -0.20203209   
   1498500   0.14548334    -0.17821261     0             -0.058236706    0.3196256    
   1499000   0.18385526    -0.17518562     0             -0.023565503    0.36797865   
   1499500   0.1442784     -0.1869073      0             -0.06792508     0.29063924   
   1500000   0.15023851    -0.18220515     0             -0.058307805   -0.02788818   
   1500500   0.21012341    -0.17710399     0             -0.0038212966   0.39676275   
   1501000   0.20050835    -0.17237428     0             -0.0070208493   0.28521908   
   1501500   0.17738204    -0.17022235     0             -0.02394052    -0.2983631    
   1502000   0.20275127    -0.17844541     0             -0.011242302   -0.073185495  
   1502500   0.1949291     -0.1642442      0             -0.0034918151  -0.029185503  
   1503000   0.20275432    -0.16951352     0             -0.0023078946   0.41170492   
   1503500   0.20042219    -0.16996547     0             -0.0046830923   0.42623874   
   1504000   0.17869195    -0.16500122     0             -0.01763914    -0.046266718  
   1504500   0.18764617    -0.16875451     0             -0.014008143   -0.68657438   
   1505000   0.1648956     -0.1726828      0             -0.036698169    0.28634272   
   1505500   0.17525047    -0.16374576     0             -0.019221775    0.2965253    
   1506000   0.14213088    -0.17116646     0             -0.053955234    0.19420656   
   1506500   0.153092      -0.17019422     0             -0.043943676   -0.13690393   
   1507000   0.17335195    -0.17249653     0             -0.029538191    1.0485038    
   1507500   0.19999739    -0.17075062     0             -0.0058185624   0.28550214   
   1508000   0.18496141    -0.17195928     0             -0.019426965    0.018829975  
   1508500   0.17675462    -0.17626969     0             -0.030505274   -0.51782334   
   1509000   0.19145109    -0.17237091     0             -0.014486743   -0.07628777   
   1509500   0.20156565    -0.17566289     0             -0.0094375396  -0.57150599   
   1510000   0.20178692    -0.16378282     0              0.002625009    0.3842584    
   1510500   0.1763472     -0.1639579      0             -0.01852947     0.021110657  
   1511000   0.17470818    -0.16924798     0             -0.025171206    0.13737589   
   1511500   0.1871846     -0.16107053     0             -0.0067048115   0.19976388   
   1512000   0.16198548    -0.16424129     0             -0.030656551    0.087224955  
   1512500   0.14011604    -0.16558276     0             -0.050033117    0.44199306   
   1513000   0.14193687    -0.16590053     0             -0.048849297   -0.39508289   
   1513500   0.14712184    -0.17448401     0             -0.053156889    0.34205411   
   1514000   0.18754474    -0.1719465      0             -0.017283785    0.43306375   
   1514500   0.17022659    -0.16817595     0             -0.027795002   -0.47874342   
   1515000   0.13383345    -0.16902077     0             -0.058652197    0.63698672   
   1515500   0.14420387    -0.17196359     0             -0.053042834    0.40502486   
   1516000   0.14444209    -0.1766146      0             -0.057497393    0.2071955    
   1516500   0.21009285    -0.17192138     0              0.0013361145   0.13693911   
   1517000   0.17440287    -0.16667852     0             -0.022853521    0.036446101  
   1517500   0.15073085    -0.16833088     0             -0.044027509   -0.38760008   
   1518000   0.16095349    -0.16450487     0             -0.03177118    -0.012595214  
   1518500   0.17179442    -0.17119948     0             -0.029525594   -0.4283277    
   1519000   0.17213757    -0.16727003     0             -0.025313154    0.49220001   
   1519500   0.18927417    -0.16517573     0             -0.0090867998  -0.045294235  
   1520000   0.17942861    -0.16458664     0             -0.016617065    0.36927591   
   1520500   0.15717183    -0.16426555     0             -0.034650495    0.40458165   
   1521000   0.14559929    -0.17312941     0             -0.053057888    0.24791231   
   1521500   0.14360881    -0.16755859     0             -0.049128563    0.21497095   
   1522000   0.1592749     -0.1804986      0             -0.049149205   -0.024128638  
   1522500   0.16139894    -0.17954912     0             -0.046448086   -0.020343945  
   1523000   0.19910392    -0.17885335     0             -0.014658112    0.02134532   
   1523500   0.18424808    -0.17757838     0             -0.025634322    0.068949968  
   1524000   0.15206611    -0.17428563     0             -0.048881106   -0.26405424   
   1524500   0.16557682    -0.17983905     0             -0.043292634   -0.54685825   
   1525000   0.18443084    -0.17295161     0             -0.020856837   -0.25885201   
   1525500   0.18475403    -0.17429835     0             -0.021937044   -0.23254057   
   1526000   0.20033739    -0.17047741     0             -0.0052649653  -0.23185014   
   1526500   0.2046017     -0.17152683     0             -0.0027977301  -0.18367762   
   1527000   0.16708943    -0.17494255     0             -0.037148736   -0.4828221    
   1527500   0.1380036     -0.17369823     0             -0.059890655   -0.02430092   
   1528000   0.13975108    -0.17991578     0             -0.064667106   -0.1138788    
   1528500   0.15375863    -0.17453148     0             -0.047731187   -0.25673128   
   1529000   0.15953915    -0.18134869     0             -0.049781373    0.033541727  
   1529500   0.15667824    -0.17292555     0             -0.043717536   -0.44216728   
   1530000   0.13071362    -0.1781177      0             -0.070321963    0.096634741  
   1530500   0.15321732    -0.17615818     0             -0.049804299   -0.1038476    
   1531000   0.20443275    -0.17827484     0             -0.0096850744   0.37001847   
   1531500   0.20370978    -0.17193383     0             -0.0039402757  -0.2187687    
   1532000   0.19174061    -0.16962937     0             -0.011506444    0.61457524   
   1532500   0.15670099    -0.16972846     0             -0.040501687    0.42702919   
   1533000   0.14334385    -0.177179       0             -0.058967474   -0.074412991  
   1533500   0.14652477    -0.1795133      0             -0.058678561   -0.1023456    
   1534000   0.15222458    -0.17855524     0             -0.053020033    0.22896778   
   1534500   0.14415274    -0.17948248     0             -0.060603888    0.064684602  
   1535000   0.17344192    -0.17527037     0             -0.032237836    0.18803317   
   1535500   0.15581535    -0.17739255     0             -0.048896138    0.25830984   
   1536000   0.18945607    -0.17404312     0             -0.017804177   -0.22353824   
   1536500   0.1834275     -0.17491638     0             -0.023649032    0.12498734   
   1537000   0.18681715    -0.16586694     0             -0.011804245   -0.19055069   
   1537500   0.15260252    -0.17419566     0             -0.048348782   -0.59161548   
   1538000   0.18308172    -0.17741523     0             -0.026433033   -0.067871809  
   1538500   0.19859125    -0.17629393     0             -0.012521476    0.5662008    
   1539000   0.19248088    -0.17151601     0             -0.012782606   -0.42347774   
   1539500   0.18522079    -0.16360283     0             -0.010856607   -0.13607532   
   1540000   0.16443687    -0.17559025     0             -0.039983921   -0.00098423622
   1540500   0.18136339    -0.17955553     0             -0.029990388   -0.089644922  
   1541000   0.17294251    -0.17316081     0             -0.03054013    -0.09213603   
   1541500   0.15120833    -0.17358597     0             -0.048888844    0.48301475   
   1542000   0.16457939    -0.17665641     0             -0.040932547   -0.33059827   
   1542500   0.18731272    -0.18172841     0             -0.02725703     0.59316012   
   1543000   0.18062525    -0.18063952     0             -0.031683104   -0.53284524   
   1543500   0.13430711    -0.18446465     0             -0.073705464    0.71641003   
   1544000   0.16924121    -0.18194376     0             -0.042375431   -0.41465062   
   1544500   0.14898036    -0.18409855     0             -0.061238756    0.45991856   
   1545000   0.16365405    -0.17562085     0             -0.040660087   -0.13673956   
   1545500   0.14710556    -0.18648369     0             -0.065169991    0.27674907   
   1546000   0.14651726    -0.17950015     0             -0.058671608   -0.051544075  
   1546500   0.15601916    -0.17862055     0             -0.049956059   -0.62648375   
   1547000   0.17936438    -0.18027302     0             -0.032356413    1.0146983    
   1547500   0.19418935    -0.17698415     0             -0.016841811    0.22985672   
   1548000   0.12287232    -0.18653696     0             -0.085207717   -0.26313237   
   1548500   0.11144025    -0.19011891     0             -0.098217355   -0.019709211  
   1549000   0.1378522     -0.19011622     0             -0.076433502   -0.24528071   
   1549500   0.20003733    -0.17092094     0             -0.0059559403   0.25872944   
   1550000   0.17689125    -0.17796792     0             -0.032090822    0.27758808   
   1550500   0.19951331    -0.18064534     0             -0.016112486    0.11032174   
   1551000   0.1951189     -0.17797691     0             -0.017068003    0.39590602   
   1551500   0.22521439    -0.18307169     0              0.0026560956   0.23641139   
   1552000   0.22086986    -0.17438845     0              0.0077565271   0.21234471   
   1552500   0.19328031    -0.17395357     0             -0.014560891    0.46788009   
   1553000   0.19468651    -0.16939034     0             -0.0088380049  -0.34559069   
   1553500   0.15848329    -0.17510558     0             -0.044409       0.10313335   
   1554000   0.1680505     -0.17911197     0             -0.040525589    0.47591209   
   1554500   0.13912398    -0.18510739     0             -0.070375872    0.10811623   
   1555000   0.16201811    -0.18573402     0             -0.052122373   -0.29678002   
   1555500   0.15163084    -0.18102543     0             -0.055979864   -0.13251179   
   1556000   0.13577072    -0.18507713     0             -0.073110942    0.16025849   
   1556500   0.16299319    -0.19087332     0             -0.056457553   -0.46787405   
   1557000   0.18854953    -0.18456345     0             -0.029072109    0.014241381  
   1557500   0.1565083     -0.18302464     0             -0.053956771    0.012682466  
   1558000   0.15444957    -0.18494185     0             -0.057571762    0.51962988   
   1558500   0.18333939    -0.17862308     0             -0.027428395    0.17233845   
   1559000   0.15943398    -0.18828652     0             -0.056805938    0.064538862  
   1559500   0.16334079    -0.18224652     0             -0.047544103   -0.2256675    
   1560000   0.20306356    -0.17243771     0             -0.0049770738   0.25365145   
   1560500   0.16567714    -0.17146755     0             -0.03483841    -0.36430731   
   1561000   0.17037427    -0.18026909     0             -0.039766361   -0.89283692   
   1561500   0.13530356    -0.18081636     0             -0.06923543    -0.18209058   
   1562000   0.13994803    -0.1818954      0             -0.066484305   -0.2772422    
   1562500   0.17170357    -0.17553832     0             -0.033939361   -0.34864491   
   1563000   0.13225067    -0.18447596     0             -0.075412662    0.063093926  
   1563500   0.16554117    -0.1911137      0             -0.054596688   -0.51929533   
   1564000   0.1847961     -0.18281032     0             -0.030414331    0.24089342   
   1564500   0.15185144    -0.18256676     0             -0.057339265    0.27410264   
   1565000   0.17266584    -0.18295461     0             -0.040562095   -0.06983887   
   1565500   0.15345143    -0.18068653     0             -0.054139578    0.25262368   
   1566000   0.13658501    -0.18923255     0             -0.076594842    0.04520552   
   1566500   0.15301498    -0.18735969     0             -0.061172668   -0.48949616   
   1567000   0.15900459    -0.18204506     0             -0.050918578    0.14210858   
   1567500   0.13958798    -0.18822646     0             -0.073112293    0.011790007  
   1568000   0.16462871    -0.18438117     0             -0.048616639   -0.47441273   
   1568500   0.15490358    -0.18155632     0             -0.053811816   -0.16786683   
   1569000   0.16943024    -0.18108581     0             -0.041361599   -0.61256559   
   1569500   0.14037897    -0.17826815     0             -0.062501677   -0.1301716    
   1570000   0.14993887    -0.18408605     0             -0.060435803   -0.28983764   
   1570500   0.145675      -0.18357629     0             -0.06344233    -0.029757932  
   1571000   0.16001209    -0.18100384     0             -0.049046497    0.069205729  
   1571500   0.183181      -0.18164725     0             -0.030583189    0.3518495    
   1572000   0.1753152     -0.18304539     0             -0.038468023    0.85037354   
   1572500   0.17491095    -0.18164348     0             -0.037399481   -0.18233894   
   1573000   0.14442526    -0.19186257     0             -0.072759237   -0.20031661   
   1573500   0.10283592    -0.19329862     0             -0.10849281    -0.011638927  
   1574000   0.12428452    -0.1960238      0             -0.093529952    0.52319728   
   1574500   0.19680804    -0.17896379     0             -0.016661894    0.12233427   
   1575000   0.14938544    -0.18964999     0             -0.066456134    0.14799132   
   1575500   0.14343222    -0.18774139     0             -0.06945699     0.62102206   
   1576000   0.16718195    -0.18901853     0             -0.051148417   -0.060465407  
   1576500   0.21797914    -0.19354446     0             -0.013783368   -0.14917046   
   1577000   0.14221942    -0.1854308      0             -0.068146567    0.096202105  
   1577500   0.15986894    -0.19105891     0             -0.059219623    0.14369132   
   1578000   0.13798465    -0.19287891     0             -0.079086969   -0.16990205   
   1578500   0.14831486    -0.19321316     0             -0.070902184    0.080196055  
   1579000   0.14849005    -0.19474588     0             -0.072290434   -0.80397258   
   1579500   0.15372064    -0.20144923     0             -0.074680267   -0.075779908  
   1580000   0.15872933    -0.18867394     0             -0.057774452    0.27981034   
   1580500   0.14790394    -0.19547838     0             -0.073506278   -0.30212139   
   1581000   0.14767108    -0.19388361     0             -0.072103549   -0.48149291   
   1581500   0.18347771    -0.1850218      0             -0.03371304    -0.16629785   
   1582000   0.21079114    -0.18376197     0             -0.0099286231  -0.16031248   
   1582500   0.19434326    -0.18076282     0             -0.02049356    -0.40929505   
   1583000   0.2153508     -0.17897246     0             -0.0013788909   0.324528     
   1583500   0.18369482    -0.17519133     0             -0.023703523    0.39988842   
   1584000   0.17549692    -0.17577415     0             -0.031046921   -0.023638821  
   1584500   0.22459994    -0.17874655     0              0.0064745194  -0.1120166    
   1585000   0.19095829    -0.17935298     0             -0.02187521     0.013754657  
   1585500   0.16052053    -0.17880655     0             -0.046429917   -0.20064232   
   1586000   0.1549258     -0.17700298     0             -0.049240162    0.016470494  
   1586500   0.15470381    -0.18468432     0             -0.057104567   -0.23622569   
   1587000   0.1694335     -0.18069034     0             -0.040963436   -0.54017822   
   1587500   0.17468661    -0.17788991     0             -0.033830919   -0.40093755   
   1588000   0.18359973    -0.17405548     0             -0.022646092   -0.45871914   
   1588500   0.15408625    -0.17830381     0             -0.051233345    0.13204521   
   1589000   0.20210443    -0.17107475     0             -0.0044050782   0.015475943  
   1589500   0.15122574    -0.1816273      0             -0.056915808    0.17601445   
   1590000   0.14812385    -0.18083817     0             -0.058684725   -0.61086088   
   1590500   0.15688639    -0.19108474     0             -0.061705084    0.16860513   
   1591000   0.20646787    -0.18075798     0             -0.010489897    0.27601399   
   1591500   0.21495113    -0.17812827     0             -0.00086429747 -0.71709852   
   1592000   0.17209452    -0.17830345     0             -0.036382082   -0.14118481   
   1592500   0.13876483    -0.18052645     0             -0.066091108    0.37314518   
   1593000   0.14644507    -0.18834043     0             -0.06757142    -0.17443059   
   1593500   0.19398108    -0.18058222     0             -0.020611645   -0.39101233   
   1594000   0.1691054     -0.18285018     0             -0.043393856   -0.0056262033 
   1594500   0.16737971    -0.18678386     0             -0.048750661    0.00033541417
   1595000   0.16370351    -0.18575952     0             -0.050757983    0.11723933   
   1595500   0.20409682    -0.18305244     0             -0.014739697    0.56104218   
   1596000   0.15708288    -0.17929602     0             -0.049754318    0.40102356   
   1596500   0.15438533    -0.18463633     0             -0.05731921     0.21215129   
   1597000   0.19362119    -0.19084084     0             -0.031167048    0.52323863   
   1597500   0.18538215    -0.18640948     0             -0.033530187    0.096374749  
   1598000   0.19156944    -0.18558717     0             -0.027605397   -0.041420759  
   1598500   0.15106233    -0.18290574     0             -0.058329008   -0.8935002    
   1599000   0.13945498    -0.18419318     0             -0.069188692   -0.14648824   
   1599500   0.19805045    -0.18723501     0             -0.023908539   -0.1934824    
   1600000   0.17988536    -0.18156633     0             -0.033220087    0.097394719  
   1600500   0.17822285    -0.17820351     0             -0.031228279    0.045337192  
   1601000   0.2066372     -0.17821444     0             -0.0078067168   0.38400181   
   1601500   0.17784748    -0.18072935     0             -0.034063675   -0.32822628   
   1602000   0.20960283    -0.18363952     0             -0.01078613    -0.21562697   
   1602500   0.23934099    -0.1706194      0              0.026758186   -0.51168449   
   1603000   0.19298802    -0.17557759     0             -0.016425958    0.13605807   
   1603500   0.18388692    -0.17711082     0             -0.025464601   -0.021909728  
   1604000   0.21170579    -0.17315062     0              0.0014370225  -0.11028164   
   1604500   0.21190383    -0.16274518     0              0.012005772   -0.31323683   
   1605000   0.16628159    -0.17302712     0             -0.035899503   -0.31261367   
   1605500   0.1416599     -0.17216286     0             -0.055340042   -0.15077534   
   1606000   0.15516558    -0.1770427      0             -0.049082131   -0.3375412    
   1606500   0.13906951    -0.17815614     0             -0.063469547    0.094741304  
   1607000   0.15294442    -0.17769628     0             -0.05156745    -0.30838276   
   1607500   0.19257267    -0.17490746     0             -0.016098354    0.60380149   
   1608000   0.1615092     -0.17998915     0             -0.046797193    0.29661818   
   1608500   0.15427913    -0.17875189     0             -0.051522359   -0.23413649   
   1609000   0.16916173    -0.18015863     0             -0.04065584     0.32136036   
   1609500   0.17093976    -0.17057349     0             -0.029604421    0.64270093   
   1610000   0.14673564    -0.1788446      0             -0.057835968    0.37082892   
   1610500   0.20346806    -0.17025475     0             -0.0024605311   0.30392399   
   1611000   0.13371503    -0.17134965     0             -0.061078731   -0.51584517   
   1611500   0.12339136    -0.17778531     0             -0.076028025   -0.25936375   
   1612000   0.12823198    -0.18043132     0             -0.074682116   -0.14347011   
   1612500   0.13449071    -0.17967347     0             -0.068762868    0.26241792   
   1613000   0.16066004    -0.17513627     0             -0.042644584   -0.28594648   
   1613500   0.16662884    -0.1760894      0             -0.038675418   -0.41402494   
   1614000   0.14823934    -0.17518709     0             -0.052938398    0.22456391   
   1614500   0.1333994     -0.1764273      0             -0.066416676    0.10706584   
   1615000   0.13072287    -0.17994627     0             -0.072142905    0.15836375   
   1615500   0.14661744    -0.17493032     0             -0.054019165   -0.33051663   
   1616000   0.12954515    -0.17823652     0             -0.071404386   -0.040357991  
   1616500   0.11328246    -0.18173858     0             -0.088317815   -0.11088905   
   1617000   0.12390449    -0.1873826      0             -0.08520216     0.38248073   
   1617500   0.11917643    -0.19149198     0             -0.093210629   -0.45278525   
   1618000   0.15861843    -0.18717706     0             -0.05636904     0.18301331   
   1618500   0.20630076    -0.19144656     0             -0.02131629     0.31779709   
   1619000   0.1651245     -0.18088704     0             -0.044713643   -0.11602091   
   1619500   0.16542735    -0.18048539     0             -0.044062237    0.21411966   
   1620000   0.14516177    -0.18389972     0             -0.06418901    -0.10069651   
   1620500   0.1566321     -0.18267242     0             -0.05350246     0.17165808   
   1621000   0.12148502    -0.18799631     0             -0.087811135    0.14244984   
   1621500   0.14333325    -0.18245536     0             -0.064252576    0.10674349   
   1622000   0.19317738    -0.18400802     0             -0.024700223    0.11735047   
   1622500   0.17787162    -0.18077566     0             -0.034090082   -0.085350172  
   1623000   0.1755175     -0.18713996     0             -0.042395762   -0.22599793   
   1623500   0.18423022    -0.17896326     0             -0.027033936   -0.021822912  
   1624000   0.17793643    -0.18399426     0             -0.037255242   -0.16042916   
   1624500   0.17468677    -0.17676174     0             -0.032702624   -0.54066618   
   1625000   0.18007681    -0.18119218     0             -0.032688055   -0.067443595  
   1625500   0.17575078    -0.17810094     0             -0.033164364   -0.23974968   
   1626000   0.15494906    -0.17410863     0             -0.04632663     0.38926834   
   1626500   0.14551377    -0.1717415      0             -0.051740509   -0.13571386   
   1627000   0.13863332    -0.17541645     0             -0.061089562   -0.41692015   
   1627500   0.2123638     -0.18257594     0             -0.0074456592   0.12540153   
   1628000   0.20486158    -0.17636826     0             -0.007424839    0.32150928   
   1628500   0.13469865    -0.18577531     0             -0.074693229    0.034569164  
   1629000   0.14035504    -0.17594524     0             -0.060198501    0.2127436    
   1629500   0.13330859    -0.19008128     0             -0.080145546   -0.10501178   
   1630000   0.16986904    -0.17867219     0             -0.038586112   -0.50016865   
   1630500   0.16561389    -0.17772684     0             -0.041149862    0.16692498   
   1631000   0.15883288    -0.17761038     0             -0.046625496    0.18087502   
   1631500   0.13356762    -0.18032098     0             -0.070171626   -0.097711285  
   1632000   0.13461147    -0.17886819     0             -0.067858004   -0.03796456   
   1632500   0.17185656    -0.17985522     0             -0.038130092   -0.20397883   
   1633000   0.15859455    -0.18687522     0             -0.056086885    0.47255154   
   1633500   0.12670921    -0.18295718     0             -0.078463765    0.27293731   
   1634000   0.13661375    -0.19348731     0             -0.080825901    0.18878973   
   1634500   0.1359538     -0.18286284     0             -0.070745679    0.16870264   
   1635000   0.12001481    -0.187781       0             -0.088808258    0.28520362   
   1635500   0.13701371    -0.19344513     0             -0.080453887    1.2543021    
   1636000   0.15448091    -0.1873789      0             -0.059982963   -0.13097833   
   1636500   0.16393684    -0.19093617     0             -0.055742204   -1.0572957    
   1637000   0.16206497    -0.18486061     0             -0.051210319    0.24377477   
   1637500   0.12748539    -0.18879196     0             -0.083658449    0.22780357   
   1638000   0.1749462     -0.19015174     0             -0.045878675   -0.85226534   
   1638500   0.18041772    -0.17711199     0             -0.028326723   -0.13021227   
   1639000   0.15830724    -0.18349241     0             -0.052941018   -0.83510941   
   1639500   0.1734889     -0.18101673     0             -0.037945454    0.73933931   
   1640000   0.16467078    -0.17998627     0             -0.044187042    0.1920683    
   1640500   0.17400954    -0.1806628      0             -0.037162171   -0.14032604   
   1641000   0.14981171    -0.17967993     0             -0.056134556    0.26412086   
   1641500   0.17184267    -0.17814662     0             -0.036432939    0.84116007   
   1642000   0.15655689    -0.18193374     0             -0.052825806    0.032398917  
   1642500   0.19167281    -0.17307979     0             -0.015012775    0.21689462   
   1643000   0.16955876    -0.18229927     0             -0.042469062   -0.12950817   
   1643500   0.16548084    -0.17952205     0             -0.043054793   -0.060300122  
   1644000   0.19490859    -0.17961177     0             -0.018876295    0.027197366  
   1644500   0.20588769    -0.17896533     0             -0.0091757041  -0.10670424   
   1645000   0.18538156    -0.17848166     0             -0.025602853   -0.69614044   
   1645500   0.19133124    -0.17579578     0             -0.018010438   -0.17392284   
   1646000   0.23473443    -0.16450784     0              0.029070856    0.34944652   
   1646500   0.23116471    -0.16016224     0              0.030472607   -0.3346713    
   1647000   0.16538496    -0.17516911     0             -0.038780919   -0.17144776   
   1647500   0.14517067    -0.17500486     0             -0.055286813    0.0068419209 
   1648000   0.11043303    -0.18648821     0             -0.095417284   -0.79581764   
   1648500   0.18656099    -0.17782431     0             -0.023972864    0.01136718   
   1649000   0.16510492    -0.17581293     0             -0.039655683    0.075152503  
   1649500   0.13736333    -0.17609569     0             -0.062816122   -0.15479841   
   1650000   0.17204129    -0.17405065     0             -0.032173175    0.033110569  
   1650500   0.17447703    -0.17151759     0             -0.027631428   -0.20856441   
   1651000   0.16264197    -0.17162839     0             -0.037502266    0.55439908   
   1651500   0.23302291    -0.17206525     0              0.020102001   -0.15338966   
   1652000   0.17630461    -0.16794305     0             -0.022549739   -0.20933765   
   1652500   0.19293378    -0.17250017     0             -0.013393273    0.081367309  
   1653000   0.15068059    -0.17956659     0             -0.05530467     0.13269271   
   1653500   0.18279257    -0.16909237     0             -0.018348628    0.56508086   
   1654000   0.17255222    -0.17636846     0             -0.034069646   -0.013086092  
   1654500   0.23118351    -0.16800122     0              0.02264913    -0.052519511  
   1655000   0.23345839    -0.16439687     0              0.02812951    -0.096589883  
   1655500   0.15609198    -0.16836376     0             -0.039639227    0.29938033   
   1656000   0.14010044    -0.17602742     0             -0.060490643    0.33536934   
   1656500   0.19390384    -0.17069711     0             -0.010790219    0.12570764   
   1657000   0.18119991    -0.17869581     0             -0.029265491    0.86098319   
   1657500   0.15325964    -0.17436659     0             -0.047977808   -0.22787375   
   1658000   0.12985257    -0.18142803     0             -0.074342377    0.54152722   
   1658500   0.1367549     -0.17663584     0             -0.063858036   -0.3411932    
   1659000   0.15250632    -0.18746925     0             -0.061701701   -0.080418771  
   1659500   0.1582325     -0.18787955     0             -0.05738979    -0.3074426    
   1660000   0.18188639    -0.1837632      0             -0.033766759    0.066703121  
   1660500   0.17565379    -0.17616335     0             -0.031306753    0.036340876  
   1661000   0.14796954    -0.17676766     0             -0.054741464   -0.78017845   
   1661500   0.14999913    -0.18035071     0             -0.056650766    0.23400295   
   1662000   0.15326167    -0.18369987     0             -0.05730941    -0.2304119    
   1662500   0.17376559    -0.18443554     0             -0.041136094   -0.25053546   
   1663000   0.18021764    -0.18035181     0             -0.031731539   -0.3400072    
   1663500   0.16112844    -0.18650983     0             -0.053631869   -0.10390574   
   1664000   0.16451581    -0.18301372     0             -0.04734229    -0.4496801    
   1664500   0.17656499    -0.18037709     0             -0.034769054   -0.23580852   
   1665000   0.2013814     -0.1733517      0             -0.0072782956   0.17704056   
   1665500   0.16002052    -0.18106231     0             -0.049098011    0.42435031   
   1666000   0.16833499    -0.17867454     0             -0.039853548   -0.25080774   
   1666500   0.17198413    -0.18014889     0             -0.038318554   -0.22044124   
   1667000   0.17938232    -0.18308328     0             -0.035151872    0.14226374   
   1667500   0.14403806    -0.17560971     0             -0.056825699    0.12267266   
   1668000   0.15919132    -0.18208526     0             -0.050804786    0.54578824   
   1668500   0.16359565    -0.18304864     0             -0.048136038   -0.042744068  
   1669000   0.17566512    -0.17440528     0             -0.029539341    0.17987036   
   1669500   0.12546582    -0.18043792     0             -0.076969886   -0.10465418   
   1670000   0.1594037     -0.17976289     0             -0.04830727    -0.14581749   
   1670500   0.11612916    -0.18325957     0             -0.087491212    0.14517037   
   1671000   0.12660127    -0.18997441     0             -0.085570008   -0.1850156    
   1671500   0.15843375    -0.19060129     0             -0.05994556    -0.38217122   
   1672000   0.13854612    -0.19201765     0             -0.077762682   -0.33668367   
   1672500   0.11282748    -0.19161203     0             -0.098566475   -0.02128755   
   1673000   0.13490299    -0.19442291     0             -0.083172314    0.26471701   
   1673500   0.18061826    -0.18278797     0             -0.033837314    0.15709233   
   1674000   0.18707925    -0.1861764      0             -0.031897551   -0.18804439   
   1674500   0.16971778    -0.17943533     0             -0.039473992    0.22381002   
   1675000   0.21889299    -0.18255871     0             -0.0020440024  -0.64163709   
   1675500   0.19470224    -0.17689512     0             -0.016329816   -0.27614043   
   1676000   0.18644163    -0.18038838     0             -0.026635365    0.089105735  
   1676500   0.15224147    -0.18504544     0             -0.059496303   -0.095646555  
   1677000   0.14398657    -0.17992475     0             -0.061183194   -0.20796716   
   1677500   0.17972942    -0.18163857     0             -0.033420919   -0.43713415   
   1678000   0.19063982    -0.17270225     0             -0.015487115    0.15957628   
   1678500   0.22212004    -0.16489206     0              0.018283909    0.070726417  
   1679000   0.15078397    -0.17380661     0             -0.049459428   -0.19875637   
   1679500   0.13093398    -0.17765396     0             -0.069676495   -0.21364325   
   1680000   0.15117307    -0.17954697     0             -0.054878915    0.0057938508 
   1680500   0.14655517    -0.17634257     0             -0.055482763    0.18261601   
   1681000   0.10806489    -0.18418512     0             -0.095067132   -0.16954229   
   1681500   0.14103725    -0.17792303     0             -0.061613688   -0.44371557   
   1682000   0.12902818    -0.18132942     0             -0.074923615    0.072620607  
   1682500   0.10595855    -0.18619938     0             -0.098818432    0.00084185527
   1683000   0.1303743     -0.18541421     0             -0.077898303    0.5203206    
   1683500   0.16492066    -0.18544601     0             -0.049440721    0.057124854  
   1684000   0.11997255    -0.18498088     0             -0.086042984   -0.27591705   
   1684500   0.18605357    -0.18299331     0             -0.029560318    0.14853914   
   1685000   0.17421214    -0.17922389     0             -0.035556184   -0.22568557   
   1685500   0.14259545    -0.18604304     0             -0.068448699   -0.1303814    
   1686000   0.18892223    -0.1773085      0             -0.021509807    0.12856684   
   1686500   0.17295164    -0.17641703     0             -0.033788821    0.09860184   
   1687000   0.18675245    -0.17933973     0             -0.02533039    -0.24124391   
   1687500   0.17339802    -0.17382513     0             -0.0308288      0.045355664  
   1688000   0.14049349    -0.17761159     0             -0.061750672   -0.02734533   
   1688500   0.15485172    -0.17659042     0             -0.04888869     0.41390031   
   1689000   0.16826902    -0.17502469     0             -0.036258102    0.026019159  
   1689500   0.16092101    -0.1723974      0             -0.039690497   -0.0066320907 
   1690000   0.1940796     -0.1741282      0             -0.014076371   -0.30839304   
   1690500   0.16331358    -0.17601656     0             -0.041336576   -0.093908408  
   1691000   0.19083711    -0.17158706     0             -0.014209215    0.12039419   
   1691500   0.1812423     -0.1737557      0             -0.024290422    0.32469523   
   1692000   0.20001884    -0.17754909     0             -0.012599343   -0.019538889  
   1692500   0.20541798    -0.17333548     0             -0.0039332162  -0.02035716   
   1693000   0.13941624    -0.17720183     0             -0.062229297   -0.27570389   
   1693500   0.18767911    -0.17361945     0             -0.018845916    0.075535354  
   1694000   0.18250877    -0.17776866     0             -0.027258954   -0.085037464  
   1694500   0.18035005    -0.17479672     0             -0.026067257    0.019610884  
   1695000   0.17169218    -0.17418788     0             -0.03259831    -0.0003309354 
   1695500   0.19431692    -0.16869843     0             -0.0084508946  -0.065308767  
   1696000   0.16901807    -0.17502408     0             -0.03563977    -0.47171505   
   1696500   0.18723852    -0.17398403     0             -0.019573848   -0.0036451066 
   1697000   0.16037502    -0.17350274     0             -0.041246111   -0.1450095    
   1697500   0.14622043    -0.1722805      0             -0.051696743    0.21138377   
   1698000   0.16029347    -0.17160512     0             -0.039415743    0.17629197   
   1698500   0.14215051    -0.17017364     0             -0.052946229   -0.19290342   
   1699000   0.13799424    -0.17611193     0             -0.062312079    0.29616006   
   1699500   0.16735871    -0.17207309     0             -0.03405721     0.58963805   
   1700000   0.16193781    -0.17521578     0             -0.041670353   -0.062642097  
   1700500   0.16742341    -0.17350734     0             -0.035438102    0.46248332   
   1701000   0.16855051    -0.18000223     0             -0.041003507   -0.47266567   
   1701500   0.17916742    -0.16891725     0             -0.021163068    0.27400473   
   1702000   0.15966093    -0.17869087     0             -0.04702312     0.01729739   
   1702500   0.15241362    -0.17552859     0             -0.049837488    0.23479894   
   1703000   0.17093946    -0.17060825     0             -0.02963943     0.34565448   
   1703500   0.12691063    -0.17484347     0             -0.070183949   -0.18807886   
   1704000   0.13934372    -0.17953317     0             -0.06462044    -0.11169496   
   1704500   0.11684087    -0.18623425     0             -0.089878975   -0.055413019  
   1705000   0.16639535    -0.1714435      0             -0.034222076   -0.32677143   
   1705500   0.17806227    -0.16666574     0             -0.019822934   -0.54862837   
   1706000   0.1626049     -0.16669802     0             -0.032602465   -0.17089951   
   1706500   0.12218514    -0.16510305     0             -0.064340505    0.19293468   
   1707000   0.1351275     -0.18070295     0             -0.069267212    0.015445338  
   1707500   0.15999965    -0.16826089     0             -0.036313811   -0.12517687   
   1708000   0.1561677     -0.16345215     0             -0.034665168   -0.24249878   
   1708500   0.13555692    -0.17346824     0             -0.061678375   -0.011121528  
   1709000   0.19300197    -0.17258689     0             -0.013423757    0.051231707  
   1709500   0.15917605    -0.17314714     0             -0.041879257   -0.15855889   
   1710000   0.15669593    -0.17779231     0             -0.048569718    0.46690148   
   1710500   0.1433329     -0.1743005      0             -0.056098013   -0.12709022   
   1711000   0.12871163    -0.18344608     0             -0.077301324   -0.005786611  
   1711500   0.1602103     -0.17880121     0             -0.04668041     0.035208168  
   1712000   0.17298414    -0.1719571      0             -0.029302083   -0.15764192   
   1712500   0.12292352    -0.18402251     0             -0.082651041   -0.32650067   
   1713000   0.13139762    -0.18151581     0             -0.073156      -0.33410596   
   1713500   0.12010447    -0.18391875     0             -0.084872073   -0.6664734    
   1714000   0.12787683    -0.18397686     0             -0.07852054     0.032911318  
   1714500   0.14676863    -0.18933967     0             -0.068303831    0.16693741   
   1715000   0.14905097    -0.18410904     0             -0.061191025    0.21665508   
   1715500   0.14983778    -0.18880017     0             -0.065233292    0.70847421   
   1716000   0.15662654    -0.18742956     0             -0.058264193   -0.24786569   
   1716500   0.13287023    -0.18410968     0             -0.07453545    -0.36644695   
   1717000   0.11616695    -0.18923724     0             -0.093437717   -0.21775177   
   1717500   0.13725189    -0.19440376     0             -0.081216101    0.073477655  
   1718000   0.13455643    -0.19451696     0             -0.083552169   -0.13765673   
   1718500   0.17904734    -0.18818876     0             -0.040533598   -0.16812118   
   1719000   0.19979761    -0.1852268      0             -0.020459502    0.33151418   
   1719500   0.14680299    -0.19113812     0             -0.070073941   -0.18784337   
   1720000   0.12762508    -0.18921824     0             -0.083969534    0.12803769   
   1720500   0.16030113    -0.19296639     0             -0.060770684   -0.018539615  
   1721000   0.15510443    -0.18722838     0             -0.059318249    0.39301176   
   1721500   0.13747873    -0.18858801     0             -0.07521328    -0.66091499   
   1722000   0.13694301    -0.18532106     0             -0.072388127   -0.063012895  
   1722500   0.13330275    -0.18265673     0             -0.072725815    0.16625789   
   1723000   0.19935763    -0.17465152     0             -0.010247055   -0.36240732   
   1723500   0.21169113    -0.17634438     0             -0.0017688366  -0.20601398   
   1724000   0.14313552    -0.173096       0             -0.055056284   -0.59154492   
   1724500   0.17482543    -0.17815728     0             -0.033983804    0.32735827   
   1725000   0.15753042    -0.17561024     0             -0.045699466    0.046225121  
   1725500   0.18964614    -0.1675516      0             -0.011155918    0.23215387   
   1726000   0.16608898    -0.17344272     0             -0.036473953   -0.13339018   
   1726500   0.16662035    -0.17164959     0             -0.034242607   -0.28409468   
   1727000   0.16594285    -0.17480928     0             -0.037961013    0.54993037   
   1727500   0.19108697    -0.16799016     0             -0.010406273    0.093793665  
   1728000   0.16437517    -0.16754316     0             -0.031987715    0.53788028   
   1728500   0.13985947    -0.17748575     0             -0.062147694   -0.23924614   
   1729000   0.1383062     -0.17357634     0             -0.059519222    0.20830869   
   1729500   0.16855682    -0.17487834     0             -0.03587441    -0.14664818   
   1730000   0.15371408    -0.17594529     0             -0.049181737    0.086630412  
   1730500   0.16618218    -0.17594939     0             -0.038903753    0.31620714   
   1731000   0.16040749    -0.1744922      0             -0.04220879     0.36260882   
   1731500   0.17349973    -0.18249604     0             -0.039415838   -0.096501991  
   1732000   0.13835136    -0.18373453     0             -0.069640165    0.31540525   
   1732500   0.13891482    -0.19315588     0             -0.078596846    0.01493181   
   1733000   0.16060739    -0.18049408     0             -0.048045817   -0.48566166   
   1733500   0.18463565    -0.18163184     0             -0.029368163   -0.095078401  
   1734000   0.18632366    -0.1849785      0             -0.031322775    0.22071663   
   1734500   0.18266665    -0.1816218      0             -0.030981905    0.083677453  
   1735000   0.12958181    -0.18610234     0             -0.079239975    0.10237613   
   1735500   0.13645757    -0.18719144     0             -0.07465883     0.47855393   
   1736000   0.16164713    -0.17947695     0             -0.046171238    0.52887351   
   1736500   0.1381377     -0.18986668     0             -0.07594852    -0.13499457   
   1737000   0.11735605    -0.19707031     0             -0.10029017    -0.11131219   
   1737500   0.15460172    -0.19221548     0             -0.064719913    0.032944018  
   1738000   0.16272241    -0.1937349      0             -0.059542437    0.34440443   
   1738500   0.17654959    -0.18678084     0             -0.041185505    0.33042917   
   1739000   0.20447537    -0.18407635     0             -0.015451427    0.22644591   
   1739500   0.16091634    -0.18773906     0             -0.055036008   -0.21275397   
   1740000   0.15055736    -0.1919877      0             -0.067827406   -0.747867     
   1740500   0.19578378    -0.18278252     0             -0.021325297   -0.13868084   
   1741000   0.18340036    -0.17839328     0             -0.02714831    -0.82438938   
   1741500   0.18741163    -0.17747914     0             -0.022926199    0.23121068   
   1742000   0.16880759    -0.17768808     0             -0.038477348   -0.15492866   
   1742500   0.14818442    -0.17720354     0             -0.055000142    0.19546993   
   1743000   0.14447832    -0.17553194     0             -0.056384851   -0.0044480238 
   1743500   0.18558409    -0.17917482     0             -0.026128994    0.063636471  
   1744000   0.1830216     -0.17919269     0             -0.028260073    0.14083467   
   1744500   0.15160591    -0.17716745     0             -0.052142453   -0.05786794   
   1745000   0.1707457     -0.17776958     0             -0.036960549   -0.20827235   
   1745500   0.14766198    -0.17569798     0             -0.053925426    0.10761919   
   1746000   0.1456547     -0.18304438     0             -0.06292716    -0.25031137   
   1746500   0.14797384    -0.18307105     0             -0.061041306   -0.42991522   
   1747000   0.15486522    -0.18621821     0             -0.058505341   -0.18106913   
   1747500   0.1407761     -0.18941893     0             -0.073324961    1.086866     
   1748000   0.15629195    -0.18371777     0             -0.054828325    0.095088181  
   1748500   0.20174682    -0.18744371     0             -0.021068944   -0.11462305   
   1749000   0.1601493     -0.19209917     0             -0.060028672   -0.58664719   
   1749500   0.16404451    -0.17727302     0             -0.041990261    0.18307272   
   1750000   0.11751977    -0.18427599     0             -0.087360839    0.18786524   
   1750500   0.14432634    -0.18428696     0             -0.065265209   -0.03335308   
   1751000   0.16643738    -0.19476577     0             -0.057509687    0.077945341  
   1751500   0.19636769    -0.17783052     0             -0.01589177    -0.17017855   
   1752000   0.17233005    -0.17939834     0             -0.037282741   -0.06674702   
   1752500   0.19922417    -0.16913129     0             -0.0048368841   0.39307091   
   1753000   0.15532823    -0.18147348     0             -0.053378784   -0.51500198   
   1753500   0.16710079    -0.18358369     0             -0.04578051    -0.23428684   
   1754000   0.14556109    -0.17746031     0             -0.057420296   -0.0077038044 
   1754500   0.13111742    -0.1779947      0             -0.069865957   -0.39881973   
   1755000   0.13596871    -0.18283184     0             -0.070702379    0.091027018  
   1755500   0.17714964    -0.17866552     0             -0.032575342   -0.75223363   
   1756000   0.16336374    -0.18241528     0             -0.047693931   -0.054666453  
   1756500   0.16408888    -0.18422573     0             -0.04890638     0.077220413  
   1757000   0.1531105     -0.18274099     0             -0.056475194    0.11296146   
   1757500   0.14655885    -0.18649983     0             -0.065636992    0.52879375   
   1758000   0.19707714    -0.18626329     0             -0.023739469    0.13720402   
   1758500   0.16209956    -0.19191992     0             -0.058241102   -0.12980456   
   1759000   0.15813236    -0.18602183     0             -0.05561465    -0.21675174   
   1759500   0.17302091    -0.18431679     0             -0.041631456   -0.21888786   
   1760000   0.20834435    -0.17954084     0             -0.0077252888  -0.073921317  
   1760500   0.17975667    -0.17907567     0             -0.030835552    0.17711384   
   1761000   0.16339256    -0.17130835     0             -0.036563235    0.10828912   
   1761500   0.16867313    -0.17014951     0             -0.031049669   -0.14822138   
   1762000   0.18371028    -0.17140557     0             -0.019905023   -0.16867199   
   1762500   0.18074065    -0.17206464     0             -0.02301306    -0.16423598   
   1763000   0.14542436    -0.17028372     0             -0.05035646     0.2104932    
   1763500   0.14545075    -0.18194016     0             -0.061991137    0.1026743    
   1764000   0.1751616     -0.17402194     0             -0.029571237   -0.20338821   
   1764500   0.15480935    -0.17772058     0             -0.050053794   -0.33927377   
   1765000   0.20739453    -0.17548416     0             -0.004451898    0.22039193   
   1765500   0.16052084    -0.16968531     0             -0.037308421    0.28344825   
   1766000   0.1796423     -0.17580648     0             -0.027660673   -0.0095841387 
   1766500   0.15886594    -0.17270219     0             -0.041690052   -0.5552908    
   1767000   0.12369313    -0.17928428     0             -0.077278135    0.38657632   
   1767500   0.11928286    -0.18478816     0             -0.086419033    0.12659292   
   1768000   0.13402675    -0.18198992     0             -0.071461939   -0.12323618   
   1768500   0.13092103    -0.17962471     0             -0.071657932   -0.43502826   
   1769000   0.17270921    -0.17919035     0             -0.03676206    -0.5428474    
   1769500   0.11988078    -0.18654079     0             -0.087678578    0.081662168  
   1770000   0.17151647    -0.1811652      0             -0.03972054     0.53289626   
   1770500   0.16913413    -0.18080787     0             -0.041327846    0.40860927   
   1771000   0.15559268    -0.18781165     0             -0.059498875    0.37724319   
   1771500   0.18053729    -0.18191513     0             -0.033031251    0.096219426  
   1772000   0.15474136    -0.18332946     0             -0.055718745    0.40324638   
   1772500   0.18398657    -0.1824845      0             -0.030756102    0.45442077   
   1773000   0.15494435    -0.18469183     0             -0.056913709   -0.13091637   
   1773500   0.1402532     -0.18663158     0             -0.070968828    0.19802021   
   1774000   0.15840422    -0.18727634     0             -0.056644964    0.72490758   
   1774500   0.14483102    -0.17905003     0             -0.059612084   -0.070385672  
   1775000   0.15753635    -0.1870536      0             -0.057137928    0.2235252    
   1775500   0.16037774    -0.18187141     0             -0.049612526    0.49054243   
   1776000   0.13312294    -0.18158815     0             -0.07180551    -0.3165981    
   1776500   0.14552303    -0.17940418     0             -0.059395551   -0.18612559   
   1777000   0.16595808    -0.17604437     0             -0.039183542   -0.0071415333 
   1777500   0.15357988    -0.1761318      0             -0.049478917   -0.15903676   
   1778000   0.19551618    -0.1814901      0             -0.020253565    0.049937938  
   1778500   0.18007037    -0.17512174     0             -0.026622919   -0.11610505   
   1779000   0.14063448    -0.1847003      0             -0.068723114    0.10333431   
   1779500   0.16981252    -0.17874573     0             -0.038706256    0.096028513  
   1780000   0.14704004    -0.18506871     0             -0.063809041   -0.22658222   
   1780500   0.1371374     -0.18925568     0             -0.076162432    0.198753     
   1781000   0.10003253    -0.19145202     0             -0.10895809     0.016791969  
   1781500   0.11277827    -0.19824346     0             -0.10523849    -0.37419796   
   1782000   0.13575554    -0.18959643     0             -0.07764277    -0.16128479   
   1782500   0.13427658    -0.19302613     0             -0.08229212    -0.33311306   
   1783000   0.12267859    -0.2001103      0             -0.098940816    0.28007043   
   1783500   0.13062386    -0.20349788     0             -0.095776168    0.59039837   
   1784000   0.17350508    -0.1891568      0             -0.046072185   -0.26534956   
   1784500   0.14979869    -0.1931002      0             -0.069565559    0.042462992  
   1785000   0.1456002     -0.19490575     0             -0.074833479   -0.32215634   
   1785500   0.18464721    -0.20125655     0             -0.048983341   -0.91047434   
   1786000   0.18299829    -0.19137912     0             -0.04046573     0.52730025   
   1786500   0.19023863    -0.18619366     0             -0.029309368    0.25542456   
   1787000   0.17204151    -0.17773643     0             -0.035858774   -0.18691827   
   1787500   0.18009384    -0.17799493     0             -0.029476749    0.16372476   
   1788000   0.17834862    -0.17944884     0             -0.0323699      0.095279723  
   1788500   0.17539606    -0.18410856     0             -0.039464506    0.43583704   
   1789000   0.2064033     -0.18302496     0             -0.012810134   -0.15944592   
   1789500   0.21387192    -0.18628866     0             -0.0099146745  -0.16741553   
   1790000   0.17269366    -0.18665909     0             -0.044243624   -0.0011992017 
   1790500   0.1637485     -0.19003118     0             -0.054992526   -0.14903708   
   1791000   0.1527445     -0.19396183     0             -0.067997863    0.017136949  
   1791500   0.14124277    -0.19143449     0             -0.074955674   -0.16426949   
   1792000   0.1648317     -0.19639588     0             -0.060463951   -0.0055669187 
   1792500   0.15277823    -0.19051417     0             -0.06452238     0.18723494   
   1793000   0.18899532    -0.18873735     0             -0.03287838    -0.047306901  
   1793500   0.12592865    -0.19421892     0             -0.090369213    0.017103055  
   1794000   0.15530657    -0.19052949     0             -0.062452659    0.6103857    
   1794500   0.14417079    -0.19662269     0             -0.077729212    0.34102328   
   1795000   0.14923561    -0.19831941     0             -0.075249127    0.11219121   
   1795500   0.16549054    -0.19012763     0             -0.053652368    0.12797913   
   1796000   0.15307868    -0.19594998     0             -0.069710422   -0.090300783  
   1796500   0.17377778    -0.19430683     0             -0.050997325   -0.34026691   
   1797000   0.18996808    -0.18690707     0             -0.030245892   -0.28921892   
   1797500   0.18266955    -0.18436632     0             -0.033724022    0.13499501   
   1798000   0.15010692    -0.18886026     0             -0.065071424    0.067290714  
   1798500   0.13269916    -0.18707275     0             -0.077639601    0.27199856   
   1799000   0.1492474     -0.18648067     0             -0.063400658   -0.27447149   
   1799500   0.19151501    -0.18874287     0             -0.030805985   -0.051580105  
   1800000   0.17118881    -0.17752023     0             -0.036345775    0.079779084  
   1800500   0.14967838    -0.17781273     0             -0.054377299    0.40154737   
   1801000   0.13050394    -0.19163491     0             -0.084012095   -0.046866585  
   1801500   0.15163685    -0.18843685     0             -0.063386333   -0.36589085   
   1802000   0.16338794    -0.18915962     0             -0.054418311    0.11741153   
   1802500   0.18977351    -0.18680643     0             -0.030305706    0.030957165  
   1803000   0.16256854    -0.18669778     0             -0.052632204    0.52167798   
   1803500   0.17420612    -0.18803969     0             -0.044376939   -0.21404114   
   1804000   0.15811735    -0.18343006     0             -0.053035261   -0.030622022  
   1804500   0.20888789    -0.18276353     0             -0.010499733    0.37907117   
   1805000   0.17236607    -0.17883925     0             -0.036693945   -0.45555759   
   1805500   0.20972011    -0.17985717     0             -0.0069070589  -0.24270919   
   1806000   0.18560359    -0.17939651     0             -0.026334598    0.36616315   
   1806500   0.17959242    -0.18129431     0             -0.033189634   -0.56368405   
   1807000   0.15868239    -0.18232514     0             -0.051464367   -0.2488415    
   1807500   0.15202667    -0.17845729     0             -0.053085291    0.37267575   
   1808000   0.14260733    -0.18009908     0             -0.062494938    0.18271443   
   1808500   0.15716832    -0.17964094     0             -0.050028777    0.20765276   
   1809000   0.20013743    -0.17490293     0             -0.0098553801   0.34574433   
   1809500   0.20414731    -0.1690714      0             -0.00071702405  0.21634835   
   1810000   0.17834811    -0.16977708     0             -0.022698559   -0.082545859  
   1810500   0.22122833    -0.16793283     0              0.014507766    0.48259912   
   1811000   0.20856288    -0.16550982     0              0.0064859476   0.36421372   
   1811500   0.17096845    -0.16233598     0             -0.021343249    0.30341238   
   1812000   0.14709842    -0.16621691     0             -0.044909105    0.24274107   
   1812500   0.10729124    -0.16582279     0             -0.077342809    0.18933297   
   1813000   0.12493283    -0.16701821     0             -0.063989725    0.056066737  
   1813500   0.14730445    -0.1739531      0             -0.052475387   -0.37473138   
   1814000   0.15567536    -0.16536014     0             -0.036979181   -0.040647586  
   1814500   0.13551102    -0.16928218     0             -0.057530172   -0.026653577  
   1815000   0.1447412     -0.16597491     0             -0.04661103    -0.44625565   
   1815500   0.13217868    -0.17348927     0             -0.064485341    0.28471043   
   1816000   0.17445331    -0.17274494     0             -0.028878344    0.066198169  
   1816500   0.1492302     -0.16831684     0             -0.045251017    0.21990099   
   1817000   0.15140921    -0.17477345     0             -0.049910653   -0.10254691   
   1817500   0.13145381    -0.17329848     0             -0.06489232    -0.40562215   
   1818000   0.14072135    -0.17592874     0             -0.059879921   -0.28492842   
   1818500   0.17566973    -0.18269047     0             -0.037820731   -0.44063346   
   1819000   0.15345862    -0.1799896      0             -0.05343672    -0.30183708   
   1819500   0.23451074    -0.17550773     0              0.017886483   -0.29608867   
   1820000   0.20816421    -0.17248935     0             -0.00082234391  0.1314739    
   1820500   0.14205062    -0.16929662     0             -0.052151587    0.12361897   
   1821000   0.1417836     -0.17731762     0             -0.060392792    0.41477782   
   1821500   0.15434029    -0.18156062     0             -0.054280649    0.17201916   
   1822000   0.16669339    -0.17240276     0             -0.034935546   -0.6368891    
   1822500   0.15474232    -0.17568826     0             -0.048076743   -0.66680973   
   1823000   0.18560996    -0.17332434     0             -0.020257178   -0.3083813    
   1823500   0.1534726     -0.17677783     0             -0.050213415    0.13391377   
   1824000   0.14558637    -0.18066631     0             -0.060605447   -0.21004539   
   1824500   0.15633718    -0.17548888     0             -0.046562133    0.5337276    
   1825000   0.13560091    -0.18098692     0             -0.069160779    0.74105751   
   1825500   0.10147874    -0.18273049     0             -0.099043915    0.13538755   
   1826000   0.13161466    -0.18511609     0             -0.076577294    0.29961687   
   1826500   0.12862243    -0.18620226     0             -0.080131068   -0.21103334   
   1827000   0.12438852    -0.19013066     0             -0.087551048    0.81258897   
   1827500   0.14334378    -0.1863181      0             -0.068106631   -0.31150421   
   1828000   0.13504352    -0.18692096     0             -0.07555448    -0.030434132  
   1828500   0.16925045    -0.18285069     0             -0.043274749   -0.27863568   
   1829000   0.14199697    -0.18608473     0             -0.068983943   -0.16109293   
   1829500   0.13332985    -0.18506505     0             -0.075111787    0.20228069   
   1830000   0.15712883    -0.18202338     0             -0.052443786   -0.30280208   
   1830500   0.14312221    -0.18565164     0             -0.0676229     -0.090453756  
   1831000   0.14659191    -0.18905456     0             -0.068164457    0.3607823    
   1831500   0.19018603    -0.17660109     0             -0.019760176   -0.14610455   
   1832000   0.16752927    -0.1728197      0             -0.034663161    0.33329753   
   1832500   0.14602804    -0.18611202     0             -0.065686918    0.26425348   
   1833000   0.13166837    -0.1888809      0             -0.080297813    0.67487643   
   1833500   0.15670514    -0.17627421     0             -0.047044017    0.41708244   
   1834000   0.14692913    -0.17404482     0             -0.052876625   -0.0096486097 
   1834500   0.16687917    -0.17563088     0             -0.038010458   -0.019984741  
   1835000   0.18357766    -0.17541345     0             -0.024022266   -0.62653168   
   1835500   0.14986572    -0.16601586     0             -0.042425943    0.35137932   
   1836000   0.186633      -0.15959608     0             -0.0056852464  -0.97753151   
   1836500   0.13393067    -0.17140408     0             -0.060955329    0.1567044    
   1837000   0.19875687    -0.1714424      0             -0.0075333622   0.28016758   
   1837500   0.14211729    -0.17604416     0             -0.058844147    0.31248995   
   1838000   0.1444135     -0.17432898     0             -0.055235342    0.28840049   
   1838500   0.15250987    -0.16933593     0             -0.043565448   -0.13703685   
   1839000   0.14467074    -0.17541913     0             -0.05611336    -0.19415733   
   1839500   0.14178999    -0.18551208     0             -0.068581985    0.4273277    
   1840000   0.15213124    -0.16629381     0             -0.040835586    0.20900514   
   1840500   0.13628322    -0.17654575     0             -0.064156916    0.19352525   
   1841000   0.14813738    -0.18028788     0             -0.058123271   -0.14774113   
   1841500   0.14955608    -0.17982643     0             -0.056491856   -0.2220687    
   1842000   0.12962503    -0.17797308     0             -0.07107507     0.13095137   
   1842500   0.1219694     -0.18796911     0             -0.087384481    0.22104907   
   1843000   0.14264255    -0.18596607     0             -0.068332883   -0.39363489   
   1843500   0.14995808    -0.19379674     0             -0.070130649   -0.36109387   
   1844000   0.12021276    -0.19456729     0             -0.095431302    0.19032215   
   1844500   0.14658991    -0.19526626     0             -0.074377805   -0.38832427   
   1845000   0.17706595    -0.18495283     0             -0.038931664    0.12441796   
   1845500   0.15115918    -0.1899867      0             -0.065330093   -0.020019781  
   1846000   0.19246756    -0.17667863     0             -0.017956204    0.81720959   
   1846500   0.1519682     -0.18429344     0             -0.058969665    0.1233715    
   1847000   0.1281833     -0.18533634     0             -0.079627281   -0.28664352   
   1847500   0.16737518    -0.18791663     0             -0.049887169   -0.40051669   
   1848000   0.15195554    -0.1832708      0             -0.057957464   -0.011283717  
   1848500   0.13660825    -0.18208916     0             -0.069432292   -0.28143958   
   1849000   0.17845208    -0.19185891     0             -0.044694645   -0.13806068   
   1849500   0.19254141    -0.19022784     0             -0.03144452     0.19846887   
   1850000   0.18856005    -0.1840924      0             -0.028592385    0.47532296   
   1850500   0.1636131     -0.18314015     0             -0.04821316     0.035778238  
   1851000   0.19589722    -0.18948786     0             -0.027937095   -0.19179475   
   1851500   0.19817452    -0.18155931     0             -0.018130522    0.12243042   
   1852000   0.20002937    -0.18670503     0             -0.0217466     -0.3085063    
   1852500   0.13837543    -0.18576381     0             -0.071649603    0.010324564  
   1853000   0.14596234    -0.18927768     0             -0.068906765   -0.11462635   
   1853500   0.13826717    -0.19447928     0             -0.080454345   -0.29047871   
   1854000   0.1846501     -0.18911936     0             -0.036843775    0.37449248   
   1854500   0.14802141    -0.18612659     0             -0.064057617    0.066122383  
   1855000   0.15751651    -0.18142692     0             -0.051527614   -0.018485272  
   1855500   0.12043579    -0.18954256     0             -0.090222653   -0.14116004   
   1856000   0.13822732    -0.19013197     0             -0.076139905   -0.43250792   
   1856500   0.13498459    -0.18904424     0             -0.077726353    0.16655539   
   1857000   0.17583952    -0.18967993     0             -0.044670174   -0.028747748  
   1857500   0.21621228    -0.1855927      0             -0.0072886894   0.091393201  
   1858000   0.18876058    -0.18651198     0             -0.030846594   -0.006991855  
   1858500   0.15883059    -0.17924818     0             -0.048265193    0.038279131  
   1859000   0.1493916     -0.19177341     0             -0.068574474    0.24833553   
   1859500   0.11933869    -0.19427076     0             -0.095855598    0.12848275   
   1860000   0.16710221    -0.19150221     0             -0.053697858   -0.24641952   
   1860500   0.13360068    -0.18666194     0             -0.076485326    0.17338651   
   1861000   0.15669206    -0.18995534     0             -0.06073593    -0.51868503   
   1861500   0.14296776    -0.18905382     0             -0.071152446    0.35598419   
   1862000   0.16041542    -0.18384142     0             -0.051551464   -0.37369233   
   1862500   0.15287426    -0.17915661     0             -0.053085633    0.30696798   
   1863000   0.13198037    -0.18548042     0             -0.076640025   -0.96525397   
   1863500   0.15836364    -0.18679397     0             -0.056196056    0.31912065   
   1864000   0.13350171    -0.18566182     0             -0.075566829    0.13045862   
   1864500   0.1874313     -0.17982076     0             -0.025251601    0.21114925   
   1865000   0.21113725    -0.17088624     0              0.0032325403   0.12318741   
   1865500   0.19190049    -0.18202344     0             -0.023768656   -0.067871937  
   1866000   0.15451036    -0.18110273     0             -0.053682509    0.054899727  
   1866500   0.17365966    -0.18507477     0             -0.041862673    0.38560855   
   1867000   0.14981563    -0.18531594     0             -0.061767326    0.53133473   
   1867500   0.15129778    -0.18765274     0             -0.062881844    0.25497007   
   1868000   0.14629887    -0.18711414     0             -0.06646569    -0.53735263   
   1868500   0.17191808    -0.17753669     0             -0.035760823    0.30510406   
   1869000   0.18029226    -0.18317487     0             -0.034493061    0.20493741   
   1869500   0.18646534    -0.17856106     0             -0.024788493   -0.16632225   
   1870000   0.18657577    -0.18508016     0             -0.031216519    0.17772562   
   1870500   0.1626426     -0.18359578     0             -0.049469136    0.16633528   
   1871000   0.13338837    -0.18554665     0             -0.075545119   -0.12379436   
   1871500   0.15963996    -0.17419459     0             -0.042544128    0.043118596  
   1872000   0.19485039    -0.18085247     0             -0.020164995    0.032010187  
   1872500   0.17291       -0.17496604     0             -0.032372174    0.22043171   
   1873000   0.20623791    -0.17142492     0             -0.0013464822   0.058234897  
   1873500   0.19296245    -0.17592299     0             -0.016792439   -0.012024337  
   1874000   0.19641461    -0.17594836     0             -0.013970919   -0.33722166   
   1874500   0.17636271    -0.17425979     0             -0.02881857    -0.028491901  
   1875000   0.17285787    -0.16600115     0             -0.023450269   -0.56867025   
   1875500   0.17964323    -0.17332544     0             -0.025178865   -0.16430649   
   1876000   0.21377453    -0.16624697     0              0.010046696    0.3282991    
   1876500   0.14166541    -0.17714332     0             -0.06031596    -0.40087332   
   1877000   0.16432998    -0.17137071     0             -0.035852535   -0.21987121   
   1877500   0.15285774    -0.173739       0             -0.047681647    0.13206457   
   1878000   0.16818477    -0.18152033     0             -0.042823214    0.68383426   
   1878500   0.18060807    -0.17080196     0             -0.021859717   -0.20109942   
   1879000   0.14755492    -0.17492054     0             -0.053236269    0.14068247   
   1879500   0.13046674    -0.18431973     0             -0.076727583    0.44926528   
   1880000   0.1415656     -0.17770049     0             -0.060955437   -0.54895124   
   1880500   0.14047995    -0.18159751     0             -0.065747762   -0.37426216   
   1881000   0.13576823    -0.18810599     0             -0.076141863    0.31437269   
   1881500   0.13888967    -0.1885481      0             -0.07400981    -0.20010671   
   1882000   0.19146029    -0.17543255     0             -0.017540795   -0.30598462   
   1882500   0.20251152    -0.18010373     0             -0.013098342   -0.024272657  
   1883000   0.21383851    -0.16768014     0              0.0086662935  -0.31721753   
   1883500   0.17215653    -0.16487977     0             -0.022907267   -0.12720213   
   1884000   0.2014466     -0.16848493     0             -0.0023577567  -0.30876664   
   1884500   0.14811147    -0.16407512     0             -0.041931883   -0.46092632   
   1885000   0.15093265    -0.16906726     0             -0.044597472   -0.033719303  
   1885500   0.18032114    -0.17250079     0             -0.02379516    -0.027767099  
   1886000   0.14422841    -0.16733896     0             -0.048397962    0.4924104    
   1886500   0.1547445     -0.17028203     0             -0.042668717    0.33678073   
   1887000   0.1741446     -0.16952804     0             -0.025916034    0.78508117   
   1887500   0.14304145    -0.17183994     0             -0.053877791   -0.2047161    
   1888000   0.1526254     -0.1741671      0             -0.048301347    0.056264995  
   1888500   0.14288376    -0.17907905     0             -0.061246949   -0.25282539   
   1889000   0.21513347    -0.17433492     0              0.0030794216   0.29536389   
   1889500   0.23563267    -0.16800859     0              0.026310844    0.38555546   
   1890000   0.1774564     -0.16558        0             -0.019236848   -0.32071238   
   1890500   0.15792037    -0.16806776     0             -0.037835403    0.0046263314 
   1891000   0.14154061    -0.16773512     0             -0.051010677   -0.30522334   
   1891500   0.13781923    -0.1691347      0             -0.055479167   -0.18766357   
   1892000   0.13491759    -0.17077612     0             -0.059513488   -0.75930093   
   1892500   0.14367364    -0.1685723      0             -0.050088806    0.198087     
   1893000   0.19637743    -0.16333487     0             -0.0013880877  -0.71761286   
   1893500   0.16856049    -0.16724394     0             -0.028236988   -0.080133118  
   1894000   0.17743373    -0.16734811     0             -0.021023647   -0.21943601   
   1894500   0.1578299     -0.16911164     0             -0.038953894   -0.21930507   
   1895000   0.20503263    -0.15677161     0              0.012312859    0.45187218   
   1895500   0.16420582    -0.16507979     0             -0.029664002    0.092216949  
   1896000   0.17267048    -0.16580462     0             -0.023408267   -0.48326386   
   1896500   0.19957614    -0.16118621     0              0.0033984545  -1.1995814    
   1897000   0.14541115    -0.16547906     0             -0.045562691   -0.019661707  
   1897500   0.15100533    -0.17348994     0             -0.048960208    0.32564035   
   1898000   0.1832352     -0.1678804      0             -0.016771636   -0.37472041   
   1898500   0.17568931    -0.16615967     0             -0.021273781   -0.2045835    
   1899000   0.13616245    -0.16585201     0             -0.053562782   -0.060833707  
   1899500   0.22033546    -0.1667423      0              0.014961976   -0.0067185748 
   1900000   0.16618836    -0.1618896      0             -0.024838874    0.22003792   
   1900500   0.21939897    -0.167389       0              0.013542979    0.11544355   
   1901000   0.17765566    -0.17176162     0             -0.025254145    0.11984792   
   1901500   0.15160579    -0.16638611     0             -0.041361201   -0.25017943   
   1902000   0.1862535     -0.16677056     0             -0.013172688    0.30076339   
   1902500   0.17145426    -0.16927651     0             -0.027883146   -0.40489748   
   1903000   0.18181114    -0.17085359     0             -0.020919206   -0.23555084   
   1903500   0.16587397    -0.17147144     0             -0.034679975   -0.33532898   
   1904000   0.22603909    -0.16118811     0              0.025219786   -0.68551985   
   1904500   0.22944757    -0.16247567     0              0.0267431      0.070766296  
   1905000   0.19551974    -0.15874199     0              0.0024974782  -0.48635484   
   1905500   0.20526041    -0.1633202      0              0.005952119   -0.63986937   
   1906000   0.15852401    -0.1697564      0             -0.03902624     0.42685219   
   1906500   0.15408627    -0.17410861     0             -0.04703812     0.32414074   
   1907000   0.18214809    -0.16840451     0             -0.018192254    0.051224103  
   1907500   0.1998195     -0.17676527     0             -0.011979914   -0.081125029  
   1908000   0.16518994    -0.16912739     0             -0.032900025   -0.34458893   
   1908500   0.15101659    -0.17227056     0             -0.047731557    0.49957377   
   1909000   0.16660311    -0.17256716     0             -0.035174393    0.11479788   
   1909500   0.16422211    -0.17233942     0             -0.0369102      0.22391978   
   1910000   0.15410564    -0.17924064     0             -0.052154185    0.21217676   
   1910500   0.15655008    -0.17923233     0             -0.050130011    0.3696473    
   1911000   0.18475721    -0.18073764     0             -0.028373715   -0.24663242   
   1911500   0.20744055    -0.1699478      0              0.0011224146   0.14070446   
   1912000   0.18742748    -0.16170975     0             -0.0071437346  -0.25795199   
   1912500   0.13997016    -0.17367468     0             -0.058245338    0.15702536   
   1913000   0.18118736    -0.17211991     0             -0.022699938    0.10850196   
   1913500   0.21501268    -0.16920616     0              0.0081085751   0.20843911   
   1914000   0.22122493    -0.16899068     0              0.013447115    0.50432764   
   1914500   0.17646813    -0.16642347     0             -0.02089531    -0.043844192  
   1915000   0.18565679    -0.16627094     0             -0.013165152   -0.38951944   
   1915500   0.17574874    -0.17134099     0             -0.026406098   -0.044589871  
   1916000   0.17618411    -0.18009832     0             -0.034804387   -0.097569176  
   1916500   0.20447259    -0.17782706     0             -0.0092044336  -0.0046529241 
   1917000   0.23819624    -0.17024066     0              0.026192883   -0.46625963   
   1917500   0.19593103    -0.17262989     0             -0.011051248   -0.44444323   
   1918000   0.17997726    -0.17544522     0             -0.027023188   -0.34398615   
   1918500   0.1939928     -0.17483751     0             -0.014857257    0.066623862  
   1919000   0.15776633    -0.17784584     0             -0.047740511    0.40250466   
   1919500   0.16346055    -0.16523578     0             -0.030434596    0.30042944   
   1920000   0.19187965    -0.17281404     0             -0.014576446    0.24284117   
   1920500   0.14956946    -0.17798239     0             -0.054636782   -0.06115901   
   1921000   0.133597      -0.17638701     0             -0.066213435    0.047463854  
   1921500   0.14055458    -0.16523155     0             -0.049320258    0.17358874   
   1922000   0.17531125    -0.17438775     0             -0.029813635   -0.4463174    
   1922500   0.13826571    -0.17145471     0             -0.057430982   -0.1024695    
   1923000   0.18842984    -0.17636929     0             -0.020976661   -0.60067381   
   1923500   0.16081439    -0.17377009     0             -0.041151117   -0.017139817  
   1924000   0.16408648    -0.17436136     0             -0.03904399     0.3040113    
   1924500   0.15409718    -0.1761702      0             -0.049090711   -0.31400525   
   1925000   0.16970544    -0.18034778     0             -0.040396617    0.31137894   
   1925500   0.2195838     -0.17516825     0              0.005916152    0.1045985    
   1926000   0.16053487    -0.17419136     0             -0.041802899   -0.3417766    
   1926500   0.12923068    -0.18307947     0             -0.076506662    0.21419953   
   1927000   0.15108039    -0.18196693     0             -0.057375313   -0.13401903   
   1927500   0.1423149     -0.18570684     0             -0.06834386    -0.055903852  
   1928000   0.17306667    -0.1791742      0             -0.036451123    0.077422368  
   1928500   0.19587665    -0.17975766     0             -0.018223852    0.26064786   
   1929000   0.19181482    -0.1820793      0             -0.023895172   -0.14432496   
   1929500   0.13735429    -0.18475911     0             -0.071487008   -0.039651807  
   1930000   0.13442078    -0.17631395     0             -0.065461029    0.56828643   
   1930500   0.1853802     -0.17937908     0             -0.026501397    0.49530282   
   1931000   0.15238783    -0.18482838     0             -0.05915855    -0.1482354    
   1931500   0.13711494    -0.18063532     0             -0.067560598    0.4395758    
   1932000   0.20481578    -0.18510116     0             -0.016195515    0.37683873   
   1932500   0.14467764    -0.18739998     0             -0.068088521   -0.2116018    
   1933000   0.12362163    -0.18985156     0             -0.087904379   -0.056772708  
   1933500   0.11888967    -0.18886315     0             -0.090818281   -0.33861776   
   1934000   0.17191463    -0.188426       0             -0.046652981   -0.25105071   
   1934500   0.16958219    -0.18975758     0             -0.049908055    0.058090579  
   1935000   0.17234225    -0.18496943     0             -0.042843766   -0.22336701   
   1935500   0.14877359    -0.18400951     0             -0.061320234    0.19300311   
   1936000   0.12205108    -0.1922034      0             -0.09155141     0.099032899  
   1936500   0.16722411    -0.19067445     0             -0.05276957     0.50278925   
   1937000   0.18982503    -0.18174257     0             -0.025199359    0.22630041   
   1937500   0.15887759    -0.18561778     0             -0.054596035    0.14978867   
   1938000   0.16216469    -0.18162065     0             -0.047888131   -0.72656904   
   1938500   0.1897916     -0.18171451     0             -0.025198875   -0.16698      
   1939000   0.1668835     -0.1810723      0             -0.043448309    0.38807359   
   1939500   0.11774404    -0.18272932     0             -0.08562922    -0.36520474   
   1940000   0.13588514    -0.18615568     0             -0.074095137    0.18707466   
   1940500   0.13903125    -0.18719264     0             -0.072537592   -0.42140752   
   1941000   0.12610238    -0.18825874     0             -0.084265755   -0.16289163   
   1941500   0.14690939    -0.18882152     0             -0.067669596    0.31944721   
   1942000   0.14397394    -0.18514166     0             -0.066410519    0.40362989   
   1942500   0.11540491    -0.18478076     0             -0.08960967     0.16348553   
   1943000   0.1285584     -0.18858648     0             -0.082568094   -0.37074551   
   1943500   0.1274525     -0.19077518     0             -0.085668789    0.87155581   
   1944000   0.20325458    -0.18482922     0             -0.01721105    -0.37597403   
   1944500   0.18727351    -0.18924913     0             -0.034810092   -0.25402495   
   1945000   0.18815579    -0.18007247     0             -0.024905829   -0.078971903  
   1945500   0.16791428    -0.17683268     0             -0.038358634    0.25861955   
   1946000   0.14660905    -0.17840335     0             -0.057499109    0.083017073  
   1946500   0.14163437    -0.17487174     0             -0.058069976    0.068564752  
   1947000   0.20052672    -0.16352672     0              0.0018418615  -0.24964346   
   1947500   0.16118019    -0.16955412     0             -0.036633481    0.44741336   
   1948000   0.13085689    -0.17413952     0             -0.066225629    0.065028884  
   1948500   0.1206421     -0.17630646     0             -0.076816412   -0.22297108   
   1949000   0.11479131    -0.1802724      0             -0.085607323   -0.1888856    
   1949500   0.10722085    -0.18772757     0             -0.099305637   -0.16026983   
   1950000   0.12787752    -0.19432174     0             -0.088864848    0.10366679   
   1950500   0.19170432    -0.18616894     0             -0.028075934    0.39176719   
   1951000   0.2049303     -0.17572178     0             -0.006721698   -0.084243338  
   1951500   0.1665428     -0.17995068     0             -0.042607656   -0.10865029   
   1952000   0.16680569    -0.1786317      0             -0.041071877    0.55202009   
   1952500   0.17054958    -0.17952169     0             -0.03887439    -0.13572641   
   1953000   0.17776257    -0.18193539     0             -0.035339745   -0.049699413  
   1953500   0.13762893    -0.18406426     0             -0.070565663    0.28217003   
   1954000   0.19661504    -0.17870789     0             -0.016565162    0.49187146   
   1954500   0.19195271    -0.17658899     0             -0.018291153    0.016152694  
   1955000   0.16044727    -0.18292543     0             -0.050609212    0.25049419   
   1955500   0.16964903    -0.17903461     0             -0.039129961   -0.45711401   
   1956000   0.14018555    -0.18044556     0             -0.064838597   -0.24436324   
   1956500   0.12260773    -0.18368586     0             -0.082574813    0.11357056   
   1957000   0.15281976    -0.18112096     0             -0.055094934   -0.37720544   
   1957500   0.1663029     -0.17895316     0             -0.041807972   -0.25315918   
   1958000   0.19701175    -0.18479844     0             -0.022328559    0.078840105  
   1958500   0.15354585    -0.17266862     0             -0.046043797   -0.41329229   
   1959000   0.1963422     -0.17775569     0             -0.015837964   -0.23263975   
   1959500   0.21182105    -0.17869076     0             -0.0040080706  -0.38146114   
   1960000   0.1725422     -0.17478211     0             -0.032491551    0.25510877   
   1960500   0.16058952    -0.16985361     0             -0.037420076   -0.29467944   
   1961000   0.18325582    -0.17712039     0             -0.02599462    -0.26226506   
   1961500   0.22108509    -0.17820448     0              0.0041179937   0.36392288   
   1962000   0.18530582    -0.16981308     0             -0.01699673    -0.08687924   
   1962500   0.19331576    -0.17234371     0             -0.012921795   -0.29754893   
   1963000   0.1537092     -0.17365224     0             -0.046892714   -0.069593635  
   1963500   0.16808739    -0.17892136     0             -0.040304546    0.20747686   
   1964000   0.1445325     -0.17998049     0             -0.060788725   -0.34299864   
   1964500   0.21477898    -0.18092838     0             -0.0038063753   0.20733216   
   1965000   0.14366347    -0.17689429     0             -0.058419192    0.028607071  
   1965500   0.19939378    -0.17180081     0             -0.0073665317  -0.36975697   
   1966000   0.2281739     -0.16377069     0              0.024397724    0.016229262  
   1966500   0.22643318    -0.16200206     0              0.024730832    0.27292628   
   1967000   0.19964912    -0.15905828     0              0.0055865762   0.32500944   
   1967500   0.15022411    -0.16641931     0             -0.042533829   -0.043835847  
   1968000   0.16563831    -0.17086779     0             -0.034270673    0.14007237   
   1968500   0.17925157    -0.16636712     0             -0.018543538   -0.32923562   
   1969000   0.14602025    -0.17141335     0             -0.050994675    0.40150152   
   1969500   0.19055751    -0.16839282     0             -0.011245556   -0.5222606    
   1970000   0.19339087    -0.16952582     0             -0.010041969    0.076371124  
   1970500   0.17124743    -0.17470244     0             -0.033479639    0.66345406   
   1971000   0.21314756    -0.16803348     0              0.0077431369   0.12896346   
   1971500   0.16591201    -0.17129715     0             -0.034474317   -0.023614636  
   1972000   0.16249167    -0.1688881      0             -0.034885924   -0.21291328   
   1972500   0.14818541    -0.16987791     0             -0.04767369     0.3104741    
   1973000   0.17673061    -0.17195913     0             -0.026214511    0.36692785   
   1973500   0.14800774    -0.17170231     0             -0.049644615    0.34172162   
   1974000   0.14551099    -0.18101446     0             -0.061015752    0.083364573  
   1974500   0.1528289     -0.17704176     0             -0.051008187   -0.50243924   
   1975000   0.16545983    -0.17549492     0             -0.039044991    0.18422576   
   1975500   0.15492668    -0.17663253     0             -0.048868985   -0.72180058   
   1976000   0.23081502    -0.17858842     0              0.011758049    0.20024059   
   1976500   0.21531627    -0.16747417     0              0.010090926    0.17265483   
   1977000   0.19183488    -0.16983403     0             -0.011633352   -0.4892679    
   1977500   0.14008762    -0.17355895     0             -0.058032752   -0.21165947   
   1978000   0.17936046    -0.17542729     0             -0.027513914    0.76024854   
   1978500   0.14023386    -0.17450181     0             -0.058855005    0.11001738   
   1979000   0.15810716    -0.17852232     0             -0.048135928   -0.32365034   
   1979500   0.19161644    -0.17255005     0             -0.014529513   -0.014842223  
   1980000   0.16018545    -0.17527906     0             -0.043178752    0.015272989  
   1980500   0.15307145    -0.17684716     0             -0.050613558   -0.18404158   
   1981000   0.16439469    -0.17648586     0             -0.040914317    0.055044818  
   1981500   0.13773714    -0.17340439     0             -0.059816558    0.50372824   
   1982000   0.17081946    -0.16861382     0             -0.027743956   -0.14836475   
   1982500   0.16858918    -0.17385084     0             -0.034820224   -0.33146584   
   1983000   0.16777045    -0.17121273     0             -0.032857295    0.68694635   
   1983500   0.13784303    -0.17501344     0             -0.061338279    0.41910003   
   1984000   0.13108992    -0.1794555      0             -0.071349444    0.045391119  
   1984500   0.16819588    -0.18030953     0             -0.041603255   -0.043536023  
   1985000   0.12066651    -0.18077707     0             -0.081266894   -0.46522588   
   1985500   0.12160316    -0.18305007     0             -0.082767467    0.43582495   
   1986000   0.17066596    -0.18362753     0             -0.042884251    0.54942385   
   1986500   0.17112083    -0.18111736     0             -0.039998964   -0.36612388   
   1987000   0.17277139    -0.18334743     0             -0.040867865   -0.080344915  
   1987500   0.15677852    -0.18315791     0             -0.053867206    0.11204149   
   1988000   0.24158644    -0.17653868     0              0.022690663   -0.11092839   
   1988500   0.19044682    -0.18129031     0             -0.024234333    0.10651127   
   1989000   0.15142024    -0.17542429     0             -0.050552403    0.069798518  
   1989500   0.15238578    -0.18283183     0             -0.057163688   -0.17765885   
   1990000   0.14320799    -0.18565576     0             -0.067556271   -0.17409163   
   1990500   0.13376472    -0.18435542     0             -0.074043532    0.6978435    
   1991000   0.12891717    -0.18586394     0             -0.07954968    -0.07752087   
   1991500   0.13845707    -0.17746341     0             -0.063281875   -0.012841279  
   1992000   0.13580203    -0.18542583     0             -0.073433824   -0.22738672   
   1992500   0.15471219    -0.19282008     0             -0.065233413    0.061447931  
   1993000   0.14774782    -0.18535272     0             -0.063509369    0.4068665    
   1993500   0.1774102     -0.18441375     0             -0.038108695    0.046282814  
   1994000   0.13960974    -0.18160281     0             -0.066470702   -0.084385792  
   1994500   0.16317191    -0.18308013     0             -0.048516982   -0.0059908878 
   1995000   0.13991809    -0.18236543     0             -0.066979032    0.056050394  
   1995500   0.1183694     -0.19341364     0             -0.095797823   -0.13988005   
   1996000   0.1905831     -0.18505163     0             -0.027883263    0.12645363   
   1996500   0.20499605    -0.17575557     0             -0.0067012588   0.37435729   
   1997000   0.16004017    -0.18132523     0             -0.049344731    0.14090032   
   1997500   0.17221196    -0.17608528     0             -0.034067057   -0.19280296   
   1998000   0.20866273    -0.17223085     0             -0.00015273565  0.039146998  
   1998500   0.18256238    -0.17466598     0             -0.024112073    0.14627907   
   1999000   0.16357632    -0.17123836     0             -0.036341707   -0.37442697   
   1999500   0.17351377    -0.17937067     0             -0.036278881   -0.048204411  
   2000000   0.15114128    -0.17763487     0             -0.052993028   -0.11880517   
   2000001   0.15112176    -0.1759407      0             -0.051314958   -0.048993851  
Loop time of 162.815 on 8 procs for 1000000 steps with 1520 atoms

Performance: 530663.073 tau/day, 6141.934 timesteps/s, 9.336 Matom-step/s
90.7% CPU use with 8 MPI tasks x 1 OpenMP threads

MPI task timing breakdown:
Section |  min time  |  avg time  |  max time  |%varavg| %total
---------------------------------------------------------------
Pair    | 14.41      | 14.956     | 15.322     |   7.9 |  9.19
Bond    | 0.06573    | 0.072091   | 0.077557   |   1.2 |  0.04
Neigh   | 3.916      | 3.9188     | 3.9227     |   0.1 |  2.41
Comm    | 24.949     | 25.476     | 26.16      |   7.3 | 15.65
Output  | 0.61495    | 0.68855    | 0.76433    |   5.7 |  0.42
Modify  | 111.68     | 112.31     | 112.83     |   3.8 | 68.98
Other   |            | 5.392      |            |       |  3.31

Nlocal:            190 ave         214 max         143 min
Histogram: 1 0 0 1 0 0 1 2 1 2
Nghost:        643.625 ave         686 max         628 min
Histogram: 2 4 0 0 0 1 0 0 0 1
Neighs:              0 ave           0 max           0 min
Histogram: 8 0 0 0 0 0 0 0 0 0

Total # of neighbors = 0
Ave neighs/atom = 0
Ave special neighs/atom = 2.0657895
Neighbor list builds = 7179
Dangerous builds = 0

# Write data for deformation

write_data data.hydrogel
System init for write_data ...
WARNING: Using a manybody potential with bonds/angles/dihedrals and special_bond exclusions (src/pair.cpp:243)
Hybrid pair style last /omp style sw/omp
Last active /omp style is pair_style sw/omp
WARNING: More than one fix rigid command (src/RIGID/fix_rigid_small.cpp:529)
WARNING: More than one fix rigid command (src/RIGID/fix_rigid_small.cpp:529)
WARNING: One or more atoms are time integrated more than once (src/modify.cpp:296)
Total wall time: 0:05:25
