LAMMPS (29 Aug 2024)
OMP_NUM_THREADS environment is not set. Defaulting to 1 thread. (src/comm.cpp:98)
  using 1 OpenMP thread(s) per MPI task
package omp 0
using multi-threaded neighbor list subroutines
# Input Script of lammps for assembly simulation of polimeric network.

# Fco. Vazquez and Felipe Benavides

# Initialization
units lj
dimension 3
boundary p p p

# Styles of atoms and that stuff
atom_style bond
bond_style zero nocoeff
#pair_style hybrid/overlay/omp zero 0.0 lj/cut/omp 1.12 table/omp linear 5000000 threebody/table
pair_style hybrid/overlay/omp zero 0.0 lj/cut/omp 1.12 sw/omp threebody off threebody/table
newton on

# Create simulaiton box
region simulation_box block -$L $L -$L $L -$L $L
region simulation_box block -6.932675 $L -$L $L -$L $L
region simulation_box block -6.932675 6.932675 -$L $L -$L $L
region simulation_box block -6.932675 6.932675 -6.932675 $L -$L $L
region simulation_box block -6.932675 6.932675 -6.932675 6.932675 -$L $L
region simulation_box block -6.932675 6.932675 -6.932675 6.932675 -6.932675 $L
region simulation_box block -6.932675 6.932675 -6.932675 6.932675 -6.932675 6.932675
# N-atom-types region-ID keyword value Is necesesary the extra/special/per/atom (# of special neighbors per atom)
create_box 4 simulation_box     bond/types 1     extra/bond/per/atom 4     extra/special/per/atom 5
Created orthogonal box = (-6.932675 -6.932675 -6.932675) to (6.932675 6.932675 6.932675)
  2 by 1 by 2 MPI processor grid

# Atom types
mass 1 1.0      # CL
mass 2 1.0      # MO
mass 3 0.5      # PA
mass 4 0.5      # PB

# Coefficients
include potential.in
# Script with the pair-wise interaction and bonds between particles

bond_coeff * nocoeff
pair_coeff 1 3 zero
pair_coeff 1 4 zero
pair_coeff 2 3 zero
pair_coeff 2 4 zero
pair_coeff 3 3 zero
pair_coeff 1 1 lj/cut/omp 1.0 1.0 1.12
pair_coeff 2 2 lj/cut/omp 1.0 1.0 1.12
pair_coeff 1 2 lj/cut/omp 1.0 1.0 1.12
pair_coeff 3 4 sw/omp sysFiles/patchyPot.sw NULL NULL PA PB
  disabling sw potential three-body terms
pair_coeff 4 4 sw/omp sysFiles/patchyPot.sw NULL NULL PA PB
pair_coeff * * threebody/table swapMech.3b NULL NULL PA PB
pair_modify pair lj/cut/omp shift yes


# Molecules
include molecules.in
# Script with all molecule information and create groups for computes

# Read the molecule information
molecule CL sysFiles/molecule.patchy.CL
Read molecule template CL:
# Patchy Cross-Linker
  1 molecules
  0 fragments
  5 atoms with max type 3
  4 bonds with max type 1
  0 angles with max type 0
  0 dihedrals with max type 0
  0 impropers with max type 0
molecule MO sysFiles/molecule.patchy.MO
Read molecule template MO:
# Patchy Monomer
  1 molecules
  0 fragments
  3 atoms with max type 4
  2 bonds with max type 1
  0 angles with max type 0
  0 dihedrals with max type 0
  0 impropers with max type 0

# Introduce the molecules
# ID style args keyword arg
region spawn_box block -$L $L -$L $L -$L $L
region spawn_box block -6.932675 $L -$L $L -$L $L
region spawn_box block -6.932675 6.932675 -$L $L -$L $L
region spawn_box block -6.932675 6.932675 -6.932675 $L -$L $L
region spawn_box block -6.932675 6.932675 -6.932675 6.932675 -$L $L
region spawn_box block -6.932675 6.932675 -6.932675 6.932675 -6.932675 $L
region spawn_box block -6.932675 6.932675 -6.932675 6.932675 -6.932675 6.932675

# create_atoms type style args keyword values
# style_random: N seed region-ID
# keyword_mol: template-ID seed
# keyword_overlap: overlap value = only insert if at least this distance from all existing atoms
# keyword_maxtry: maxtry value = number of attempts to insert a particle before failure
create_atoms 0 random ${NCL} ${seed1} spawn_box mol CL ${seed1} overlap 1.0 maxtry 5000 #xls
create_atoms 0 random 10 ${seed1} spawn_box mol CL ${seed1} overlap 1.0 maxtry 5000 
create_atoms 0 random 10 1234 spawn_box mol CL ${seed1} overlap 1.0 maxtry 5000 
create_atoms 0 random 10 1234 spawn_box mol CL 1234 overlap 1.0 maxtry 5000 
Created 50 atoms
  using lattice units in orthogonal box = (-6.932675 -6.932675 -6.932675) to (6.932675 6.932675 6.932675)
  create_atoms CPU = 0.001 seconds
create_atoms 0 random ${NMO} ${seed2} spawn_box mol MO ${seed2} overlap 1.0 maxtry 5000 #mon
create_atoms 0 random 490 ${seed2} spawn_box mol MO ${seed2} overlap 1.0 maxtry 5000 
create_atoms 0 random 490 4321 spawn_box mol MO ${seed2} overlap 1.0 maxtry 5000 
create_atoms 0 random 490 4321 spawn_box mol MO 4321 overlap 1.0 maxtry 5000 
Created 1470 atoms
  using lattice units in orthogonal box = (-6.932675 -6.932675 -6.932675) to (6.932675 6.932675 6.932675)
  create_atoms CPU = 0.165 seconds

# Create patchy particles
group CrossLinker type 1 3
50 atoms in group CrossLinker
group Monomer type 2 4
1470 atoms in group Monomer
group Patches type 3 4
1020 atoms in group Patches
group CL type 1
10 atoms in group CL
group MO type 2
490 atoms in group MO
group PA type 3
40 atoms in group PA
group CM type 1 2
500 atoms in group CM

# Fix rigid bodies
fix frCL CrossLinker rigid/small/omp molecule
  create bodies CPU = 0.000 seconds
  10 rigid bodies with 50 atoms
  0.46400431 = max distance from body owner to body atom
fix frMO Monomer rigid/small/omp molecule
  create bodies CPU = 0.000 seconds
  490 rigid bodies with 1470 atoms
  0.5 = max distance from body owner to body atom

# Neighbor list
neighbor 1.12 bin # extra-distance style
neigh_modify exclude molecule/intra CrossLinker
neigh_modify exclude molecule/intra Monomer

# COMPUTES

# Compute global kinetic and potential energy and temperature
compute t all temp
compute tCM CM temp
compute ep all pe
compute ek all ke
compute ekCM CM ke
compute stressVirial all pressure t ke pair
compute wcaPair all pair lj/cut/omp epair
compute patchPair all pair sw/omp epair
compute swapPair all pair threebody/table epair
compute disc CM displace/atom
compute daux CM chunk/atom type pbc yes
compute dis CM reduce/chunk daux sum c_disc[4]
#compute disM CM reduce/chunk daux sum c_disc[4]

# Energy minimization
minimize 1.0e-4 1.0e-6 1000 10000
WARNING: Using a manybody potential with bonds/angles/dihedrals and special_bond exclusions (src/pair.cpp:243)
Hybrid pair style last /omp style sw/omp
Last active /omp style is pair_style sw/omp
WARNING: More than one fix rigid command (src/RIGID/fix_rigid_small.cpp:529)
WARNING: More than one fix rigid command (src/RIGID/fix_rigid_small.cpp:529)
Neighbor list info ...
  update: every = 1 steps, delay = 0 steps, check = yes
  max neighbors/atom: 2000, page size: 100000
  master list distance cutoff = 2.24
  ghost atom cutoff = 2.24
  binsize = 1.12, bins = 13 13 13
  6 neighbor lists, perpetual/occasional/extra = 6 0 0
  (1) pair zero, perpetual, skip from (5)
      attributes: half, newton on, omp
      pair build: skip/omp
      stencil: none
      bin: none
  (2) pair lj/cut/omp, perpetual, skip from (5)
      attributes: half, newton on, omp
      pair build: skip/omp
      stencil: none
      bin: none
  (3) pair sw/omp, perpetual, skip trim from (5)
      attributes: half, newton on, omp, cut 1.87
      pair build: skip/trim/omp
      stencil: none
      bin: none
  (4) pair threebody/table, perpetual, skip from (6)
      attributes: full, newton on, omp, cut 1.7200000000000002
      pair build: skip/omp
      stencil: none
      bin: none
  (5) neighbor class addition, perpetual
      attributes: half, newton on, omp
      pair build: half/bin/newton/omp
      stencil: half/bin/3d
      bin: standard
  (6) neighbor class addition, perpetual
      attributes: full, newton on, omp, cut 1.7200000000000002
      pair build: full/bin/omp
      stencil: full/bin/3d
      bin: standard
WARNING: Cannot count rigid body degrees-of-freedom before bodies are fully initialized (src/RIGID/fix_rigid_small.cpp:1129)
WARNING: Cannot count rigid body degrees-of-freedom before bodies are fully initialized (src/RIGID/fix_rigid_small.cpp:1129)
WARNING: Cannot count rigid body degrees-of-freedom before bodies are fully initialized (src/RIGID/fix_rigid_small.cpp:1129)
WARNING: Cannot count rigid body degrees-of-freedom before bodies are fully initialized (src/RIGID/fix_rigid_small.cpp:1129)
WARNING: Cannot count rigid body degrees-of-freedom before bodies are fully initialized (src/RIGID/fix_rigid_small.cpp:1129)
WARNING: Cannot count rigid body degrees-of-freedom before bodies are fully initialized (src/RIGID/fix_rigid_small.cpp:1129)
Per MPI rank memory allocation (min/avg/max) = 20.01 | 20.01 | 20.02 Mbytes
   Step          Temp          E_pair         E_mol          TotEng         Press     
         0   0              0.00067516832  0              0.00067516832  0.00636608   
         1   0              0.00067516832  0              0.00067516832  0.00636608   
Loop time of 0.000248412 on 4 procs for 1 steps with 1520 atoms

97.9% CPU use with 4 MPI tasks x 1 OpenMP threads

Minimization stats:
  Stopping criterion = quadratic factors are zero
  Energy initial, next-to-last, final = 
    0.000675168319707251 0.000675168319707251 0.000675168319707251
  Force two-norm initial, final = 21.154727 21.154727
  Force max component initial, final = 6.3589627 6.3589627
  Final line search alpha, max atom move = 0.015725835 0.1
  Iterations, force evaluations = 1 2

MPI task timing breakdown:
Section |  min time  |  avg time  |  max time  |%varavg| %total
---------------------------------------------------------------
Pair    | 5.9157e-05 | 7.2759e-05 | 0.00010146 |   0.0 | 29.29
Bond    | 3.26e-07   | 4.07e-07   | 4.69e-07   |   0.0 |  0.16
Neigh   | 0          | 0          | 0          |   0.0 |  0.00
Comm    | 8.5183e-05 | 0.00011262 | 0.00012493 |   0.0 | 45.34
Output  | 0          | 0          | 0          |   0.0 |  0.00
Modify  | 6.407e-06  | 7.317e-06  | 8.479e-06  |   0.0 |  2.95
Other   |            | 5.531e-05  |            |       | 22.26

Nlocal:            380 ave         382 max         378 min
Histogram: 1 0 0 0 0 2 0 0 0 1
Nghost:        1000.75 ave        1005 max         993 min
Histogram: 1 0 0 0 0 0 0 1 1 1
Neighs:              0 ave           0 max           0 min
Histogram: 4 0 0 0 0 0 0 0 0 0

Total # of neighbors = 0
Ave neighs/atom = 0
Ave special neighs/atom = 2.0657895
Neighbor list builds = 0
Dangerous builds = 0

# DUMPS and FIXES

thermo ${sstep}
thermo 500

# Save atom positions
dump dumpID all atom ${sstep} info/dumps/assembly/patchyParticles_assembly.*.dumpf
dump dumpID all atom 500 info/dumps/assembly/patchyParticles_assembly.*.dumpf
dump_modify dumpID pbc yes # remap atoms via periodic boundary conditions

# Save global energies and temperature
group Energy empty
0 atoms in group Energy
fix fixEng Energy ave/time 1 10 10 c_t c_ep c_ek c_tCM file info/energy_assembly.fixf

group PairE1 empty
0 atoms in group PairE1
group PairE2 empty
0 atoms in group PairE2
group PairE3 empty
0 atoms in group PairE3

fix fixwca PairE1 ave/time 1 10 10 c_wcaPair file info/wcaPair_assembly.fixf
fix fixpatch PairE2 ave/time 1 10 10 c_patchPair file info/patchPair_assembly.fixf
fix fixswap PairE3 ave/time 1 10 10 c_swapPair file info/swapPair_assembly.fixf

# Save Atom displacement
group Displ empty
0 atoms in group Displ
fix fixDispl Displ ave/time 1 ${Nave} ${Nave} c_dis[1] c_dis[2] c_dis[3] c_dis[4] file info/cmdisplacement_assembly.fixf
fix fixDispl Displ ave/time 1 100000 ${Nave} c_dis[1] c_dis[2] c_dis[3] c_dis[4] file info/cmdisplacement_assembly.fixf
fix fixDispl Displ ave/time 1 100000 100000 c_dis[1] c_dis[2] c_dis[3] c_dis[4] file info/cmdisplacement_assembly.fixf

# Save Stress tensor
group Stress empty
0 atoms in group Stress
fix fixStress5 Stress ave/time 1 ${Nave} ${Nave} c_stressVirial[*] file info/stressVirial_assembly.fixf
fix fixStress5 Stress ave/time 1 100000 ${Nave} c_stressVirial[*] file info/stressVirial_assembly.fixf
fix fixStress5 Stress ave/time 1 100000 100000 c_stressVirial[*] file info/stressVirial_assembly.fixf

# RUN SIMULATION

# Brownian Dynamics using Langevin Thermostat

# Set the time integrator
fix VelVerlet all nve/omp # Use Velocity Verlet integrator
timestep ${tstep}
timestep 0.001

# First elevate the temperature
fix ThermoLng all langevin 0.0 ${temp} ${damp} 12345 # Brownian Dynamics: langevin + nve
fix ThermoLng all langevin 0.0 0.05 ${damp} 12345 
fix ThermoLng all langevin 0.0 0.05 10 12345 
run 1000000
WARNING: Using a manybody potential with bonds/angles/dihedrals and special_bond exclusions (src/pair.cpp:243)
Hybrid pair style last /omp style sw/omp
Last active /omp style is pair_style sw/omp
WARNING: More than one fix rigid command (src/RIGID/fix_rigid_small.cpp:529)
WARNING: More than one fix rigid command (src/RIGID/fix_rigid_small.cpp:529)
WARNING: One or more atoms are time integrated more than once (src/modify.cpp:296)
WARNING: Computing temperature of portions of rigid bodies (src/RIGID/fix_rigid_small.cpp:1178)
WARNING: Computing temperature of portions of rigid bodies (src/RIGID/fix_rigid_small.cpp:1178)
Per MPI rank memory allocation (min/avg/max) = 20.32 | 20.33 | 20.33 Mbytes
   Step          Temp          E_pair         E_mol          TotEng         Press     
         1   0              0.00067516832  0              0.00067516832  0.021123967  
       500   0.00074257336  0              0              0.00061237875 -0.00042982662
      1000   0.00067585001  7.7155075e-07  0              0.00055812549 -0.0018214235 
      1500   0.00061176639  3.8574602e-06  0              0.00050836349 -0.0036068441 
      2000   0.00056568885  0              0              0.00046650722 -0.0031528295 
      2500   0.0005240934  -2.0224924e-11  0              0.00043220463 -0.0090956174 
      3000   0.00052130485 -7.4663555e-05  0              0.00035524146 -0.0032527274 
      3500   0.0013652627  -0.00097392268  0              0.00015196997  0.0051187942 
      4000   0.0012309842  -0.0013092098   0             -0.00029405275 -0.018106697  
      4500   0.0035604954  -0.0039394244   0             -0.0010031868   0.00985059   
      5000   0.0029862383  -0.0043207916   0             -0.0018581274  -0.017678499  
      5500   0.0028340576  -0.0048817184   0             -0.0025445531  -0.010670513  
      6000   0.0032678881  -0.0058588073   0             -0.0031638746   0.00032670533
      6500   0.0034430789  -0.0067634455   0             -0.0039240379   0.011365002  
      7000   0.0026031835  -0.0067064466   0             -0.0045596766  -0.0084903118 
      7500   0.0037860889  -0.0084053161   0             -0.0052830381  -0.00061989856
      8000   0.0026578829  -0.0080916724   0             -0.0058997933   0.0067973709 
      8500   0.0029764781  -0.0085627546   0             -0.0061081393   0.011140665  
      9000   0.0038064505  -0.010006511    0             -0.0068674417   0.013733118  
      9500   0.0027116798  -0.010460134    0             -0.0082238904   0.0037411882 
     10000   0.0026282559  -0.011103878    0             -0.0089364319   0.00075886529
     10500   0.0023671468  -0.010130694    0             -0.0081785762  -0.020118357  
     11000   0.0027296237  -0.011639772    0             -0.0093887299  -0.0011889301 
     11500   0.0039300422  -0.01235945     0             -0.0091184584   0.00992679   
     12000   0.0054594421  -0.011900014    0             -0.0073977706  -0.017737639  
     12500   0.0071989469  -0.014457128    0             -0.0085203652  -0.0054585075 
     13000   0.0072645831  -0.01569287     0             -0.0097019789  -0.0050883044 
     13500   0.0068005751  -0.016846127    0             -0.01123789    -0.012302422  
     14000   0.0074789693  -0.018029016    0             -0.011861327    0.013221599  
     14500   0.0074361498  -0.019362109    0             -0.013229731    0.01209543   
     15000   0.0080447186  -0.019366262    0             -0.012732015    0.023401342  
     15500   0.0064910817  -0.01932163     0             -0.013968623    0.018135246  
     16000   0.0067166197  -0.020658094    0             -0.015119092    0.007543755  
     16500   0.0065483428  -0.021591572    0             -0.016191343    0.00092314789
     17000   0.0063911141  -0.022665665    0             -0.017395098    0.012088207  
     17500   0.0064762355  -0.024081047    0             -0.018740283    0.027175172  
     18000   0.0098032324  -0.027640596    0             -0.019556154   -0.0059722223 
     18500   0.0098439773  -0.030096199    0             -0.021978156   -0.020586635  
     19000   0.0097065401  -0.030537517    0             -0.022532814   -0.06658363   
     19500   0.011346795   -0.031397906    0             -0.022040532    0.035881442  
     20000   0.012558698   -0.034489531    0             -0.024132737    0.02653853   
     20500   0.011710358   -0.036153675    0             -0.026496482    0.017334208  
     21000   0.011669336   -0.038494443    0             -0.028871079   -0.040258257  
     21500   0.010206956   -0.038771347    0             -0.030353966   -0.025424789  
     22000   0.011998854   -0.041584765    0             -0.031689658    0.072320497  
     22500   0.01588625    -0.044852115    0             -0.031751184   -0.00096114412
     23000   0.018001549   -0.049835904    0             -0.034990547   -0.018009864  
     23500   0.020476021   -0.052949934    0             -0.036063952   -0.0032415326 
     24000   0.024440505   -0.055251747    0             -0.035096369   -0.04296989   
     24500   0.024359397   -0.059321309    0             -0.039232819    0.0065202044 
     25000   0.027982159   -0.062475982    0             -0.039399905    0.00051909337
     25500   0.027354514   -0.065298535    0             -0.042740059   -0.035383961  
     26000   0.027757518   -0.06822881     0             -0.045337989    0.024424182  
     26500   0.032728542   -0.071261373    0             -0.044271092   -0.0469644    
     27000   0.030007684   -0.072812604    0             -0.048066135    0.038298739  
     27500   0.030541499   -0.076750364    0             -0.051563674   -0.040266271  
     28000   0.033528021   -0.08197454     0             -0.054324951    0.015460851  
     28500   0.027438792   -0.080822932    0             -0.058194955    0.047101394  
     29000   0.028460985   -0.08641284     0             -0.06294189     0.040691845  
     29500   0.030782542   -0.091626529    0             -0.066241058   -0.032681156  
     30000   0.035631529   -0.093766916    0             -0.064382625   -0.020497548  
     30500   0.03701416    -0.096723178    0             -0.066198671    0.011684053  
     31000   0.041401708   -0.10036574     0             -0.066222945    0.042500258  
     31500   0.048293188   -0.099754193    0             -0.059928199    0.034355842  
     32000   0.056177449   -0.10196828     0             -0.055640361   -0.011399612  
     32500   0.057612619   -0.1081608      0             -0.060649344    0.037725762  
     33000   0.050542      -0.10850315     0             -0.066822631   -0.031184445  
     33500   0.054272353   -0.11483738     0             -0.070080543   -0.025952196  
     34000   0.054051338   -0.11714233     0             -0.072567755    0.016560191  
     34500   0.058945579   -0.12352283     0             -0.074912114   -0.041566318  
     35000   0.061943745   -0.12905268     0             -0.077969465    0.061900676  
     35500   0.064158733   -0.13080195     0             -0.077892101    0.024312015  
     36000   0.068218558   -0.13388858     0             -0.077630712    0.015419456  
     36500   0.070738169   -0.13628194     0             -0.077946216   -0.078613366  
     37000   0.071838451   -0.13944756     0             -0.08020447     0.079179415  
     37500   0.068766951   -0.14270508     0             -0.08599497     0.051406601  
     38000   0.069381119   -0.14474807     0             -0.087531468    0.0053797941 
     38500   0.069456961   -0.15202455     0             -0.094745401    0.00038468989
     39000   0.079049958   -0.15280639     0             -0.087616183    0.081531528  
     39500   0.092985124   -0.15494207     0             -0.078259932    0.015107969  
     40000   0.11065502    -0.15653335     0             -0.065279366   -0.014713372  
     40500   0.11175466    -0.15012623     0             -0.057965402    0.0049429598 
     41000   0.12273343    -0.15983466     0             -0.058619949    0.04490345   
     41500   0.11951092    -0.15853041     0             -0.059973216    0.022566814  
     42000   0.12121293    -0.16439263     0             -0.064431831    0.0013936195 
     42500   0.11739739    -0.16327908     0             -0.066464851    0.11408161   
     43000   0.13472266    -0.16343659     0             -0.052334708   -0.075464797  
     43500   0.13421324    -0.16321682     0             -0.052535049   -0.089846173  
     44000   0.14834397    -0.17161782     0             -0.049282838    0.02359259   
     44500   0.15684157    -0.1684311      0             -0.039088393   -0.028561039  
     45000   0.16434253    -0.17546717     0             -0.03993864     0.06423495   
     45500   0.15725429    -0.17785921     0             -0.04817615     0.026042339  
     46000   0.18498641    -0.1791741      0             -0.026621161    0.022490673  
     46500   0.18620344    -0.1742972      0             -0.020740611   -0.11050419   
     47000   0.17880888    -0.1725406      0             -0.025082093   -0.030879798  
     47500   0.18798575    -0.17694787     0             -0.02192146    -0.0081171127 
     48000   0.1851388     -0.17536352     0             -0.022684911   -0.1709657    
     48500   0.18966181    -0.17601173     0             -0.019603126    0.18605465   
     49000   0.18665375    -0.17919761     0             -0.025269664   -0.13368038   
     49500   0.18056668    -0.17500671     0             -0.026098591    0.11612669   
     50000   0.19615754    -0.17648961     0             -0.014724168   -0.15959217   
     50500   0.20278582    -0.17819117     0             -0.010959575   -0.037424139  
     51000   0.20912215    -0.17124423     0              0.0012127569   0.0018632295 
     51500   0.21086134    -0.17687058     0             -0.002979337    0.24045406   
     52000   0.21052757    -0.16870509     0              0.00491091    -0.059647332  
     52500   0.20631417    -0.17301267     0             -0.0028713447   0.14562148   
     53000   0.20870915    -0.17328687     0             -0.0011704721   0.014149949  
     53500   0.20313251    -0.1731947      0             -0.0056772009   0.052836421  
     54000   0.20131195    -0.176729       0             -0.010712862    0.19806514   
     54500   0.19182192    -0.17403197     0             -0.015841985    0.0075186379 
     55000   0.18759164    -0.17824451     0             -0.023543115    0.12524824   
     55500   0.18552776    -0.18180485     0             -0.028805483   -0.055867931  
     56000   0.18207025    -0.1816124      0             -0.031464338    0.008943693  
     56500   0.18357241    -0.18492811     0             -0.033541261   -0.029691059  
     57000   0.18245468    -0.18513716     0             -0.034672066    0.075762438  
     57500   0.18963042    -0.1896386      0             -0.033255885    0.046553614  
     58000   0.18499508    -0.1910159      0             -0.038455811    0.041278447  
     58500   0.17361364    -0.18501975     0             -0.041845602   -0.055174212  
     59000   0.17378674    -0.19086367     0             -0.047546782    0.16865378   
     59500   0.17948651    -0.19463349     0             -0.046616155    0.071733225  
     60000   0.17232933    -0.19439071     0             -0.052275705    0.079423463  
     60500   0.1773938     -0.19236739     0             -0.04607586     0.001476574  
     61000   0.17857795    -0.19668621     0             -0.049418141   -0.043252004  
     61500   0.17582288    -0.19568453     0             -0.050688491   -0.02184632   
     62000   0.17311604    -0.18809818     0             -0.045334397    0.014921883  
     62500   0.17525399    -0.1934584      0             -0.048931507   -0.035018844  
     63000   0.16937528    -0.19959229     0             -0.059913401    0.089964755  
     63500   0.17705938    -0.1931497      0             -0.047133952   -0.075909995  
     64000   0.18334707    -0.18909718     0             -0.03789616     0.22795933   
     64500   0.18250787    -0.19160305     0             -0.041094099    0.11497786   
     65000   0.20537938    -0.18994849     0             -0.02057806    -0.020362142  
     65500   0.20701055    -0.18635896     0             -0.015643358   -0.019526874  
     66000   0.2029518     -0.19163852     0             -0.024270049    0.072773201  
     66500   0.19916282    -0.18498682     0             -0.020743008   -0.028585064  
     67000   0.20159702    -0.19115896     0             -0.02490774     0.11596919   
     67500   0.2074015     -0.18555079     0             -0.014512778   -0.023657891  
     68000   0.19565868    -0.18473127     0             -0.02337722    -0.032283509  
     68500   0.20710463    -0.18919432     0             -0.018401125   -0.0097754167 
     69000   0.21443409    -0.19056946     0             -0.013731874    0.088206133  
     69500   0.20833507    -0.18399113     0             -0.012183232    0.025679473  
     70000   0.20855508    -0.17683266     0             -0.0048433279  -0.018596725  
     70500   0.22137802    -0.18333976     0             -0.00077572361 -0.05398595   
     71000   0.23156607    -0.189708       0              0.0012578362   0.18317616   
     71500   0.22359403    -0.1818516      0              0.0025399189  -0.1254241    
     72000   0.23586206    -0.1784022      0              0.016106416    0.03210194   
     72500   0.23613189    -0.18407796     0              0.010653169    0.17270258   
     73000   0.23063881    -0.1781103      0              0.012090853   -0.04969372   
     73500   0.22596946    -0.18260056     0              0.0037499164   0.060166677  
     74000   0.2334141     -0.18081111     0              0.01167874    -0.016557066  
     74500   0.23141934    -0.17808219     0              0.012762643    0.078323015  
     75000   0.23076543    -0.17510661     0              0.015198955    0.065336606  
     75500   0.22096407    -0.17430159     0              0.007921083   -0.0026627761 
     76000   0.2173976     -0.17112883     0              0.0081526818   0.1535379    
     76500   0.21960041    -0.17397302     0              0.0071250853   0.035142543  
     77000   0.21779842    -0.17772182     0              0.0018902359   0.014755389  
     77500   0.21192184    -0.17185403     0              0.0029117761   0.024224944  
     78000   0.21758112    -0.16972727     0              0.0097055798   0.044475545  
     78500   0.21601176    -0.16961244     0              0.0085262092  -0.047237412  
     79000   0.20933369    -0.17202346     0              0.00060797414  0.10374565   
     79500   0.20411224    -0.17436965     0             -0.0060441901  -0.053071487  
     80000   0.2106228     -0.17760775     0             -0.0039132255  -0.030922702  
     80500   0.20738075    -0.17791583     0             -0.0068949325   0.052445353  
     81000   0.20771346    -0.18035457     0             -0.0090592946   0.0072608512 
     81500   0.20884832    -0.18137436     0             -0.0091431979   0.044641549  
     82000   0.21744512    -0.18671852     0             -0.0073978275   0.017951655  
     82500   0.21099095    -0.17984257     0             -0.0058444341   0.069685824  
     83000   0.21022072    -0.18382257     0             -0.01045963     0.013191694  
     83500   0.20369437    -0.17647548     0             -0.0084946333  -0.049693694  
     84000   0.19943282    -0.17811956     0             -0.013653086    0.11362697   
     84500   0.19813866    -0.1790308      0             -0.015631582   -0.081941395  
     85000   0.20248712    -0.17703846     0             -0.010053198    0.0048555422 
     85500   0.20438809    -0.17965828     0             -0.01110534     0.010606859  
     86000   0.19553127    -0.17958102     0             -0.018332043    0.14687209   
     86500   0.1948399     -0.17422149     0             -0.013542658   -0.029406172  
     87000   0.18974561    -0.17929257     0             -0.022814854    0.01373345   
     87500   0.19441731    -0.18133099     0             -0.021000657    0.050071958  
     88000   0.20276753    -0.18838645     0             -0.021169944   -0.0096149509 
     88500   0.20226433    -0.18603362     0             -0.019232085    0.013468521  
     89000   0.21163512    -0.18244446     0             -0.0079151073   0.010405926  
     89500   0.22327771    -0.17945309     0              0.004677574   -0.012204003  
     90000   0.22414512    -0.18209659     0              0.0027493989  -0.031705169  
     90500   0.21935345    -0.18113266     0             -0.00023822104  0.048717456  
     91000   0.21869569    -0.17616857     0              0.0041834402   0.45493342   
     91500   0.20869977    -0.17591195     0             -0.0038032872  -0.029224771  
     92000   0.21555659    -0.17170214     0              0.0060611365   0.044136282  
     92500   0.22348617    -0.17502093     0              0.0092816473  -0.049200759  
     93000   0.23543405    -0.17628545     0              0.017870194    0.0052002652 
     93500   0.22144582    -0.17472066     0              0.0078992946  -0.0095395983 
     94000   0.21651851    -0.17348953     0              0.0050670238  -0.023028257  
     94500   0.21430687    -0.17540411     0              0.001328559    0.039752503  
     95000   0.20373202    -0.17902711     0             -0.01101521     0.031524112  
     95500   0.20721069    -0.17471264     0             -0.0038319791   0.090455881  
     96000   0.20394791    -0.17217539     0             -0.0039854573   0.016026081  
     96500   0.19144661    -0.17482068     0             -0.016940209   -0.11097012   
     97000   0.1962098     -0.17737494     0             -0.015566391    0.055573082  
     97500   0.19121995    -0.17515502     0             -0.017461462   -0.039526495  
     98000   0.19000222    -0.17627421     0             -0.019584882    0.056685345  
     98500   0.18503812    -0.17496232     0             -0.022366733    0.11148294   
     99000   0.19274991    -0.17901848     0             -0.020063207   -0.034837454  
     99500   0.18718428    -0.17873882     0             -0.024373361   -0.054324209  
    100000   0.18128877    -0.17906223     0             -0.029558625   -0.10280117   
    100500   0.18046808    -0.18270119     0             -0.033874393   -0.015463157  
    101000   0.19647851    -0.18504264     0             -0.023012494    0.065617109  
    101500   0.21293344    -0.17708268     0             -0.0014826402  -0.035666704  
    102000   0.20221923    -0.17605745     0             -0.0092930994  -0.10168654   
    102500   0.19442438    -0.18030625     0             -0.019970098   -0.11443281   
    103000   0.19746463    -0.17852491     0             -0.015681543    0.14999076   
    103500   0.21786856    -0.17692725     0              0.0027426488   0.15290653   
    104000   0.21328145    -0.17591056     0             -2.3526376e-05  0.011770597  
    104500   0.21234997    -0.1761562      0             -0.0010373229   0.010873717  
    105000   0.20507195    -0.18319631     0             -0.01407941     0.0257548    
    105500   0.20267575    -0.1788017      0             -0.011660882   -0.05679399   
    106000   0.19711205    -0.17924566     0             -0.016693061   -0.00594353   
    106500   0.19403381    -0.18013325     0             -0.020119183    0.030957924  
    107000   0.20420288    -0.1823195      0             -0.013919288    0.14508007   
    107500   0.20786056    -0.17761753     0             -0.0062009434   0.046980829  
    108000   0.20319366    -0.17544794     0             -0.0078800053  -0.0085350414 
    108500   0.19257213    -0.18317481     0             -0.024366147   -0.022799451  
    109000   0.18805857    -0.18544721     0             -0.030360745   -0.015790066  
    109500   0.20484872    -0.18519745     0             -0.016264643    0.070369625  
    110000   0.21410193    -0.18466648     0             -0.0081028122   0.10329184   
    110500   0.20320009    -0.18461346     0             -0.017040223   -0.035200619  
    111000   0.22205697    -0.17873906     0              0.0043848917   0.071058732  
    111500   0.21778651    -0.18022989     0             -0.00062765801  0.037997496  
    112000   0.21752403    -0.1773943      0              0.0019914689  -0.094414074  
    112500   0.21933233    -0.17610028     0              0.0047767449   0.068750808  
    113000   0.22190243    -0.17473004     0              0.0082664702   0.019452109  
    113500   0.22727811    -0.17633011     0              0.011099566    0.11211334   
    114000   0.2320776     -0.17439627     0              0.016991406    0.089573125  
    114500   0.23980998    -0.16577965     0              0.031984698   -0.0035102958 
    115000   0.24600895    -0.17047339     0              0.032403072    0.086428378  
    115500   0.24315772    -0.17244367     0              0.02808146     0.073289899  
    116000   0.232637      -0.16811423     0              0.023734764    0.01868657   
    116500   0.22855919    -0.17296577     0              0.015520382    0.038609564  
    117000   0.23631004    -0.17267223     0              0.022205821    0.14858915   
    117500   0.23173796    -0.17547005     0              0.015637537   -0.1185762    
    118000   0.23597932    -0.1775272      0              0.017078115   -0.011424113  
    118500   0.22220972    -0.16842044     0              0.014829476   -0.014089139  
    119000   0.21853658    -0.17280079     0              0.0074200072  -0.068201008  
    119500   0.20887004    -0.16715337     0              0.0050957046  -0.0082122669 
    120000   0.21230044    -0.16841149     0              0.0066665358   0.26289858   
    120500   0.21957837    -0.16603444     0              0.015045483   -0.010210553  
    121000   0.21036605    -0.16240388     0              0.011078916   -0.010344823  
    121500   0.21351365    -0.16718394     0              0.0088945825  -0.091741113  
    122000   0.22533962    -0.16380189     0              0.022029167   -0.068706498  
    122500   0.21876719    -0.16294791     0              0.017463053    0.055236965  
    123000   0.22264457    -0.16872885     0              0.014879681   -0.0077733993 
    123500   0.2174796     -0.17117135     0              0.0081777807   0.011103977  
    124000   0.21484519    -0.17225313     0              0.0049234755  -0.035840537  
    124500   0.21521616    -0.16960123     0              0.0078813043  -0.0694571    
    125000   0.22343606    -0.17496534     0              0.0092959125  -0.019860676  
    125500   0.23644181    -0.17016226     0              0.024824463    0.01182003   
    126000   0.2382336     -0.16871996     0              0.027744397   -0.023935344  
    126500   0.23804575    -0.1648427      0              0.031466746    0.011404852  
    127000   0.23139487    -0.16166657     0              0.029158078    0.014219927  
    127500   0.23660402    -0.16791074     0              0.027209749   -0.0058826885 
    128000   0.23482907    -0.16775163     0              0.025905115   -0.010903755  
    128500   0.22463061    -0.16750658     0              0.017739783   -0.011524142  
    129000   0.22665016    -0.16730635     0              0.019605472   -0.057828964  
    129500   0.22413136    -0.17679611     0              0.0080385422  -0.075742788  
    130000   0.21174764    -0.17440462     0              0.00021753197 -0.11991197   
    130500   0.22573711    -0.17770842     0              0.0084504346  -0.028709284  
    131000   0.22618036    -0.17326081     0              0.013263591   -0.057555455  
    131500   0.22239851    -0.1734731      0              0.0099325094   0.040964531  
    132000   0.21263589    -0.17254244     0              0.0028122179   0.074800349  
    132500   0.21505894    -0.17584745     0              0.0015054306   0.10011984   
    133000   0.20880293    -0.1728086      0             -0.00061487084 -0.026890782  
    133500   0.19877712    -0.17459884     0             -0.010673095    0.0048626431 
    134000   0.20653705    -0.17879382     0             -0.0084686885   0.0083455633 
    134500   0.21109221    -0.17282684     0              0.0012547991   0.024630724  
    135000   0.21097839    -0.18028767     0             -0.006299906    0.015338306  
    135500   0.21708004    -0.17716993     0              0.0018497031  -0.0082599183 
    136000   0.21714663    -0.17690856     0              0.0021659736   0.036019004  
    136500   0.22929713    -0.17484689     0              0.014247817   -0.059026807  
    137000   0.20747075    -0.16618538     0              0.0049097417  -0.11932614   
    137500   0.20230315    -0.17235849     0             -0.0055249349   0.059046038  
    138000   0.20918869    -0.17162485     0              0.00088700866  0.015476987  
    138500   0.20795775    -0.17145621     0              4.0523053e-05  0.22570497   
    139000   0.2044835     -0.17240597     0             -0.0037743437  -0.030221933  
    139500   0.1916566     -0.17684101     0             -0.018787357   -0.0047183515 
    140000   0.1950805     -0.17078041     0             -0.0099031649  -0.016467489  
    140500   0.18559245    -0.16818797     0             -0.015135253    0.073864804  
    141000   0.17967816    -0.17936297     0             -0.031187594    0.0091899136 
    141500   0.17820735    -0.17990835     0             -0.032945912    0.10137077   
    142000   0.18494269    -0.17845904     0             -0.025942155    0.058891845  
    142500   0.19145716    -0.18170663     0             -0.023817455    0.23518063   
    143000   0.20709966    -0.1749461      0             -0.0041570016  -0.051786581  
    143500   0.20959857    -0.17034364     0              0.0025062318   0.038180092  
    144000   0.2000818     -0.17396004     0             -0.0089583723   0.088373384  
    144500   0.20340261    -0.16934854     0             -0.0016082967   0.18492592   
    145000   0.21676568    -0.1658655      0              0.01289488     0.074926746  
    145500   0.20992457    -0.17023768     0              0.0028810385   0.040518803  
    146000   0.20590865    -0.17067757     0             -0.0008706678   0.041613271  
    146500   0.20290556    -0.17191218     0             -0.0045818342   0.056361143  
    147000   0.21455313    -0.17267706     0              0.004258696    0.017329876  
    147500   0.20441532    -0.16603359     0              0.0025418099  -0.013860767  
    148000   0.21351249    -0.18022056     0             -0.0041429967   0.027495175  
    148500   0.21701016    -0.17594474     0              0.0030172598   0.13795501   
    149000   0.19765128    -0.17851792     0             -0.01552063    -0.041204292  
    149500   0.20294353    -0.18170477     0             -0.014343113    0.35216607   
    150000   0.20848806    -0.17660092     0             -0.0046668545  -0.056319121  
    150500   0.2007791     -0.1730741      0             -0.0074973914   0.023234722  
    151000   0.18912017    -0.17297367     0             -0.017011735    0.029381274  
    151500   0.19014654    -0.17302951     0             -0.016221162    0.0059054326 
    152000   0.18856246    -0.17525258     0             -0.019750576   -0.00038660916
    152500   0.21128711    -0.1756711      0             -0.0014287355   0.04355216   
    153000   0.2070127     -0.17715386     0             -0.0064364745   0.0070919902 
    153500   0.19976797    -0.17070004     0             -0.0059571737   0.020667669  
    154000   0.20610018    -0.16877064     0              0.0011942158   0.036417066  
    154500   0.19983284    -0.17259473     0             -0.0077983682  -0.045028227  
    155000   0.2054055     -0.17118616     0             -0.0017941898  -0.027939463  
    155500   0.20336233    -0.16226922     0              0.005437811   -0.069816076  
    156000   0.21180071    -0.1655874      0              0.0090785121   0.092453279  
    156500   0.22271819    -0.15928126     0              0.024387984    0.046674139  
    157000   0.2136427     -0.16382592     0              0.012359028   -0.0076317785 
    157500   0.21148882    -0.17302463     0              0.0013840791  -0.090237605  
    158000   0.20353552    -0.17306439     0             -0.0052145403   0.029184472  
    158500   0.20283306    -0.16899964     0             -0.0017290949   0.034864815  
    159000   0.22035213    -0.16568352     0              0.016034505   -0.087023396  
    159500   0.21289749    -0.16671627     0              0.0088541243  -0.078425957  
    160000   0.22202507    -0.17004753     0              0.013050124    0.05701473   
    160500   0.22051431    -0.17244935     0              0.0094024206  -0.0070533312 
    161000   0.20700641    -0.16130131     0              0.0094108814   0.05620756   
    161500   0.21308235    -0.16707148     0              0.0086513611  -0.048524147  
    162000   0.20754035    -0.17120584     0             -5.3324733e-05 -0.00085747432
    162500   0.18709849    -0.16909379     0             -0.014799076    0.096714483  
    163000   0.18332433    -0.1812046      0             -0.030022336   -0.046248387  
    163500   0.18405353    -0.17652985     0             -0.02474623     0.054502124  
    164000   0.18863469    -0.17751015     0             -0.021948585   -0.029379054  
    164500   0.18930273    -0.18140013     0             -0.025287645   -0.043971609  
    165000   0.18477316    -0.18272216     0             -0.030345089    0.017943075  
    165500   0.19218457    -0.18183154     0             -0.023342494   -0.025562523  
    166000   0.18127551    -0.18337734     0             -0.033884681    0.021338109  
    166500   0.18653474    -0.18474893     0             -0.030919132    0.1820291    
    167000   0.18889134    -0.18558217     0             -0.029808942   -0.017052252  
    167500   0.18209591    -0.18915597     0             -0.038986747   -0.016026266  
    168000   0.18361183    -0.18419013     0             -0.032770764    0.014404926  
    168500   0.19180995    -0.18439176     0             -0.026211647    0.028355908  
    169000   0.19806629    -0.18825233     0             -0.024912798    0.051310544  
    169500   0.18812066    -0.18321376     0             -0.028076104   -0.022802733  
    170000   0.20581928    -0.18818512     0             -0.018451911    0.01966683   
    170500   0.20551508    -0.18130908     0             -0.011826742    0.0022953341 
    171000   0.20367629    -0.17343823     0             -0.005472289   -0.070381338  
    171500   0.20912074    -0.17967091     0             -0.0072150821   0.025630532  
    172000   0.20424249    -0.17602832     0             -0.0075954516   0.077698789  
    172500   0.20559071    -0.17560708     0             -0.0060623812  -0.061091995  
    173000   0.21904999    -0.17720984     0              0.0034343415   0.039548492  
    173500   0.21939314    -0.17502512     0              0.0059020548   0.10407623   
    174000   0.23921377    -0.17354598     0              0.023726687    0.023931993  
    174500   0.24780606    -0.16610043     0              0.03825806    -0.14724319   
    175000   0.24590514    -0.16445904     0              0.038331803    0.090078411  
    175500   0.22947109    -0.16833505     0              0.02090311     9.83086e-05  
    176000   0.21894323    -0.17385049     0              0.0067056531  -0.041433394  
    176500   0.24328981    -0.17325914     0              0.027374923   -0.054781856  
    177000   0.25027222    -0.16787806     0              0.038514202    0.038513852  
    177500   0.24467437    -0.16480026     0              0.036975612   -0.089855706  
    178000   0.24766551    -0.15448113     0              0.049761448   -0.0148665    
    178500   0.24521809    -0.16190625     0              0.04031801     0.25175238   
    179000   0.22758811    -0.16629057     0              0.021394759    0.040803826  
    179500   0.21841753    -0.16275475     0              0.017367871    0.040907054  
    180000   0.23074031    -0.16435245     0              0.0259324     -0.051224648  
    180500   0.23056621    -0.16919051     0              0.020950772    0.078067447  
    181000   0.22109125    -0.1699654      0              0.012362158    0.092752122  
    181500   0.23882305    -0.17398843     0              0.022962023    0.25382599   
    182000   0.23811898    -0.16387647     0              0.032493367   -0.02011236   
    182500   0.23189254    -0.16741121     0              0.023823861    0.10042641   
    183000   0.22758725    -0.17093975     0              0.016744868    0.31667551   
    183500   0.23403869    -0.17282626     0              0.020178673    0.18212679   
    184000   0.22754042    -0.16929206     0              0.018353931    0.083413826  
    184500   0.21759288    -0.17144337     0              0.0079991867   0.0073271512 
    185000   0.20703285    -0.17046867     0              0.000265331    0.051879719  
    185500   0.21201712    -0.18003382     0             -0.0051894424  -0.030081362  
    186000   0.22986917    -0.16518405     0              0.024382399   -0.080699442  
    186500   0.22378671    -0.16939168     0              0.015158733    0.030633037  
    187000   0.22238154    -0.16976777     0              0.013623848    0.13367409   
    187500   0.2219515     -0.17731475     0              0.0057222333  -0.050022423  
    188000   0.20892271    -0.16874223     0              0.0035502763  -0.15136487   
    188500   0.20379027    -0.17728103     0             -0.0092210936  -0.058461507  
    189000   0.20335674    -0.17449096     0             -0.0067885364   0.039181819  
    189500   0.22029517    -0.16824931     0              0.013421741   -0.056546634  
    190000   0.22355581    -0.17018793     0              0.014172078    0.10610033   
    190500   0.22706381    -0.1650167      0              0.022236256    0.04309344   
    191000   0.22001456    -0.17419324     0              0.0072463981  -0.017614136  
    191500   0.23104831    -0.17407787     0              0.016460981    0.0013795497 
    192000   0.235019      -0.17009894     0              0.023714428    0.049111413  
    192500   0.2450814     -0.16997433     0              0.032137203    0.0016563722 
    193000   0.23873387    -0.17251842     0              0.024358491    0.16860224   
    193500   0.2347405     -0.16657854     0              0.027005155    0.16386677   
    194000   0.23604025    -0.16993002     0              0.024725537   -0.0074258556 
    194500   0.23286468    -0.16606164     0              0.025975119    0.21812172   
    195000   0.23105219    -0.16446815     0              0.026073901   -0.070119109  
    195500   0.22897128    -0.16570734     0              0.023118648    0.079634772  
    196000   0.22846775    -0.16433275     0              0.024077989   -0.013261733  
    196500   0.2381253     -0.16806946     0              0.028305582    0.0015362239 
    197000   0.2442353     -0.15624947     0              0.045164316    0.13555174   
    197500   0.24311586    -0.1543628      0              0.046127812   -0.15126301   
    198000   0.24104731    -0.16248949     0              0.03629525     0.14861342   
    198500   0.23492027    -0.16148019     0              0.032251763    0.044185748  
    199000   0.24935971    -0.15562931     0              0.050010422    0.09719263   
    199500   0.26013068    -0.15291144     0              0.061610795    0.033692456  
    200000   0.24657491    -0.15273986     0              0.05060333     0.11564419   
    200500   0.23779035    -0.14672293     0              0.049375891    0.088468892  
    201000   0.24308233    -0.15026474     0              0.05019822    -0.030099212  
    201500   0.22979166    -0.14964149     0              0.039861035    0.073786349  
    202000   0.22952267    -0.14593378     0              0.043346929    0.053651238  
    202500   0.22654621    -0.14913711     0              0.037688989   -0.026374927  
    203000   0.21145759    -0.15518073     0              0.019202224    0.049748378  
    203500   0.20619755    -0.15539895     0              0.014646201    0.27843193   
    204000   0.1985961     -0.16247299     0              0.0013034705  -0.038823642  
    204500   0.22051762    -0.15735667     0              0.024497832    0.096585479  
    205000   0.22217373    -0.15387111     0              0.02934913     0.024731596  
    205500   0.21431051    -0.16051588     0              0.016219791    0.0070517618 
    206000   0.20981132    -0.15794742     0              0.015077899    0.033931657  
    206500   0.22172806    -0.15702675     0              0.025825959    0.36046364   
    207000   0.22383286    -0.14943408     0              0.035154398   -0.022621706  
    207500   0.22511122    -0.15021428     0              0.035428429    0.050497679  
    208000   0.2273353     -0.1596375      0              0.02783934     0.070669383  
    208500   0.23163982    -0.15277306     0              0.038253599    0.1067905    
    209000   0.22427612    -0.16352523     0              0.02142879    -0.11434992   
    209500   0.22805109    -0.15792449     0              0.030142643   -0.021060378  
    210000   0.22877393    -0.15685082     0              0.031812423   -0.015064563  
    210500   0.23400119    -0.16326073     0              0.029713279    0.29007207   
    211000   0.23018211    -0.16763754     0              0.022186982   -0.076382506  
    211500   0.22756413    -0.16621439     0              0.021451162   -0.023647872  
    212000   0.22638691    -0.16336943     0              0.023325297    0.012933246  
    212500   0.22742495    -0.16385866     0              0.023692112   -0.020525168  
    213000   0.23623547    -0.1641039      0              0.030712652    0.049086862  
    213500   0.21923872    -0.1581855      0              0.022614325   -0.04564383   
    214000   0.23680705    -0.1584264      0              0.036861518    0.047897857  
    214500   0.24294337    -0.15857144     0              0.041776925    0.17416796   
    215000   0.2364713     -0.1559654      0              0.039045629    0.13091809   
    215500   0.23023274    -0.15328556     0              0.036580715    0.084831514  
    216000   0.2318761     -0.15710002     0              0.03412149    -0.072686978  
    216500   0.23121166    -0.16268238     0              0.027991184    0.043381905  
    217000   0.24426651    -0.15911689     0              0.042322629    0.013945702  
    217500   0.24031638    -0.16004249     0              0.038139471   -0.018937019  
    218000   0.25035621    -0.15042061     0              0.056040911    0.12610194   
    218500   0.24383414    -0.15098795     0              0.050095003   -0.042076596  
    219000   0.23214809    -0.15786703     0              0.03357878     0.091121972  
    219500   0.23432721    -0.16457637     0              0.028666498    0.054315039  
    220000   0.24515012    -0.15080788     0              0.051360328    0.1518067    
    220500   0.25089245    -0.15386464     0              0.053039105    0.12913982   
    221000   0.23947752    -0.15032074     0              0.047169435    0.13753173   
    221500   0.24868383    -0.15729506     0              0.0477873      0.11748896   
    222000   0.24014882    -0.15475142     0              0.043292357   -0.046295733  
    222500   0.2309862     -0.15430792     0              0.036179705   -0.0014352381 
    223000   0.23774141    -0.15645164     0              0.03960682     0.018856604  
    223500   0.22820933    -0.1516002      0              0.03659743     0.010710866  
    224000   0.22100588    -0.15499936     0              0.027257786    0.018007152  
    224500   0.21348191    -0.15842        0              0.017632352   -0.018725848  
    225000   0.2198661     -0.16349317     0              0.017824038   -0.037230755  
    225500   0.22036791    -0.16171007     0              0.020020962   -0.090684452  
    226000   0.22407731    -0.16530552     0              0.019484554    0.10224164   
    226500   0.22078758    -0.16702986     0              0.015047269    0.079827728  
    227000   0.21179958    -0.1675617      0              0.0071032839   0.057835027  
    227500   0.21442804    -0.16743421     0              0.009398388    0.0784655    
    228000   0.21472476    -0.17168373     0              0.0053935641   0.079904469  
    228500   0.20766563    -0.16651762     0              0.0047382171   0.2092566    
    229000   0.21178118    -0.173559       0              0.0010908089  -0.097279463  
    229500   0.22931904    -0.16858432     0              0.020528456    0.11124054   
    230000   0.2373144     -0.17348843     0              0.022217884    0.035010183  
    230500   0.23916503    -0.16960524     0              0.027627235    0.13295469   
    231000   0.23536596    -0.16854843     0              0.025551066    0.015592792  
    231500   0.2263739     -0.16621498     0              0.020469016   -0.046346081  
    232000   0.22995017    -0.16678972     0              0.02284353    -0.0054179339 
    232500   0.21507166    -0.16690254     0              0.010460832    0.012877952  
    233000   0.20752907    -0.16361023     0              0.0075329847  -0.016692283  
    233500   0.23105864    -0.15967949     0              0.030867883    0.12831698   
    234000   0.21624288    -0.15789272     0              0.020436529    0.036803043  
    234500   0.22516534    -0.15757039     0              0.028116955   -0.027521788  
    235000   0.22828198    -0.15740491     0              0.030852632    0.026754951  
    235500   0.216216      -0.15964866     0              0.01865842    -0.14174492   
    236000   0.21678312    -0.1613788      0              0.017395961    0.05841183   
    236500   0.21152635    -0.16284665     0              0.011593006    0.085280713  
    237000   0.20802035    -0.16746561     0              0.0040827447  -0.009845714  
    237500   0.22117153    -0.16722991     0              0.015163849    0.21458327   
    238000   0.21715006    -0.16049889     0              0.018578482   -0.057752111  
    238500   0.22621852    -0.16875052     0              0.01780535     0.019756784  
    239000   0.22758305    -0.15779343     0              0.029887726    0.039235876  
    239500   0.23000098    -0.15996378     0              0.029711366    0.08991833   
    240000   0.22623145    -0.15941727     0              0.027149259    0.02063863   
    240500   0.22192696    -0.15964798     0              0.023368762    0.050278567  
    241000   0.21718261    -0.15600272     0              0.023101491   -0.045623459  
    241500   0.20940455    -0.16571113     0              0.0069787416  -0.0028643355 
    242000   0.20370126    -0.16608988     0              0.0018966476   0.093976584  
    242500   0.19873584    -0.16848686     0             -0.0045951668   0.064200342  
    243000   0.20680111    -0.17298142     0             -0.0024385296  -0.027905132  
    243500   0.20742288    -0.17258199     0             -0.0015263499   0.063041672  
    244000   0.23033777    -0.16426657     0              0.02568632     0.2525084    
    244500   0.21548545    -0.16064091     0              0.017063702    0.018848085  
    245000   0.20683625    -0.16623418     0              0.0043376925   0.041979412  
    245500   0.21092962    -0.16548386     0              0.0084636919  -0.045692511  
    246000   0.20293211    -0.17018724     0             -0.0028350043   0.16428493   
    246500   0.20688421    -0.17485553     0             -0.0042441108  -0.053019602  
    247000   0.1981063     -0.17317503     0             -0.0098025018  -0.18116971   
    247500   0.20053973    -0.170077       0             -0.0046976936   0.083665236  
    248000   0.21597082    -0.17460598     0              0.0034989078   0.0024076758 
    248500   0.21423152    -0.17372621     0              0.0029443222  -0.060421425  
    249000   0.21060201    -0.17885336     0             -0.0051759806  -0.038560726  
    249500   0.21135361    -0.17647489     0             -0.0021776851  -0.017129825  
    250000   0.21310267    -0.17125282     0              0.0044867864   0.075714302  
    250500   0.20707723    -0.17458371     0             -0.0038131121   0.35124942   
    251000   0.22076235    -0.17317778     0              0.0088785455   0.29653334   
    251500   0.21819208    -0.17732662     0              0.002610072    0.24728381   
    252000   0.21376242    -0.17080283     0              0.0054808503   0.037911739  
    252500   0.22533684    -0.16558236     0              0.020246406    0.10964795   
    253000   0.22664441    -0.1607758      0              0.026131283   -0.052411414  
    253500   0.22387837    -0.16845227     0              0.016173744    0.10922037   
    254000   0.22485546    -0.16414824     0              0.021283548    0.036996863  
    254500   0.23299082    -0.16074772     0              0.031393065    0.039105123  
    255000   0.22428267    -0.15951179     0              0.025447642    0.061615238  
    255500   0.22563042    -0.16085183     0              0.025219045   -0.014554693  
    256000   0.23656718    -0.16511284     0              0.029977261   -0.014931779  
    256500   0.237316      -0.1577828      0              0.037924836   -0.027278058  
    257000   0.22400464    -0.15723948     0              0.027490667   -0.056904497  
    257500   0.22007338    -0.15757863     0              0.023909511   -0.0091337898 
    258000   0.23930468    -0.15382663     0              0.043521009   -0.024228735  
    258500   0.2355177     -0.14523112     0              0.048993513   -0.061934242  
    259000   0.24790833    -0.14612437     0              0.058318457    0.055743405  
    259500   0.25775701    -0.14855782     0              0.064006927    0.31582873   
    260000   0.25557649    -0.14673631     0              0.064030226    0.14121989   
    260500   0.2484342     -0.15035942     0              0.054517073    0.04472811   
    261000   0.24888863    -0.14987614     0              0.055375111    0.022000515  
    261500   0.24743251    -0.15412655     0              0.049923884   -0.016880943  
    262000   0.24167814    -0.15806886     0              0.041236109   -0.037908711  
    262500   0.25163449    -0.15943448     0              0.048081195    0.1450039    
    263000   0.25489468    -0.14787552     0              0.062328748    0.02253866   
    263500   0.25390293    -0.15048956     0              0.058896839   -0.006050018  
    264000   0.23646482    -0.15282487     0              0.042180822    0.047088024  
    264500   0.23894441    -0.15115149     0              0.045899048   -0.020257983  
    265000   0.23054045    -0.15646831     0              0.033651733   -0.066041614  
    265500   0.22918197    -0.15518376     0              0.03381597     0.2173222    
    266000   0.23966288    -0.15492712     0              0.042715923   -0.17766043   
    266500   0.24520615    -0.15056708     0              0.051647326    0.093677576  
    267000   0.24503712    -0.14578893     0              0.056286093    0.12191748   
    267500   0.2527038     -0.15000057     0              0.058396939    0.092032774  
    268000   0.25590602    -0.15431328     0              0.056725011   -0.037135476  
    268500   0.23981048    -0.15722291     0              0.040541855    0.088749781  
    269000   0.23823677    -0.15128858     0              0.045178395   -0.022315209  
    269500   0.24233352    -0.14755598     0              0.052289455   -0.098912667  
    270000   0.22907442    -0.15167548     0              0.037235558    0.033430122  
    270500   0.23031151    -0.14864221     0              0.041289024    0.027263419  
    271000   0.21933235    -0.15340894     0              0.027468101    0.033940828  
    271500   0.22062287    -0.15135796     0              0.030583328   -0.010641288  
    272000   0.22829256    -0.1552267      0              0.033039568   -0.056479515  
    272500   0.22409643    -0.15140306     0              0.033402785    0.050656357  
    273000   0.2469599     -0.15177919     0              0.051881486    0.093299268  
    273500   0.24066837    -0.15153764     0              0.046934595   -0.01137853   
    274000   0.23025166    -0.15320479     0              0.036677093    0.072125125  
    274500   0.23798951    -0.15942312     0              0.036839942   -0.010055149  
    275000   0.23090221    -0.15833412     0              0.032084254    0.15574882   
    275500   0.23120892    -0.15146138     0              0.039209924    0.04056029   
    276000   0.24156281    -0.15355367     0              0.045656179    0.018716685  
    276500   0.22658639    -0.14850553     0              0.038353707    0.0077463161 
    277000   0.23018023    -0.15455352     0              0.035269453    0.37950812   
    277500   0.22976331    -0.15118088     0              0.038298275   -0.1431561    
    278000   0.22411446    -0.15532108     0              0.029499629    0.11366389   
    278500   0.22134407    -0.15800467     0              0.024531373    0.068781563  
    279000   0.22064174    -0.16508491     0              0.01687195     0.094899272  
    279500   0.22549282    -0.15750035     0              0.028457056   -0.025313291  
    280000   0.21670811    -0.16023662     0              0.018476291   -0.045761546  
    280500   0.22399166    -0.16676889     0              0.017950547    0.057391278  
    281000   0.22170581    -0.16656002     0              0.016274343   -0.008692966  
    281500   0.21700063    -0.16110161     0              0.017852533    0.013142091  
    282000   0.24224497    -0.1631624      0              0.036610015   -0.067737474  
    282500   0.24204255    -0.15485118     0              0.044754305    0.065282804  
    283000   0.24756637    -0.15909494     0              0.04506588     0.2048735    
    283500   0.23527295    -0.16224705     0              0.031775735    0.030273286  
    284000   0.24513154    -0.16144252     0              0.04071036     0.0056190645 
    284500   0.23707972    -0.16513331     0              0.030379468   -0.039771908  
    285000   0.26531187    -0.15762292     0              0.061172095    0.11084554   
    285500   0.24527729    -0.15147706     0              0.05079602     0.15735513   
    286000   0.24422968    -0.15495225     0              0.046456899   -0.011546365  
    286500   0.24117435    -0.15920022     0              0.039689288   -0.015816317  
    287000   0.24162038    -0.16101066     0              0.038246674    0.095878646  
    287500   0.24554404    -0.15926528     0              0.043227783    0.095000753  
    288000   0.24689712    -0.15521789     0              0.048391012   -0.10183956   
    288500   0.24271074    -0.14892033     0              0.051236191    0.094303663  
    289000   0.24537093    -0.15747528     0              0.044875023    0.020270927  
    289500   0.25020977    -0.15090706     0              0.055433696    0.17500706   
    290000   0.24835645    -0.15064928     0              0.054163097    0.026493623  
    290500   0.25195576    -0.15099397     0              0.056786659    0.080182608  
    291000   0.25016906    -0.15286216     0              0.053445023    0.030503177  
    291500   0.25225844    -0.15481296     0              0.053217275   -0.077689684  
    292000   0.25535904    -0.15929584     0              0.051291363    0.01070704   
    292500   0.23447147    -0.1599462      0              0.033415632   -0.11526159   
    293000   0.23700816    -0.15501182     0              0.040441946   -0.0082810276 
    293500   0.22345902    -0.15658247     0              0.027697714    0.090399311  
    294000   0.22506642    -0.16075741     0              0.024848355   -0.036456993  
    294500   0.22597245    -0.16238012     0              0.023972819    0.11345104   
    295000   0.22370359    -0.15561532     0              0.028866555    0.1350048    
    295500   0.22123001    -0.16243349     0              0.020008497   -0.086336172  
    296000   0.20480689    -0.16193134     0              0.006966977    0.23304019   
    296500   0.21222278    -0.16395672     0              0.011057264   -0.073085625  
    297000   0.20546975    -0.16267157     0              0.0067733853  -0.10465393   
    297500   0.21346317    -0.15940481     0              0.016632092   -0.01223659   
    298000   0.21115591    -0.16144568     0              0.012688486   -0.015514203  
    298500   0.20158727    -0.16694838     0             -0.00070519588  0.068750633  
    299000   0.21352313    -0.16071465     0              0.015371689    0.24188136   
    299500   0.22107428    -0.16834253     0              0.013971032    0.07214304   
    300000   0.21960787    -0.16491003     0              0.016194224   -0.089304814  
    300500   0.22842286    -0.16699166     0              0.021382063   -0.030182614  
    301000   0.22182067    -0.16814111     0              0.014787973    0.1156827    
    301500   0.22262436    -0.1648617      0              0.018730169    0.032418548  
    302000   0.22805955    -0.15624889     0              0.03182522    -0.10555745   
    302500   0.23558999    -0.16390647     0              0.03037778     0.096159671  
    303000   0.21739568    -0.16042223     0              0.018857694    0.063371671  
    303500   0.21255352    -0.16405123     0              0.011235504    0.029343003  
    304000   0.22076923    -0.16523291     0              0.016829081   -0.0073301104 
    304500   0.22053313    -0.16717365     0              0.01469364    -0.097687596  
    305000   0.20784885    -0.16907345     0              0.0023334833   0.014849486  
    305500   0.20712658    -0.17436944     0             -0.0035581426   0.010225527  
    306000   0.2148506     -0.17494837     0              0.0022327031   0.18249694   
    306500   0.20595186    -0.17429789     0             -0.0044553604  -0.060825228  
    307000   0.19915752    -0.17181549     0             -0.0075760493  -0.094481631  
    307500   0.19650917    -0.17470683     0             -0.012651403   -0.0097774267 
    308000   0.20179719    -0.16917708     0             -0.0027607825  -0.10967781   
    308500   0.20386961    -0.17192441     0             -0.0037990362  -0.10536932   
    309000   0.20000746    -0.17259815     0             -0.0076577912  -0.026292216  
    309500   0.20488757    -0.17269914     0             -0.0037342915   0.085206682  
    310000   0.19734053    -0.17196751     0             -0.0092264795  -0.039739711  
    310500   0.19664273    -0.17934637     0             -0.017180795   -0.051579627  
    311000   0.19387718    -0.17643899     0             -0.016554099    0.035332918  
    311500   0.21396046    -0.17178903     0              0.0046579643  -0.10032449   
    312000   0.21231135    -0.17989359     0             -0.0048065634   0.060544914  
    312500   0.2267915     -0.16788172     0              0.019146668   -0.0069832425 
    313000   0.22743732    -0.17135899     0              0.016201983   -0.060694307  
    313500   0.21492719    -0.1722057      0              0.0050385289  -0.075927321  
    314000   0.21664025    -0.1790533      0             -0.00039635486  0.067165876  
    314500   0.21944046    -0.17941855     0              0.0015476442  -0.039132508  
    315000   0.20454339    -0.18231572     0             -0.013634708    0.070656873  
    315500   0.19885003    -0.17763584     0             -0.013649971    0.0172957    
    316000   0.21011582    -0.17936889     0             -0.0060924526   0.10199408   
    316500   0.22113709    -0.17771626     0              0.0046491018   0.21181557   
    317000   0.22037967    -0.17110216     0              0.010638574   -0.10491897   
    317500   0.23063951    -0.17114966     0              0.01905207    -0.0076986113 
    318000   0.21700241    -0.17694361     0              0.0020119992  -0.013635665  
    318500   0.21124224    -0.17846417     0             -0.0042588092  -0.072547643  
    319000   0.21025716    -0.17361588     0             -0.00022289025  0.060718798  
    319500   0.21384502    -0.17595483     0              0.00039697098 -0.063040532  
    320000   0.22045442    -0.17053346     0              0.011268916   -0.025611283  
    320500   0.22231655    -0.16892269     0              0.014415328    0.19034181   
    321000   0.24204262    -0.16085779     0              0.038747752   -0.046962118  
    321500   0.24062651    -0.15647104     0              0.041966678   -0.08635285   
    322000   0.22901434    -0.1583389      0              0.030522593   -0.065516244  
    322500   0.23661155    -0.15776425     0              0.037362447   -0.078148974  
    323000   0.23692414    -0.161191       0              0.034193478   -0.11831358   
    323500   0.23243453    -0.15635406     0              0.035327968   -0.0025181094 
    324000   0.22376854    -0.16415097     0              0.020384474   -0.010617014  
    324500   0.2321771     -0.16329901     0              0.028170722    0.23963538   
    325000   0.23810437    -0.15950828     0              0.036849502    0.12808286   
    325500   0.23817031    -0.15575509     0              0.040657072    0.012030498  
    326000   0.23430715    -0.15757472     0              0.035651604   -0.15117956   
    326500   0.22520599    -0.16123538     0              0.024485484   -0.096064731  
    327000   0.22864259    -0.16667846     0              0.021876459    0.1544932    
    327500   0.21506925    -0.16681137     0              0.010550015    0.17654769   
    328000   0.2172774     -0.1717908      0              0.0073915789   0.11646628   
    328500   0.20313577    -0.16207742     0              0.0054427711  -0.15418639   
    329000   0.20264058    -0.16116873     0              0.0059430876   0.11072552   
    329500   0.19829999    -0.17378814     0             -0.010255876    0.041512152  
    330000   0.20345997    -0.17041985     0             -0.002632305   -0.050237411  
    330500   0.21164271    -0.16905971     0              0.005475915    0.28966094   
    331000   0.21195891    -0.17103979     0              0.0037565856   0.098148873  
    331500   0.21959836    -0.16877274     0              0.012323667   -0.036018407  
    332000   0.21519759    -0.16611346     0              0.011353756   -0.15648824   
    332500   0.21337103    -0.16940662     0              0.0065542904  -0.036151669  
    333000   0.21856538    -0.1659221      0              0.014322442    0.080421419  
    333500   0.22355023    -0.15868782     0              0.025667586    0.0098645409 
    334000   0.2235125     -0.15937761     0              0.024946674    0.020052573  
    334500   0.21878164    -0.16140044     0              0.019022446    0.07238559   
    335000   0.21905816    -0.16886052     0              0.011790399    0.06607349   
    335500   0.2149764     -0.1707551      0              0.0065297205   0.05676755   
    336000   0.20702423    -0.17110469     0             -0.00037779874  0.092629248  
    336500   0.22594902    -0.17262396     0              0.013709656   -0.076296701  
    337000   0.21547037    -0.17246953     0              0.0052226419   0.0849937    
    337500   0.2212858     -0.17028455     0              0.012203444    0.03962971   
    338000   0.22812208    -0.17038922     0              0.017736453    0.0028567085 
    338500   0.22670603    -0.16705424     0              0.019903664   -0.0063101697 
    339000   0.22347918    -0.16626473     0              0.018032075    0.00051534771
    339500   0.22610635    -0.17072481     0              0.015738555   -0.02234137   
    340000   0.22881665    -0.16702412     0              0.021674349    0.083931693  
    340500   0.23192487    -0.17361314     0              0.017648594   -0.036156928  
    341000   0.21611052    -0.16416745     0              0.014052638   -0.042251382  
    341500   0.2237791     -0.17015931     0              0.014384836    0.061869057  
    342000   0.22903661    -0.17011681     0              0.01876305    -0.15450433   
    342500   0.22956505    -0.16569027     0              0.023625381   -0.094521738  
    343000   0.21958722    -0.15890059     0              0.022186631   -0.018284389  
    343500   0.21345879    -0.1612703      0              0.014762988    0.06302962   
    344000   0.21679881    -0.16829665     0              0.010491049    0.16250711   
    344500   0.22119495    -0.16488677     0              0.017526296    0.036262925  
    345000   0.23539325    -0.16439173     0              0.029730272   -0.12443271   
    345500   0.23743872    -0.15945657     0              0.036352271    0.15138296   
    346000   0.2517        -0.15915082     0              0.048418886   -0.04421433   
    346500   0.24745393    -0.15406071     0              0.050007392    0.02790347   
    347000   0.24742605    -0.15086542     0              0.053179683    0.1356708    
    347500   0.25491464    -0.14758474     0              0.062635979   -0.065764823  
    348000   0.2612948     -0.14924026     0              0.066241995   -0.012870326  
    348500   0.25261839    -0.15355617     0              0.0547709     -0.10126722   
    349000   0.25432246    -0.15449523     0              0.055237141    0.061289894  
    349500   0.24790793    -0.15674637     0              0.047696123    0.23401574   
    350000   0.23481102    -0.16009578     0              0.033546067   -0.098516933  
    350500   0.24193271    -0.15966879     0              0.039846112    0.1022391    
    351000   0.24229727    -0.16436766     0              0.035447887   -0.0044536675 
    351500   0.24197857    -0.16276209     0              0.036790634    0.11628479   
    352000   0.24465903    -0.1637813      0              0.037981919    0.14408369   
    352500   0.23952895    -0.16609445     0              0.031438142   -0.0094022815 
    353000   0.23934826    -0.16527131     0              0.03211228     0.015540206  
    353500   0.23715537    -0.16153993     0              0.034035241   -0.021609709  
    354000   0.24092629    -0.16225459     0              0.03643035    -0.0063085609 
    354500   0.23084752    -0.15629889     0              0.03407438    -0.053257551  
    355000   0.22597303    -0.15929454     0              0.027058873   -0.024779003  
    355500   0.21888944    -0.159129       0              0.021382787   -0.10010484   
    356000   0.21764984    -0.16363072     0              0.015858798    0.098441297  
    356500   0.21743403    -0.16530909     0              0.014002466    0.33613851   
    357000   0.2164253     -0.16498519     0              0.013494489    0.12085066   
    357500   0.21044142    -0.15490935     0              0.018635601    0.24173639   
    358000   0.21429158    -0.16137739     0              0.015342676    0.012008765  
    358500   0.21913263    -0.15678545     0              0.023926887    0.039331076  
    359000   0.22010898    -0.16021472     0              0.021302787   -0.087796599  
    359500   0.22325256    -0.16771838     0              0.016391547   -0.020618559  
    360000   0.22572245    -0.16938488     0              0.016761886    0.074559951  
    360500   0.23671881    -0.16981679     0              0.025398363    0.14268571   
    361000   0.23258663    -0.16439857     0              0.027408896   -0.11563099   
    361500   0.2253696     -0.16727572     0              0.018580066    0.00011890149
    362000   0.21208415    -0.170988       0              0.0039116611  -0.050500485  
    362500   0.22822936    -0.17228109     0              0.015933053    0.0056463532 
    363000   0.21817625    -0.16600636     0              0.013917278   -0.055199845  
    363500   0.22748707    -0.16724677     0              0.020355235    0.081102235  
    364000   0.23425361    -0.16084033     0              0.03234184     0.12922716   
    364500   0.24185327    -0.16206852     0              0.037380877    0.11930363   
    365000   0.23234072    -0.16036036     0              0.031244305    0.002117842  
    365500   0.22708338    -0.16136118     0              0.025907913    0.22402335   
    366000   0.2440643     -0.16102313     0              0.040249627   -0.0047632325 
    366500   0.26183845    -0.16108728     0              0.054843311   -0.074323707  
    367000   0.26110325    -0.15432689     0              0.060997403   -0.030560972  
    367500   0.25029395    -0.15747113     0              0.048939042    0.074783805  
    368000   0.24295455    -0.15607465     0              0.04428293    -0.075395313  
    368500   0.24754784    -0.15965524     0              0.044490295   -0.054250816  
    369000   0.24447985    -0.15840522     0              0.04321024    -0.019074648  
    369500   0.25564581    -0.14952875     0              0.061294954    0.16004051   
    370000   0.25051566    -0.15898489     0              0.047608124    0.026398291  
    370500   0.24580379    -0.15785851     0              0.044848754    0.042526021  
    371000   0.25630038    -0.15818108     0              0.053182431    0.069362114  
    371500   0.26352498    -0.14970882     0              0.067612601   -0.085130197  
    372000   0.26570829    -0.1557786      0              0.063343339    0.11320992   
    372500   0.25289651    -0.1528804      0              0.05567603    -0.082195194  
    373000   0.25048302    -0.15780533     0              0.048760762   -0.042028545  
    373500   0.2391254     -0.15189299     0              0.045306802   -0.093541449  
    374000   0.24138735    -0.1596681      0              0.039397057    0.14435342   
    374500   0.22196867    -0.16001643     0              0.023034706    0.11584772   
    375000   0.2266435     -0.16102007     0              0.025886261   -0.074438196  
    375500   0.22093192    -0.1619826      0              0.020213553   -0.0012541882 
    376000   0.23161707    -0.16250358     0              0.028504317   -0.20672477   
    376500   0.22918329    -0.15938803     0              0.029612796    0.025402061  
    377000   0.22742814    -0.16011319     0              0.027440213    0.28942068   
    377500   0.22320773    -0.16297735     0              0.021095597   -0.017514587  
    378000   0.22671804    -0.17097886     0              0.01598894    -0.025516247  
    378500   0.2213951     -0.16628782     0              0.016290312   -0.065389737  
    379000   0.2346959     -0.16758552     0              0.025961395    0.13052104   
    379500   0.22836044    -0.16691717     0              0.021405069   -0.065944635  
    380000   0.22517998    -0.16785542     0              0.017843993    0.10529441   
    380500   0.23449005    -0.16802752     0              0.025349634    0.068738911  
    381000   0.24555125    -0.17144388     0              0.031055124    0.065202042  
    381500   0.24185476    -0.16842705     0              0.031023567   -0.0069662813 
    382000   0.24617854    -0.16951967     0              0.033496651    0.14712654   
    382500   0.23047254    -0.16615316     0              0.023910871    0.023978688  
    383000   0.23569496    -0.17247935     0              0.021891459    0.22003219   
    383500   0.23851678    -0.17017081     0              0.026527075   -0.034067708  
    384000   0.23889841    -0.16711155     0              0.029901049    0.026148559  
    384500   0.24548198    -0.16427367     0              0.038168217   -0.071657265  
    385000   0.25134735    -0.15743093     0              0.049847949   -0.16337762   
    385500   0.24962388    -0.15687665     0              0.048980945    0.063191575  
    386000   0.24863252    -0.15176754     0              0.053272507    0.055059524  
    386500   0.26057472    -0.148103       0              0.066785426    0.091478562  
    387000   0.26144758    -0.15097522     0              0.064633025    0.14157652   
    387500   0.25890459    -0.15758515     0              0.055925972    0.1006078    
    388000   0.25753622    -0.15654482     0              0.055837844   -0.080613532  
    388500   0.24488045    -0.16110844     0              0.040837378   -0.022607769  
    389000   0.24259635    -0.15392258     0              0.046139605    0.21325005   
    389500   0.23980383    -0.15442555     0              0.04333373    -0.029141408  
    390000   0.2344528     -0.15868419     0              0.034662251    0.021441256  
    390500   0.23175183    -0.15574811     0              0.035370915    0.0095464777 
    391000   0.23585601    -0.15057699     0              0.043926631    0.32615413   
    391500   0.23701652    -0.1523467      0              0.043113966    0.037683257  
    392000   0.24107045    -0.15308408     0              0.045719739   -0.18190612   
    392500   0.23577246    -0.15348151     0              0.040953214   -0.03032779   
    393000   0.23822687    -0.15214626     0              0.044312549    0.13086986   
    393500   0.25349043    -0.15347242     0              0.055573806   -0.02305359   
    394000   0.24478042    -0.15846149     0              0.043401831    0.066955993  
    394500   0.27175022    -0.15606045     0              0.068044094    0.026443603  
    395000   0.2523287     -0.15027602     0              0.057812156    0.054730294  
    395500   0.26270493    -0.14842796     0              0.068217189    0.12678824   
    396000   0.25006083    -0.15314514     0              0.053072785    0.14150612   
    396500   0.24293901    -0.15540849     0              0.044936283    0.075698175  
    397000   0.24155574    -0.14865561     0              0.050548416   -0.033760191  
    397500   0.24332999    -0.16076104     0              0.039906156    0.10019965   
    398000   0.23355177    -0.15990216     0              0.032701225    0.13785895   
    398500   0.23303327    -0.15517702     0              0.03699877    -0.0047539969 
    399000   0.23012493    -0.15682085     0              0.032956521    0.12745994   
    399500   0.22599683    -0.15483697     0              0.031536081    0.040640088  
    400000   0.22690804    -0.15717627     0              0.029948222    0.053953503  
    400500   0.24128728    -0.15627829     0              0.042704345    0.065193848  
    401000   0.23887727    -0.15941211     0              0.037583063   -0.073473877  
    401500   0.2275509     -0.15623186     0              0.031422781   -0.12635842   
    402000   0.23707991    -0.15199357     0              0.043519369    0.10845293   
    402500   0.22943339    -0.15159265     0              0.037614422   -0.081821931  
    403000   0.22849781    -0.15311993     0              0.035315601    0.0061648738 
    403500   0.23026745    -0.15024574     0              0.039649161    0.031077275  
    404000   0.22229145    -0.15457632     0              0.028741001   -0.038762662  
    404500   0.21596711    -0.15513429     0              0.022967528    0.037442707  
    405000   0.21513334    -0.16188281     0              0.015531428    0.15713877   
    405500   0.21953512    -0.15720934     0              0.023834912   -0.089409652  
    406000   0.21852874    -0.14922936     0              0.030984965    0.063589533  
    406500   0.21477486    -0.15998907     0              0.017129534   -0.13874293   
    407000   0.21978339    -0.15861818     0              0.022630815   -0.12056281   
    407500   0.22354336    -0.1584871      0              0.025862642   -0.016284524  
    408000   0.21971013    -0.16103857     0              0.020150014    0.053942965  
    408500   0.21034981    -0.16009963     0              0.013369766    0.066836503  
    409000   0.20607498    -0.16215778     0              0.0077862878   0.11055529   
    409500   0.22385874    -0.15351769     0              0.03109214    -0.049388632  
    410000   0.22056677    -0.16185108     0              0.020043955   -0.18932533   
    410500   0.22883916    -0.15913245     0              0.029584583    0.0097353264 
    411000   0.22312317    -0.15439934     0              0.029603873    0.19886212   
    411500   0.21723854    -0.1595744      0              0.019575937   -0.037708856  
    412000   0.21650925    -0.16437537     0              0.014173544   -0.1520432    
    412500   0.23087483    -0.17092077     0              0.019475028    0.19940776   
    413000   0.21579966    -0.16567085     0              0.012292888    0.022005525  
    413500   0.22996568    -0.16608534     0              0.023560694   -0.039830234  
    414000   0.22405841    -0.16483138     0              0.019943104    0.031508289  
    414500   0.21980712    -0.16925252     0              0.01201605     0.057854362  
    415000   0.22933106    -0.16886383     0              0.020258856    0.36192823   
    415500   0.22723435    -0.16208379     0              0.025309796   -0.12922983   
    416000   0.22844815    -0.16506245     0              0.023332131   -0.30500629   
    416500   0.22557807    -0.1629174      0              0.023110304   -0.10417827   
    417000   0.22493466    -0.16152781     0              0.02396929     0.11238892   
    417500   0.22667596    -0.16419138     0              0.022741722    0.10767614   
    418000   0.21906201    -0.16511382     0              0.015540272    0.027264334  
    418500   0.21698809    -0.16368256     0              0.015261234   -0.023750261  
    419000   0.2242768     -0.1681897      0              0.016764881    0.21294254   
    419500   0.23108988    -0.1609367      0              0.029636431   -0.045907682  
    420000   0.22782428    -0.16107472     0              0.026805369    0.54207355   
    420500   0.22116367    -0.15791717     0              0.024470108   -0.005482058  
    421000   0.22409359    -0.15267532     0              0.032128176    0.0050335108 
    421500   0.21498887    -0.1596111      0              0.017684001    0.41863348   
    422000   0.20738247    -0.1597239      0              0.01129842     0.1829328    
    422500   0.20887327    -0.16339919     0              0.0088525488   0.016623081  
    423000   0.19685719    -0.1626191      0             -0.00027668186 -0.22288665   
    423500   0.19963117    -0.16867081     0             -0.0040407634  -0.044410771  
    424000   0.20632272    -0.16469555     0              0.0054528244  -0.039189236  
    424500   0.21508681    -0.17267314     0              0.004702718   -0.18071189   
    425000   0.21189983    -0.17050341     0              0.0042442407   0.020536458  
    425500   0.22764738    -0.167531       0              0.020203202    0.18193516   
    426000   0.22164247    -0.16796165     0              0.014820483   -0.011674236  
    426500   0.22599571    -0.16502488     0              0.021347238    0.012189753  
    427000   0.23181346    -0.16891631     0              0.022253546    0.046479242  
    427500   0.23974759    -0.15761346     0              0.040099442   -0.072685113  
    428000   0.23615231    -0.16401216     0              0.030735814   -0.099161322  
    428500   0.23431744    -0.16894929     0              0.024285523    0.18232843   
    429000   0.24723662    -0.16656868     0              0.037320209   -0.0081447978 
    429500   0.25165079    -0.16226308     0              0.045266038    0.19213112   
    430000   0.24535436    -0.16269613     0              0.0396405     -0.060311385  
    430500   0.2412941     -0.16413738     0              0.034850886   -0.095414537  
    431000   0.25069702    -0.16321965     0              0.043522933   -0.065972294  
    431500   0.24552283    -0.16540894     0              0.037066622    0.083033617  
    432000   0.25547962    -0.16320646     0              0.047480187    0.22474846   
    432500   0.24499466    -0.16211083     0              0.039929173    0.2418869    
    433000   0.24334582    -0.16240016     0              0.038280092    0.05690159   
    433500   0.2381458     -0.1546253      0              0.041766649    0.038766754  
    434000   0.24232635    -0.15853442     0              0.04130511    -0.03660448   
    434500   0.23481979    -0.15981947     0              0.033829614    0.15687161   
    435000   0.21957636    -0.15976097     0              0.021317303   -0.028552386  
    435500   0.22442969    -0.15919823     0              0.025882441   -0.0041638205 
    436000   0.23175798    -0.15673284     0              0.034391256    0.0055878872 
    436500   0.22599505    -0.15490479     0              0.031466781   -0.030323049  
    437000   0.2313968     -0.1620759      0              0.028750344   -0.046302698  
    437500   0.21903408    -0.16035922     0              0.020271845   -0.039256205  
    438000   0.23826404    -0.16420537     0              0.032284084    0.018530614  
    438500   0.23293274    -0.16405226     0              0.028040629    0.074817383  
    439000   0.25200028    -0.16045814     0              0.047359197    0.10230655   
    439500   0.2425784     -0.15616882     0              0.043878569   -0.021828249  
    440000   0.23727935    -0.1609285      0              0.034748916   -0.22078363   
    440500   0.23782781    -0.16321991     0              0.032909796    0.021701753  
    441000   0.23042375    -0.15927764     0              0.030746157   -0.19071274   
    441500   0.22520147    -0.16373272     0              0.02198442    -0.089324171  
    442000   0.2455599     -0.16233337     0              0.040172768    0.35504771   
    442500   0.23955223    -0.15828198     0              0.039269811   -0.14830152   
    443000   0.25021268    -0.16191584     0              0.044427311   -0.1006457    
    443500   0.26477057    -0.15435268     0              0.063995942    0.29859324   
    444000   0.25039269    -0.15423961     0              0.052251992   -0.10758953   
    444500   0.24319636    -0.15509469     0              0.045462312    0.081235757  
    445000   0.23734198    -0.1588989      0              0.036830156   -0.035530411  
    445500   0.23498192    -0.15716841     0              0.036614381    0.012325373  
    446000   0.2438019     -0.16046055     0              0.040595824   -0.081447223  
    446500   0.24140733    -0.15977016     0              0.03931148     0.20165226   
    447000   0.23445591    -0.15893431     0              0.034414688    0.026763626  
    447500   0.24830087    -0.15643592     0              0.048330623    0.014753406  
    448000   0.25131306    -0.15993842     0              0.047312186   -0.053093576  
    448500   0.24447856    -0.15771436     0              0.043900036   -0.12811934   
    449000   0.23504768    -0.16794183     0              0.025895193    0.053823151  
    449500   0.23471658    -0.17714777     0              0.016416199    0.052017855  
    450000   0.24534695    -0.1654589      0              0.036871635   -0.093306113  
    450500   0.2538902     -0.15894002     0              0.050435877    0.012095071  
    451000   0.24411528    -0.16277088     0              0.038543925    0.11907669   
    451500   0.2352919     -0.16615566     0              0.027882757    0.071712648  
    452000   0.2366322     -0.16263583     0              0.032507902    0.072062677  
    452500   0.24176635    -0.16481249     0              0.034565222    0.025368669  
    453000   0.23807491    -0.16412172     0              0.032211762   -0.084637759  
    453500   0.24744255    -0.16248839     0              0.041570318    0.11557658   
    454000   0.25324288    -0.16420966     0              0.044632415   -0.010503148  
    454500   0.26250709    -0.15435503     0              0.062126967    0.0029404489 
    455000   0.25417681    -0.16122685     0              0.048385406    0.14808915   
    455500   0.25560224    -0.16391021     0              0.046877565    0.28105098   
    456000   0.25988684    -0.15642911     0              0.057892051    0.18316026   
    456500   0.26620901    -0.15338722     0              0.066147646    0.026941184  
    457000   0.2672313     -0.14979605     0              0.070581862    0.096203406  
    457500   0.26438018    -0.14947468     0              0.068552007   -0.015916668  
    458000   0.25315281    -0.15326459     0              0.055503206    0.028179897  
    458500   0.25102075    -0.15482052     0              0.052189028   -0.037131084  
    459000   0.25073201    -0.14941268     0              0.057358755   -0.046182279  
    459500   0.24783639    -0.1527151      0              0.051668396    0.085970473  
    460000   0.25183575    -0.16076768     0              0.04691398     0.051245106  
    460500   0.2557396     -0.16090945     0              0.049991594    0.0089050215 
    461000   0.23768359    -0.15570842     0              0.040302357    0.019888897  
    461500   0.24462379    -0.15604003     0              0.045694129    0.086475734  
    462000   0.25388759    -0.15736223     0              0.052011512   -0.09289996   
    462500   0.24632532    -0.16310632     0              0.040031041    0.036059269  
    463000   0.23665615    -0.15907361     0              0.036089869   -0.14896794   
    463500   0.22741275    -0.15900122     0              0.028539493    0.015816826  
    464000   0.21909318    -0.15506303     0              0.02561678    -0.13181759   
    464500   0.22874542    -0.16273553     0              0.025904199    0.063345952  
    465000   0.23816646    -0.16441123     0              0.031997754    0.10170584   
    465500   0.23552716    -0.15882376     0              0.03540867     0.07361995   
    466000   0.23699732    -0.15919554     0              0.036249294    0.17436711   
    466500   0.2397179     -0.15800326     0              0.039685149    0.046574692  
    467000   0.23118232    -0.16301335     0              0.02763602    -0.056785665  
    467500   0.23395539    -0.1629345      0              0.030001737   -0.027382658  
    468000   0.24606275    -0.16542947     0              0.037491351   -0.0832291    
    468500   0.25425938    -0.16090195     0              0.048778398   -0.059061679  
    469000   0.25004411    -0.16285252     0              0.043351613    0.093607395  
    469500   0.24111892    -0.15640577     0              0.042438019    0.082286834  
    470000   0.26372724    -0.15907357     0              0.058414654   -0.04485534   
    470500   0.24839457    -0.15828176     0              0.046562048    0.16538594   
    471000   0.24847388    -0.16327011     0              0.041639106   -0.022775055  
    471500   0.25431351    -0.16507082     0              0.044654172   -0.037513988  
    472000   0.24124601    -0.16226748     0              0.036681123   -0.091535133  
    472500   0.25655465    -0.17062676     0              0.040946432    0.18113689   
    473000   0.24289792    -0.16135863     0              0.038952254   -0.021106664  
    473500   0.23884133    -0.16240248     0              0.034563056    0.15290223   
    474000   0.22110115    -0.15968505     0              0.02265067     0.02769916   
    474500   0.2341731     -0.17018489     0              0.022930888   -0.062501698  
    475000   0.22841273    -0.16667459     0              0.02169077     0.18621255   
    475500   0.22117282    -0.17223748     0              0.010157346   -0.11798178   
    476000   0.23565353    -0.16443791     0              0.029898735    0.43791862   
    476500   0.24908012    -0.15780377     0              0.047605389   -0.054810652  
    477000   0.23871998    -0.1640403      0              0.032825163    0.26532197   
    477500   0.23284025    -0.1571031      0              0.034913519    0.096938084  
    478000   0.22531318    -0.15906369     0              0.026745563    0.11972973   
    478500   0.23519059    -0.15976785     0              0.034187024    0.14909725   
    479000   0.22799783    -0.16129693     0              0.02672628     0.24900926   
    479500   0.24330429    -0.15799737     0              0.04264864     0.013139593  
    480000   0.25522981    -0.15461674     0              0.055863898    0.00018240092
    480500   0.23924695    -0.15100905     0              0.046290991    0.13150322   
    481000   0.23447674    -0.14853911     0              0.044827069   -0.059114435  
    481500   0.2373739     -0.15631229     0              0.039443098   -0.12005986   
    482000   0.23622271    -0.15374276     0              0.041063278   -0.057414307  
    482500   0.24612815    -0.15476667     0              0.048208087    0.16916063   
    483000   0.24141037    -0.15352982     0              0.045554325    0.11289238   
    483500   0.23820763    -0.15247896     0              0.043963977   -0.10833307   
    484000   0.23911249    -0.15445195     0              0.042737202    0.24302049   
    484500   0.23576601    -0.15742364     0              0.037005764   -0.076775047  
    485000   0.2498824     -0.16080031     0              0.045270472    0.016270935  
    485500   0.25008754    -0.15990403     0              0.046335923    0.1126079    
    486000   0.2398621     -0.16089956     0              0.036907773    0.14328182   
    486500   0.25072757    -0.16000176     0              0.046766008   -0.10455956   
    487000   0.23943005    -0.15990136     0              0.037549674   -0.05066623   
    487500   0.23666708    -0.1557744      0              0.039398096   -0.0023198289 
    488000   0.25733188    -0.15667488     0              0.055539266    0.10182766   
    488500   0.24275036    -0.15625811     0              0.043931082    0.12676151   
    489000   0.22910738    -0.15898849     0              0.029949741    0.072843433  
    489500   0.22400837    -0.1625524      0              0.022180818    0.077754314  
    490000   0.22598326    -0.16153162     0              0.024830239    0.049454074  
    490500   0.23650199    -0.16520646     0              0.029829889   -0.14687211   
    491000   0.23658037    -0.16194147     0              0.033159511    0.096385746  
    491500   0.22943267    -0.1637029      0              0.025503576   -0.072785285  
    492000   0.23177694    -0.16205602     0              0.029083708    0.13384955   
    492500   0.22747051    -0.16062153     0              0.026966813   -0.015005193  
    493000   0.23771932    -0.17043672     0              0.025603518   -0.11174694   
    493500   0.24148342    -0.16203876     0              0.037105621   -0.12480571   
    494000   0.24765461    -0.1665097      0              0.037723883   -0.012795471  
    494500   0.23695354    -0.16396229     0              0.03144643    -0.079803819  
    495000   0.2395447     -0.16249542     0              0.035050162    0.1318315    
    495500   0.22501045    -0.1649098      0              0.020649798    0.087552891  
    496000   0.22984107    -0.16228683     0              0.02725644     0.093823992  
    496500   0.24039907    -0.16459166     0              0.033658493   -0.01679004   
    497000   0.24109442    -0.16503943     0              0.033784156    0.070647222  
    497500   0.22538356    -0.16107508     0              0.024792222   -0.15027505   
    498000   0.22442604    -0.16114181     0              0.023935848   -0.037585349  
    498500   0.21732918    -0.16439873     0              0.014826352    0.17669452   
    499000   0.20118189    -0.16647084     0             -0.0005619557  -0.063460646  
    499500   0.21026564    -0.16184853     0              0.01155146     0.12278983   
    500000   0.23947359    -0.15750365     0              0.039983286    0.040673936  
    500500   0.24005526    -0.15984998     0              0.038116642    0.040227274  
    501000   0.24874938    -0.1589887      0              0.046147716   -0.098124399  
    501500   0.24343644    -0.16254342     0              0.038211569    0.085124893  
    502000   0.23608951    -0.16119166     0              0.03350453     0.007208749  
    502500   0.23253871    -0.16416021     0              0.027607732    0.037667697  
    503000   0.2296384     -0.16290237     0              0.026473768   -0.023283692  
    503500   0.24308875    -0.1636446      0              0.036823659    0.10609733   
    504000   0.2386233     -0.16655269     0              0.030233043   -0.0044465306 
    504500   0.24607727    -0.16173053     0              0.041202272   -0.011345217  
    505000   0.23263775    -0.16182907     0              0.03002055     0.039983133  
    505500   0.22757915    -0.16232892     0              0.025349011    0.071119393  
    506000   0.22519354    -0.17057349     0              0.015137103   -0.076412806  
    506500   0.23239218    -0.17119265     0              0.020454456   -0.009230897  
    507000   0.22313893    -0.16927387     0              0.014742354   -0.14332335   
    507500   0.22248789    -0.17160301     0              0.011876315   -0.055091186  
    508000   0.21265276    -0.16852799     0              0.0068405811   0.12423892   
    508500   0.20617184    -0.16886494     0              0.0011590085   0.052125464  
    509000   0.21179227    -0.16964089     0              0.0050180659  -0.015675706  
    509500   0.20783832    -0.16993879     0              0.0014594612  -0.21464564   
    510000   0.21232319    -0.16841192     0              0.0066848732   0.046009962  
    510500   0.22237322    -0.16902487     0              0.014359893   -0.078827641  
    511000   0.21267353    -0.16685258     0              0.0085331194  -0.11183063   
    511500   0.21974288    -0.17083069     0              0.010384904   -0.038122699  
    512000   0.21891287    -0.16976726     0              0.010763843   -0.048566537  
    512500   0.21934875    -0.16721782     0              0.013672751    0.016813777  
    513000   0.21341993    -0.17017264     0              0.0058285965  -0.052033543  
    513500   0.22590582    -0.17123583     0              0.015062163    0.2513089    
    514000   0.22962691    -0.17211717     0              0.017249499   -0.037825504  
    514500   0.2288448     -0.17034461     0              0.01837707     0.29278755   
    515000   0.23207362    -0.17563171     0              0.01575268    -0.0064931938 
    515500   0.23521159    -0.16810275     0              0.025869444    0.31209499   
    516000   0.2340937     -0.16953221     0              0.023518086    0.0057192625 
    516500   0.22679362    -0.16709571     0              0.019934423    0.067678555  
    517000   0.2293217     -0.16737378     0              0.021741187    0.021177884  
    517500   0.23731003    -0.16948905     0              0.026213665    0.21117739   
    518000   0.24219292    -0.16915776     0              0.030571722    0.053457856  
    518500   0.23829973    -0.16718767     0              0.029331215   -0.012557918  
    519000   0.22823972    -0.16763769     0              0.020584997    0.071264886  
    519500   0.23106224    -0.16517919     0              0.025371148    0.09998914   
    520000   0.24544031    -0.17248395     0              0.029923569    0.21292829   
    520500   0.24051051    -0.16697283     0              0.031369223    0.22462194   
    521000   0.24485688    -0.156227       0              0.04569938     0.010573997  
    521500   0.25579581    -0.16251475     0              0.048432645    0.016604366  
    522000   0.23602863    -0.15904766     0              0.035598317    0.19612507   
    522500   0.2402028     -0.15656772     0              0.041520575    0.0072648004 
    523000   0.24856096    -0.15621789     0              0.048763139    0.084971647  
    523500   0.25377243    -0.16537194     0              0.043906828   -0.0067404426 
    524000   0.2363816     -0.15966897     0              0.035268101   -0.10300402   
    524500   0.24555251    -0.16027181     0              0.042228234   -0.011311432  
    525000   0.24134153    -0.15953806     0              0.039489312    0.075996415  
    525500   0.23514732    -0.1578663      0              0.03605289     0.073025583  
    526000   0.23374672    -0.15748418     0              0.035279976    0.028310081  
    526500   0.23017373    -0.15711339     0              0.032704218    0.063942071  
    527000   0.23943645    -0.16443239     0              0.033023917   -0.084054274  
    527500   0.23046069    -0.1617932      0              0.028261056    0.043548277  
    528000   0.23317415    -0.16135229     0              0.03093968    -0.11003531   
    528500   0.22705933    -0.16169794     0              0.025551317    0.083221546  
    529000   0.22099063    -0.16148157     0              0.020763011    0.03876491   
    529500   0.22380996    -0.1662431      0              0.018326494   -0.090610766  
    530000   0.21717675    -0.16204199     0              0.017057383   -0.02295003   
    530500   0.2207579     -0.16854126     0              0.013511394   -0.0683992    
    531000   0.22088922    -0.16473328     0              0.017427667   -0.030271698  
    531500   0.23403036    -0.16327462     0              0.029723451   -0.05424409   
    532000   0.23560472    -0.16094327     0              0.033353119    0.05574046   
    532500   0.24930038    -0.17156964     0              0.034021169    0.059116418  
    533000   0.24524763    -0.16440908     0              0.037839542    0.027747196  
    533500   0.24929867    -0.16703555     0              0.038553848   -0.056141315  
    534000   0.26433657    -0.17473285     0              0.043257874    0.23826032   
    534500   0.26236833    -0.16470909     0              0.051658476   -0.10979455   
    535000   0.26130836    -0.16441614     0              0.051077305    0.045529477  
    535500   0.25348067    -0.16546189     0              0.04357628     0.053570306  
    536000   0.26527       -0.16650659     0              0.052253896    0.017999421  
    536500   0.2725742     -0.15641816     0              0.068365891   -0.14999453   
    537000   0.27776259    -0.14944963     0              0.079613138    0.03280081   
    537500   0.26752663    -0.15134779     0              0.069273675   -0.089735696  
    538000   0.26988721    -0.15955392     0              0.063014244    0.21967137   
    538500   0.28192591    -0.15137215     0              0.081123985    0.11256105   
    539000   0.27627926    -0.15356061     0              0.074278895    0.084617216  
    539500   0.28855313    -0.15071293     0              0.087248477    0.1963253    
    540000   0.27166377    -0.14250469     0              0.081528565    0.21119394   
    540500   0.26469834    -0.14324062     0              0.075048442    0.029281808  
    541000   0.26368463    -0.14854464     0              0.068908443   -0.0067564393 
    541500   0.26215471    -0.14644697     0              0.069744436    0.24546285   
    542000   0.2474004     -0.14554502     0              0.058478934   -0.061542277  
    542500   0.24564236    -0.14691172     0              0.055662424    0.035203818  
    543000   0.2472221     -0.15531319     0              0.048563715    0.21520839   
    543500   0.24435584    -0.14540741     0              0.056105779    0.16129737   
    544000   0.25667476    -0.14877593     0              0.062896316    0.085118255  
    544500   0.25860214    -0.15078276     0              0.062478936    0.028691772  
    545000   0.25264758    -0.15015955     0              0.0581916     -0.013414824  
    545500   0.23829854    -0.14896627     0              0.047551637   -0.043332834  
    546000   0.22810452    -0.14908925     0              0.039021943    0.007076895  
    546500   0.23154123    -0.15725129     0              0.033694059   -0.013818829  
    547000   0.23760912    -0.15667675     0              0.039272606    0.094645766  
    547500   0.2391551     -0.15385505     0              0.043369242    0.077344938  
    548000   0.23334492    -0.16182774     0              0.030605059    0.16113431   
    548500   0.21669865    -0.15378491     0              0.024920197   -0.05159611   
    549000   0.20810885    -0.16594404     0              0.0056773062  -0.12823698   
    549500   0.20090456    -0.16517877     0              0.00050140738  0.012583723  
    550000   0.20381929    -0.16841727     0             -0.00033339617  0.11717788   
    550500   0.20268127    -0.17103281     0             -0.0038874305  -0.040292521  
    551000   0.20488146    -0.17119096     0             -0.0022311486  -0.11342999   
    551500   0.20956838    -0.17681921     0             -0.0039942362   0.11587868   
    552000   0.19903868    -0.1743133      0             -0.010171866    0.077700984  
    552500   0.20632658    -0.17432333     0             -0.004171775   -0.0017473844 
    553000   0.21690722    -0.1722422      0              0.0066348996   0.15339564   
    553500   0.23441038    -0.17400735     0              0.019304103   -0.11496615   
    554000   0.23675592    -0.17361627     0              0.021629482    0.061692129  
    554500   0.2390784     -0.1707093      0              0.026451735   -0.12898697   
    555000   0.24209505    -0.17154887     0              0.028099911   -0.072734962  
    555500   0.23251369    -0.1701944      0              0.021552911    0.027710269  
    556000   0.22048651    -0.17334408     0              0.0084847619   0.1428298    
    556500   0.23968227    -0.17627189     0              0.021387148    0.039733127  
    557000   0.25904361    -0.16848352     0              0.045142245    0.20797381   
    557500   0.24955081    -0.16443732     0              0.041360015    0.17827772   
    558000   0.23386717    -0.16809433     0              0.024769156    0.10437315   
    558500   0.2394692     -0.16541803     0              0.032065279    0.20219189   
    559000   0.22865428    -0.15790033     0              0.030664241    0.15646206   
    559500   0.23926345    -0.16247056     0              0.034843081    0.13248769   
    560000   0.24317573    -0.16091772     0              0.039622268    0.23342936   
    560500   0.24253111    -0.15760521     0              0.042403174    0.10827729   
    561000   0.23307606    -0.15734254     0              0.03486854     0.32063701   
    561500   0.23332768    -0.16909794     0              0.023320642   -0.027882287  
    562000   0.22970029    -0.1665768      0              0.022850383    0.19719565   
    562500   0.23331889    -0.17140805     0              0.021003277    0.11253343   
    563000   0.23083007    -0.16224881     0              0.028110066    0.042876276  
    563500   0.23244672    -0.16894227     0              0.022749811   -0.074940539  
    564000   0.22459578    -0.17353091     0              0.011686731    0.13147478   
    564500   0.22698128    -0.18483351     0              0.0023513842   0.011999299  
    565000   0.21562392    -0.17924865     0             -0.0014298451  -0.048369938  
    565500   0.22058689    -0.17515707     0              0.0067545509   0.08603919   
    566000   0.22767372    -0.17572952     0              0.012026405   -0.074281425  
    566500   0.22187096    -0.16957965     0              0.013390911   -0.034480577  
    567000   0.21875386    -0.17521104     0              0.0051889385   0.024813434  
    567500   0.21393173    -0.17462807     0              0.0017952314  -0.12655534   
    568000   0.21618786    -0.17282498     0              0.0054588873   0.0066795944 
    568500   0.22733364    -0.16786018     0              0.019615298   -0.050086907  
    569000   0.22275243    -0.16541499     0              0.018282484    0.0031955418 
    569500   0.2216627     -0.17151573     0              0.011283079    0.10075905   
    570000   0.21928184    -0.16564218     0              0.015193205    0.058454504  
    570500   0.22915914    -0.1747806      0              0.014200309   -0.0063680795 
    571000   0.23778359    -0.16864205     0              0.027451194   -0.043402332  
    571500   0.22409928    -0.16382098     0              0.020987209    0.069515684  
    572000   0.217146      -0.17363873     0              0.0054352943   0.0048685109 
    572500   0.21507655    -0.1668393      0              0.010528099   -0.03976427   
    573000   0.2192125     -0.16730301     0              0.013475197    0.036303268  
    573500   0.21888735    -0.17259838     0              0.0079116781   0.022567341  
    574000   0.22013129    -0.17227766     0              0.0092582368  -0.034188625  
    574500   0.22271614    -0.17123232     0              0.012435234   -0.0052628096 
    575000   0.21742767    -0.16478741     0              0.014518897    0.1230682    
    575500   0.22881169    -0.1637391      0              0.02495527     0.090195342  
    576000   0.23067266    -0.16455887     0              0.025670195    0.043802002  
    576500   0.23899843    -0.1660962      0              0.03099889     0.069101984  
    577000   0.22582809    -0.16907627     0              0.017157613   -0.031052667  
    577500   0.21813624    -0.16998165     0              0.009908994    0.021407516  
    578000   0.22963187    -0.17154462     0              0.017826135    0.14441838   
    578500   0.22224466    -0.1684151      0              0.01486363     0.020419967  
    579000   0.22045966    -0.16363307     0              0.018173632    0.11629172   
    579500   0.22328598    -0.17153339     0              0.0126041      0.099480543  
    580000   0.23593684    -0.16915927     0              0.025411012   -0.079325141  
    580500   0.24347318    -0.16744192     0              0.033343356    0.329282     
    581000   0.23952466    -0.16516231     0              0.032366751   -0.021417076  
    581500   0.23757897    -0.16663312     0              0.029291384    0.17360265   
    582000   0.23550962    -0.16497342     0              0.029244547   -0.071069796  
    582500   0.23585082    -0.15787804     0              0.036621308    0.06456713   
    583000   0.23926983    -0.16894704     0              0.028371861   -0.04561273   
    583500   0.23462801    -0.17296662     0              0.020524308   -0.096051141  
    584000   0.21366917    -0.17033992     0              0.0058668619  -0.071677346  
    584500   0.22010108    -0.17425066     0              0.0072603344   0.095482954  
    585000   0.23535574    -0.17684122     0              0.017249854    0.060860135  
    585500   0.23225371    -0.17015541     0              0.021377498   -0.058064443  
    586000   0.21913015    -0.17274368     0              0.0079666133   0.091634274  
    586500   0.22402967    -0.18206344     0              0.0026873391   0.096854477  
    587000   0.22478123    -0.16810389     0              0.017266689   -0.061211042  
    587500   0.2367922     -0.17633959     0              0.018936078    0.057736877  
    588000   0.23631937    -0.17098777     0              0.023897972    0.093489434  
    588500   0.23852822    -0.17208934     0              0.024617983   -0.027410398  
    589000   0.24009215    -0.16906491     0              0.028932132   -0.097588485  
    589500   0.23173467    -0.16272543     0              0.028379444    0.04372872   
    590000   0.24111471    -0.16082084     0              0.038019479    0.18352256   
    590500   0.23044444    -0.15867078     0              0.031370083    0.13188399   
    591000   0.22997486    -0.16659354     0              0.023060064   -0.016549632  
    591500   0.22931587    -0.15905273     0              0.030057435   -0.027597529  
    592000   0.22405127    -0.16711784     0              0.017650756   -0.092732479  
    592500   0.21593814    -0.16779382     0              0.010284122    0.053857384  
    593000   0.2302461     -0.16790591     0              0.021971392    0.094469915  
    593500   0.23612389    -0.16043914     0              0.034285393    0.58157724   
    594000   0.25670331    -0.16454086     0              0.047154928    0.054792884  
    594500   0.25290074    -0.15793837     0              0.050621547    0.30467403   
    595000   0.24562525    -0.16101269     0              0.041547346   -0.082567514  
    595500   0.23703311    -0.16247311     0              0.033001238    0.049984067  
    596000   0.2452838     -0.16086616     0              0.041412294   -0.02416463   
    596500   0.25401852    -0.15334521     0              0.056136512   -0.060481987  
    597000   0.25028699    -0.15621193     0              0.050192507    0.15863499   
    597500   0.2435502     -0.15647259     0              0.044376211    0.11909983   
    598000   0.23471479    -0.15955359     0              0.034008897   -0.20639732   
    598500   0.25113953    -0.15813314     0              0.048974367    0.067286767  
    599000   0.24456441    -0.16249058     0              0.039194608    0.01742538   
    599500   0.24218009    -0.15940516     0              0.040313751    0.072849355  
    600000   0.23251467    -0.15895708     0              0.032791037    0.15250561   
    600500   0.23392863    -0.16686363     0              0.026050537    0.16727498   
    601000   0.24224802    -0.16441549     0              0.035359441   -0.040432057  
    601500   0.2272728     -0.1613875      0              0.026037802   -0.032680461  
    602000   0.24070387    -0.16372554     0              0.034775969    0.056867567  
    602500   0.24226411    -0.15959648     0              0.040191711    0.15520685   
    603000   0.25230068    -0.16042964     0              0.047635421   -0.022696126  
    603500   0.25261163    -0.16315058     0              0.045170925   -0.045367572  
    604000   0.235879      -0.1606706      0              0.033851984   -0.038516162  
    604500   0.2456314     -0.15440012     0              0.048164992    0.045800349  
    605000   0.2385411     -0.15207502     0              0.044642916    0.089919934  
    605500   0.23841771    -0.15704517     0              0.039571019    0.050655475  
    606000   0.22834448    -0.15896545     0              0.029343632   -0.023554316  
    606500   0.23383043    -0.16251768     0              0.030315513   -0.010153048  
    607000   0.22709952    -0.16460386     0              0.022678542   -0.004351144  
    607500   0.2213742     -0.16362574     0              0.018935149    0.076686003  
    608000   0.22921057    -0.16507453     0              0.0239488      0.01366499   
    608500   0.23343641    -0.1659831      0              0.02652515     0.1349909    
    609000   0.23401202    -0.1667411      0              0.026241838    0.20956276   
    609500   0.22349427    -0.16755798     0              0.016751274    0.023391445  
    610000   0.2268519     -0.1636446      0              0.023433596   -0.10077554   
    610500   0.22699126    -0.15546284     0              0.031730279    0.1062214    
    611000   0.24698576    -0.15509275     0              0.048589261    0.08500596   
    611500   0.24972081    -0.14874453     0              0.05719299     0.057926064  
    612000   0.24027549    -0.15614291     0              0.042005327    0.0088028116 
    612500   0.23701908    -0.15684188     0              0.038620895    0.10109682   
    613000   0.22581866    -0.15386969     0              0.032356418    0.097001912  
    613500   0.22634772    -0.15586363     0              0.030798784   -0.043960742  
    614000   0.22602228    -0.15194998     0              0.034444046   -0.00085071724
    614500   0.21977443    -0.15283566     0              0.02840595    -0.044522028  
    615000   0.23304266    -0.15700094     0              0.035182598    0.11649556   
    615500   0.23314182    -0.15640043     0              0.035864876   -0.0099838346 
    616000   0.24028912    -0.15171425     0              0.046445231   -0.0083909178 
    616500   0.25514291    -0.15370595     0              0.056703024    0.071884659  
    617000   0.25141622    -0.15606503     0              0.05127065     0.10221123   
    617500   0.24676342    -0.16166314     0              0.041835512    0.0094891137 
    618000   0.23989873    -0.15852766     0              0.039309883    0.12807906   
    618500   0.23959763    -0.15670807     0              0.040881157   -0.15642783   
    619000   0.23357956    -0.15536919     0              0.037257109   -0.003915362  
    619500   0.25488724    -0.1549491      0              0.055249029    0.042068956  
    620000   0.24900127    -0.14972494     0              0.055619205    0.062669939  
    620500   0.24935105    -0.15328746     0              0.052345137    0.037267672  
    621000   0.26303223    -0.15153047     0              0.065384599   -0.036123725  
    621500   0.25386695    -0.14851103     0              0.060845693    0.073550289  
    622000   0.26028597    -0.15179135     0              0.062858953    0.10071244   
    622500   0.24881069    -0.14640082     0              0.058786152    0.034929964  
    623000   0.24635173    -0.15195783     0              0.051201306   -0.039668766  
    623500   0.24090491    -0.15393771     0              0.044729601    0.22517907   
    624000   0.2527047     -0.15081913     0              0.057579121   -0.11334246   
    624500   0.24916456    -0.14400612     0              0.061472679    0.038145041  
    625000   0.26137331    -0.15237816     0              0.063168841    0.066737634  
    625500   0.2510585     -0.15029979     0              0.056740889    0.014027779  
    626000   0.2463979     -0.15947837     0              0.043718849    0.067306801  
    626500   0.25100214    -0.15986446     0              0.047129738   -0.081398593  
    627000   0.25024174    -0.1564648      0              0.049902321   -0.063966236  
    627500   0.24351836    -0.15510833     0              0.045714218   -0.15480426   
    628000   0.24712789    -0.16069915     0              0.043100062    0.078293704  
    628500   0.23721924    -0.15491678     0              0.040711055   -0.059503625  
    629000   0.23999033    -0.15712249     0              0.04079058    -0.18614061   
    629500   0.2449922     -0.16072171     0              0.041316271    0.18916165   
    630000   0.25069108    -0.15940969     0              0.047327994    0.055622703  
    630500   0.25491685    -0.15191295     0              0.058309599   -0.078428668  
    631000   0.23970884    -0.15487439     0              0.042806548   -0.18305006   
    631500   0.23494706    -0.15424535     0              0.039508689   -0.10777425   
    632000   0.24077372    -0.15745645     0              0.041102672   -0.046473204  
    632500   0.2370919     -0.1540268      0              0.041496026    0.18857816   
    633000   0.24505273    -0.15065727     0              0.051430625   -0.089955373  
    633500   0.24771009    -0.14815986     0              0.056119484   -0.080787672  
    634000   0.25645053    -0.15017669     0              0.061310637    0.056086968  
    634500   0.25724873    -0.14426933     0              0.067876252    0.057429315  
    635000   0.26827447    -0.14852704     0              0.07271115    -0.01534048   
    635500   0.26645911    -0.14835558     0              0.071385541   -0.11985956   
    636000   0.27754693    -0.1472551      0              0.08162982     0.1245637    
    636500   0.26046778    -0.1504609      0              0.064339343   -0.13553368   
    637000   0.23823049    -0.15113457     0              0.045327219    0.025757227  
    637500   0.23930139    -0.15731507     0              0.040029864   -0.0500165    
    638000   0.23682712    -0.1609145      0              0.034389967   -0.065573617  
    638500   0.24697073    -0.1595945      0              0.044075109    0.047760807  
    639000   0.24438508    -0.15820617     0              0.043331134    0.0011586104 
    639500   0.22332586    -0.15156477     0              0.032605602    0.19508005   
    640000   0.22856294    -0.15066804     0              0.037821194    0.10942586   
    640500   0.23318356    -0.15781127     0              0.034488466    0.023931198  
    641000   0.22609046    -0.16516079     0              0.021289465    0.26462294   
    641500   0.23588847    -0.1613193      0              0.033211094    0.018458105  
    642000   0.23032895    -0.16290579     0              0.027039831    0.037409847  
    642500   0.22314331    -0.16483112     0              0.019188705    0.089727611  
    643000   0.22149527    -0.1676916      0              0.014969136   -0.021048454  
    643500   0.20881154    -0.16309623     0              0.009104598    0.0095690157 
    644000   0.21973859    -0.16700611     0              0.014205945    0.032405119  
    644500   0.23042243    -0.16494577     0              0.025076939   -0.1430159    
    645000   0.23121969    -0.16835567     0              0.022324517    0.021699075  
    645500   0.22744413    -0.16603156     0              0.021535034    0.17437826   
    646000   0.22767942    -0.16266356     0              0.025097068    0.018672839  
    646500   0.24265588    -0.16625682     0              0.033854457    0.10041439   
    647000   0.24297788    -0.16536501     0              0.035011808   -0.0735687    
    647500   0.23775196    -0.16419331     0              0.031873852   -0.0091333538 
    648000   0.22317365    -0.15694582     0              0.027099035    0.11597837   
    648500   0.21986405    -0.16174166     0              0.019573855   -0.030801297  
    649000   0.2212808     -0.15653268     0              0.025951185   -0.0041776179 
    649500   0.22740807    -0.16679659     0              0.020740261   -0.011491948  
    650000   0.24356482    -0.17109152     0              0.029769345    0.2164811    
    650500   0.24573144    -0.15487288     0              0.047774726    0.074636986  
    651000   0.24735788    -0.15696414     0              0.047024744   -0.14539108   
    651500   0.25568415    -0.15324395     0              0.057611374   -0.060106394  
    652000   0.24661212    -0.15172588     0              0.051647996    0.052074105  
    652500   0.24412999    -0.15297843     0              0.048348505    0.0061198317 
    653000   0.24444002    -0.15647635     0              0.045106259    0.010292316  
    653500   0.24560391    -0.15487641     0              0.047666025   -0.058212589  
    654000   0.23803668    -0.15774356     0              0.038558395    0.079306224  
    654500   0.22514923    -0.15839554     0              0.027278518    0.11536002   
    655000   0.23458877    -0.15863814     0              0.034820428    0.034982043  
    655500   0.23097913    -0.16156731     0              0.028914495    0.08667097   
    656000   0.23266562    -0.15181836     0              0.040054244    0.10714136   
    656500   0.22582365    -0.15702336     0              0.029206869   -0.040326978  
    657000   0.23102212    -0.15539823     0              0.035119023   -0.01313146   
    657500   0.23786686    -0.1617825      0              0.03437942     0.13433436   
    658000   0.25468863    -0.15409804     0              0.055936298   -0.082198701  
    658500   0.25360473    -0.15680294     0              0.052337547   -0.18365919   
    659000   0.24796893    -0.15402094     0              0.050471857    0.061505635  
    659500   0.23227367    -0.15226715     0              0.039282226    0.10283116   
    660000   0.236558      -0.15879267     0              0.036289861    0.094613971  
    660500   0.22618541    -0.15645935     0              0.030069209   -0.01712147   
    661000   0.23018878    -0.15201705     0              0.037812981    0.0062520906 
    661500   0.22703808    -0.14911512     0              0.038116613   -0.049563222  
    662000   0.2260551     -0.15109989     0              0.035321208    0.0059956774 
    662500   0.22425167    -0.14742535     0              0.037508507   -0.065355061  
    663000   0.22700553    -0.14920046     0              0.038004427    0.13763902   
    663500   0.22711738    -0.15240086     0              0.034896268    0.068511107  
    664000   0.2233754     -0.15185951     0              0.032351719   -0.082555591  
    664500   0.23486268    -0.15555729     0              0.038127163   -0.08211984   
    665000   0.23376559    -0.15450341     0              0.038276306   -0.091699237  
    665500   0.24412281    -0.15283093     0              0.048490082    0.06386361   
    666000   0.23382867    -0.15761841     0              0.035213331    0.15889163   
    666500   0.22617034    -0.16273985     0              0.023776283    0.092313917  
    667000   0.23871221    -0.1561217      0              0.040737347    0.13797927   
    667500   0.24106142    -0.15513328     0              0.043663099   -0.16902959   
    668000   0.24352531    -0.15985407     0              0.0409742      0.091846744  
    668500   0.23702415    -0.1545113      0              0.04095566     0.047555855  
    669000   0.23168085    -0.15473579     0              0.036324694    0.1383288    
    669500   0.22887609    -0.15883127     0              0.029916219    0.02513499   
    670000   0.22775428    -0.16097748     0              0.026844882   -0.008425468  
    670500   0.21268122    -0.1652245      0              0.010167542   -0.086415125  
    671000   0.21830728    -0.17381193     0              0.0062197613   0.063515498  
    671500   0.20699962    -0.17231312     0             -0.0016065195   0.027484592  
    672000   0.20582699    -0.17208387     0             -0.0023443109   0.080417623  
    672500   0.20405852    -0.17138745     0             -0.0031062974   0.10339136   
    673000   0.20393494    -0.17231208     0             -0.0041328376  -0.05580334   
    673500   0.21675983    -0.17483766     0              0.0039178981   0.037760229  
    674000   0.21809691    -0.17865442     0              0.0012037901  -0.083817277  
    674500   0.22139716    -0.17508541     0              0.0074944175   0.048419862  
    675000   0.2219748     -0.18355465     0             -0.00049845982 -0.030297398  
    675500   0.21646175    -0.18032369     0             -0.0018139533   0.11725282   
    676000   0.22639699    -0.17599426     0              0.010708779   -0.010209337  
    676500   0.23176003    -0.17391077     0              0.01721502    -0.061254425  
    677000   0.23065374    -0.17718214     0              0.013031323    0.31186703   
    677500   0.21957135    -0.17732884     0              0.0037452964  -0.12915056   
    678000   0.22662952    -0.18098698     0              0.0059078229   0.057408246  
    678500   0.21287464    -0.17697513     0             -0.00142357     0.034980191  
    679000   0.2162279     -0.17434458     0              0.00397231    -0.17428998   
    679500   0.21922212    -0.18220556     0             -0.0014194236   0.13662892   
    680000   0.2270682     -0.17508586     0              0.01217071     0.073645969  
    680500   0.22567714    -0.17881135     0              0.007298057   -0.12017676   
    681000   0.22613343    -0.17924639     0              0.0072392973   0.0012784003 
    681500   0.22437187    -0.17245628     0              0.012576702    0.01103545   
    682000   0.22458065    -0.17387056     0              0.011334601    0.16934355   
    682500   0.24502131    -0.17346668     0              0.028595302    0.0090476747 
    683000   0.25162365    -0.17534569     0              0.032161046   -0.018692095  
    683500   0.23564807    -0.1714497      0              0.022882436    0.061756849  
    684000   0.24518739    -0.17187908     0              0.030319855    0.15922853   
    684500   0.22909624    -0.16853911     0              0.020389924   -0.054673646  
    685000   0.22493436    -0.16678137     0              0.018715487    0.053767274  
    685500   0.24777322    -0.16746105     0              0.036870357    0.012495255  
    686000   0.23565346    -0.16418263     0              0.03015396    -0.15508868   
    686500   0.23277822    -0.17146547     0              0.020499991   -0.032030779  
    687000   0.23705728    -0.16708737     0              0.028406906    0.074289218  
    687500   0.24822495    -0.17265264     0              0.03205129     0.096417261  
    688000   0.23639189    -0.17082712     0              0.024118425    0.30090958   
    688500   0.2406176     -0.17514808     0              0.02328229     0.19106316   
    689000   0.23558022    -0.17209311     0              0.02218308     0.039311629  
    689500   0.22968382    -0.17408121     0              0.015332381   -0.28480454   
    690000   0.22379508    -0.17499135     0              0.009565979    0.075746532  
    690500   0.22554437    -0.17356389     0              0.012436027    3.7769695e-05
    691000   0.21522332    -0.17051419     0              0.0069742555  -0.016448545  
    691500   0.2176502     -0.17759057     0              0.0018992486   0.070709268  
    692000   0.22240854    -0.175207       0              0.0082068855   0.090649772  
    692500   0.24510196    -0.17420193     0              0.027926563   -0.12381124   
    693000   0.23762947    -0.17074471     0              0.025221436   -0.019385793  
    693500   0.23757632    -0.17486107     0              0.021061253    0.021594662  
    694000   0.23357123    -0.17488947     0              0.017729969    0.19097826   
    694500   0.23176065    -0.16959436     0              0.021531943    0.17788277   
    695000   0.23859585    -0.17223279     0              0.024530302   -0.095121926  
    695500   0.22490863    -0.16866993     0              0.016805699    0.0038794438 
    696000   0.22904324    -0.17359958     0              0.015285747   -0.013073088  
    696500   0.22209284    -0.16619376     0              0.016959782    0.023795601  
    697000   0.23285692    -0.16381778     0              0.028212583   -0.12936688   
    697500   0.23271739    -0.16457627     0              0.027339028   -0.018529536  
    698000   0.22258467    -0.16493536     0              0.018623773    0.056435413  
    698500   0.22349957    -0.16339125     0              0.020922379    0.14952474   
    699000   0.22429121    -0.16057242     0              0.024394047    0.06168954   
    699500   0.24524929    -0.16433076     0              0.03791923     0.067609247  
    700000   0.22840893    -0.15441608     0              0.033946155   -0.0132178    
    700500   0.22005682    -0.16154649     0              0.019928       0.028612545  
    701000   0.22511562    -0.1595847      0              0.02606164    -0.20335234   
    701500   0.24277566    -0.1575476      0              0.042662459    0.038634243  
    702000   0.23864542    -0.16055983     0              0.036244146    0.03159663   
    702500   0.22696142    -0.15880622     0              0.028362292   -0.16605529   
    703000   0.23662419    -0.16020812     0              0.034928998    0.1851754    
    703500   0.23479134    -0.16253862     0              0.031087001    0.074111341  
    704000   0.25535087    -0.15476282     0              0.055817655    0.045838539  
    704500   0.24556714    -0.15414266     0              0.04836945     0.065119605  
    705000   0.25114678    -0.16073924     0              0.046374241    0.070288185  
    705500   0.24315822    -0.15995456     0              0.040570988    0.086255707  
    706000   0.23243605    -0.1542324      0              0.037450875    0.18553266   
    706500   0.22619421    -0.15696494     0              0.029570875   -0.003880669  
    707000   0.22453054    -0.1633606      0              0.021803234   -0.045809892  
    707500   0.21820654    -0.1582885      0              0.021660119    0.16716403   
    708000   0.22455326    -0.16549673     0              0.019685845    0.037217016  
    708500   0.21962983    -0.16050756     0              0.020614801   -0.018919756  
    709000   0.22704294    -0.16358504     0              0.0236507      0.1980274    
    709500   0.22915003    -0.16209449     0              0.026878901   -0.02225994   
    710000   0.22544967    -0.16407962     0              0.021842195   -0.069145867  
    710500   0.2367492     -0.16237348     0              0.032866733   -0.00057646248
    711000   0.23507458    -0.16293233     0              0.030926868   -0.0064762308 
    711500   0.23012985    -0.16274088     0              0.027040544   -0.13249945   
    712000   0.23575656    -0.16560455     0              0.02881706     0.022538644  
    712500   0.22911042    -0.16706004     0              0.021880685    0.2997448    
    713000   0.24034914    -0.16406734     0              0.034141642    0.076217625  
    713500   0.22780256    -0.16376252     0              0.024099654   -0.15324352   
    714000   0.23770943    -0.17125145     0              0.024780635    0.0562363    
    714500   0.22709828    -0.17403401     0              0.013247369    0.12705339   
    715000   0.21973059    -0.17575213     0              0.0054533351  -0.026629577  
    715500   0.21396199    -0.17479974     0              0.0016485188   0.078957957  
    716000   0.21991251    -0.17167495     0              0.0096805323   0.011230119  
    716500   0.22933214    -0.17441406     0              0.014709515    0.11361034   
    717000   0.24083317    -0.16597937     0              0.032628773    0.11082535   
    717500   0.22251724    -0.16549361     0              0.018009917   -0.081594893  
    718000   0.21450002    -0.16712102     0              0.0097709331  -0.13689354   
    718500   0.22026683    -0.16956918     0              0.012078498    0.1570534    
    719000   0.20669147    -0.17704162     0             -0.0065891527   0.098020144  
    719500   0.21231751    -0.17240043     0              0.0026916769  -0.084618542  
    720000   0.22189535    -0.17299681     0              0.0099938601   0.074642755  
    720500   0.20861443    -0.16893013     0              0.003108146    0.033690192  
    721000   0.22068513    -0.17616223     0              0.0058304079   0.13174385   
    721500   0.23084463    -0.16765966     0              0.022711226   -0.073479435  
    722000   0.2303854     -0.17222604     0              0.017766126    0.083956667  
    722500   0.23797289    -0.1713133      0              0.024936057    0.22114969   
    723000   0.23600638    -0.16506801     0              0.029559624    0.020921603  
    723500   0.23702478    -0.1673672      0              0.028100278   -0.16936862   
    724000   0.24071538    -0.1650365      0              0.0334745     -0.018499426  
    724500   0.24233218    -0.16695171     0              0.032892618   -0.032258919  
    725000   0.24050443    -0.16445037     0              0.033886673    0.020620339  
    725500   0.24407894    -0.1624871      0              0.038797735    0.011562877  
    726000   0.24048617    -0.16530848     0              0.03301351    -0.1038717    
    726500   0.2378483     -0.16803185     0              0.028114756   -0.096246231  
    727000   0.23326501    -0.16336716     0              0.028999739    0.15163443   
    727500   0.23692977    -0.16874171     0              0.026647411    0.044290356  
    728000   0.23371006    -0.17114294     0              0.021590986   -0.038355838  
    728500   0.23586131    -0.16937686     0              0.025131135    0.0024321761 
    729000   0.23469831    -0.17724844     0              0.01630046    -0.061411162  
    729500   0.23760455    -0.167838       0              0.028107592    0.18401495   
    730000   0.24826254    -0.16845931     0              0.036275622   -0.017530171  
    730500   0.24280719    -0.16609389     0              0.034142172   -0.11357933   
    731000   0.23059836    -0.16768915     0              0.022478638    0.12319725   
    731500   0.22620816    -0.17476547     0              0.011781857    0.080675817  
    732000   0.23139094    -0.17384999     0              0.016971419    0.030543112  
    732500   0.23227605    -0.17324841     0              0.018302923    0.18198537   
    733000   0.24900593    -0.1689224      0              0.036425584    0.034976491  
    733500   0.24841395    -0.16287946     0              0.041980337    0.089608419  
    734000   0.23940507    -0.16448285     0              0.032947588   -0.088511727  
    734500   0.22828263    -0.16492242     0              0.023335653   -0.0038335084 
    735000   0.21812336    -0.16187348     0              0.018006545    0.031907938  
    735500   0.20763127    -0.16519525     0              0.0060322524  -0.061641478  
    736000   0.21617021    -0.16351313     0              0.014756178    0.03348794   
    736500   0.22679376    -0.1691909      0              0.017839345   -0.0014412259 
    737000   0.22608312    -0.16946699     0              0.016977206    0.048713506  
    737500   0.21447977    -0.16837805     0              0.0084972093   0.057787787  
    738000   0.21840311    -0.16942947     0              0.010681252   -0.029401674  
    738500   0.22324334    -0.16777063     0              0.016331689   -0.061792786  
    739000   0.23278959    -0.16877777     0              0.023197071    0.03229179   
    739500   0.23105099    -0.16468377     0              0.025857294   -0.010639238  
    740000   0.23200855    -0.17691532     0              0.014415415    0.15413509   
    740500   0.24647898    -0.16666404     0              0.036600042   -0.080487812  
    741000   0.25717079    -0.1568339      0              0.055247404    0.1094341    
    741500   0.27123438    -0.16256549     0              0.061113651    0.27396573   
    742000   0.26103572    -0.15918359     0              0.056085012    0.21931176   
    742500   0.26476773    -0.15809344     0              0.06025284    -0.21436659   
    743000   0.25601061    -0.16176491     0              0.049359636   -0.11673998   
    743500   0.24968161    -0.16219491     0              0.043710285    0.020091839  
    744000   0.2581412     -0.16028686     0              0.052594718    0.10209613   
    744500   0.25674188    -0.15692157     0              0.054806027   -0.022134653  
    745000   0.27761992    -0.15807683     0              0.070868277   -0.00060934525
    745500   0.27030204    -0.15591567     0              0.066994601    0.097217348  
    746000   0.26369387    -0.15158812     0              0.065872579    0.064866711  
    746500   0.24895479    -0.15308047     0              0.05222534     0.18474782   
    747000   0.24996079    -0.15783576     0              0.048299671   -0.08679918   
    747500   0.24810931    -0.15479299     0              0.049815576    0.075438992  
    748000   0.24953211    -0.15776726     0              0.048014644   -0.081474525  
    748500   0.25386104    -0.15989545     0              0.049456397    0.033031823  
    749000   0.2575103     -0.15283673     0              0.059524563   -0.021393962  
    749500   0.2476054     -0.15364551     0              0.050547501   -0.15218196   
    750000   0.23836046    -0.15403404     0              0.042534931   -0.041515806  
    750500   0.22842362    -0.15733504     0              0.031039306    0.19590061   
    751000   0.23297821    -0.16278134     0              0.029349046    0.056339902  
    751500   0.2396828     -0.16584667     0              0.031812791    0.11109159   
    752000   0.22270123    -0.16007762     0              0.023577637    0.010580445  
    752500   0.22107211    -0.16129538     0              0.021016394    0.128343     
    753000   0.23280999    -0.16176121     0              0.030230442   -0.059581497  
    753500   0.2393475     -0.16400208     0              0.033380879    0.12395392   
    754000   0.23900927    -0.1621502      0              0.03495382     0.16535838   
    754500   0.24192787    -0.16553925     0              0.033971663    0.54337167   
    755000   0.2402542     -0.16037703     0              0.037753657    0.409916     
    755500   0.23238267    -0.16139713     0              0.030242123   -0.1089706    
    756000   0.2319751     -0.16748083     0              0.023822327   -0.16168192   
    756500   0.23761671    -0.16728432     0              0.028671298   -0.039392525  
    757000   0.22956042    -0.16234979     0              0.026962041    0.24904566   
    757500   0.24146755    -0.16134966     0              0.037781645    0.28296568   
    758000   0.24980886    -0.16258112     0              0.043429019   -0.18186887   
    758500   0.23551653    -0.15650801     0              0.03771565     0.016564472  
    759000   0.23293669    -0.16234007     0              0.029756075    0.072453927  
    759500   0.23034431    -0.1577572      0              0.03220109    -0.16010935   
    760000   0.21682601    -0.16162011     0              0.01719002     0.011664062  
    760500   0.21850291    -0.15737098     0              0.022822041   -0.185162     
    761000   0.21530517    -0.15558087     0              0.021975074    0.010696656  
    761500   0.23295994    -0.16075604     0              0.031359276    0.49817224   
    762000   0.22042372    -0.15855943     0              0.023217629    0.62088562   
    762500   0.2137217     -0.15993687     0              0.016313222   -0.16667335   
    763000   0.23425914    -0.16237106     0              0.030815668   -0.06321468   
    763500   0.23226311    -0.16201762     0              0.029523046   -0.030297468  
    764000   0.22642335    -0.16011656     0              0.026608219    0.038548072  
    764500   0.23849696    -0.1602637      0              0.036417846    0.31221452   
    765000   0.23854474    -0.16344033     0              0.033280611   -0.010125064  
    765500   0.22794789    -0.16468623     0              0.0232958     -0.2150694    
    766000   0.22709162    -0.1597192      0              0.027556678   -0.10695034   
    766500   0.22555793    -0.16617879     0              0.019832306    0.9303065    
    767000   0.23325251    -0.16523734     0              0.027119258   -0.23744212   
    767500   0.23188066    -0.16763181     0              0.023593457    0.037099092  
    768000   0.2309815     -0.16453831     0              0.025945449   -0.077476895  
    768500   0.23307972    -0.16838337     0              0.023830724    0.069669717  
    769000   0.22990279    -0.16451265     0              0.025081529   -0.19600394   
    769500   0.2315555     -0.16629966     0              0.024657457    0.28336706   
    770000   0.2344196     -0.16574332     0              0.02757574    -0.10950442   
    770500   0.25352223    -0.17030324     0              0.03876921     0.27302373   
    771000   0.25310025    -0.16548785     0              0.043236601    0.40610719   
    771500   0.24314154    -0.16172664     0              0.038785147   -0.40466547   
    772000   0.24899911    -0.15955761     0              0.045784744   -0.0077898527 
    772500   0.2379652     -0.15948982     0              0.036753198    0.21702591   
    773000   0.2375248     -0.16101872     0              0.034861106    0.35946694   
    773500   0.2558641     -0.15956356     0              0.051440162   -0.0016714479 
    774000   0.25086637    -0.14976601     0              0.057116222    0.01079807   
    774500   0.25297299    -0.14719202     0              0.06142748     0.082533358  
    775000   0.24292594    -0.15379553     0              0.046538458   -0.055865884  
    775500   0.25782824    -0.15498493     0              0.057638557    0.077598778  
    776000   0.25157061    -0.14878583     0              0.058677176   -0.036458456  
    776500   0.27141173    -0.15004948     0              0.073775913    0.21738481   
    777000   0.26750731    -0.14900725     0              0.071598283    0.17324763   
    777500   0.25486804    -0.14642194     0              0.063760349    0.030437294  
    778000   0.24185321    -0.15185233     0              0.047597012   -0.041084631  
    778500   0.22895521    -0.15314078     0              0.035671951    0.052926096  
    779000   0.22812726    -0.15307247     0              0.035057483   -0.11178161   
    779500   0.23030614    -0.15086004     0              0.039066761    0.013975902  
    780000   0.23439979    -0.1496446      0              0.043658119    0.12691655   
    780500   0.23896864    -0.1519798      0              0.04509072     0.10200705   
    781000   0.24210974    -0.14227713     0              0.057383764    0.046608313  
    781500   0.25132789    -0.14839027     0              0.058872561   -0.025217031  
    782000   0.25793303    -0.15023683     0              0.062473074   -0.14442741   
    782500   0.26350313    -0.14766891     0              0.069634498    0.062393035  
    783000   0.26407877    -0.15109548     0              0.066682638    0.035782896  
    783500   0.26749752    -0.14057108     0              0.080026383    0.018830538  
    784000   0.27600444    -0.14271736     0              0.084895516    0.070614729  
    784500   0.26647433    -0.14772472     0              0.072028945   -0.027722883  
    785000   0.26031192    -0.14633118     0              0.068340521    0.12503117   
    785500   0.2490233     -0.14592361     0              0.059438702   -0.082671796  
    786000   0.25812818    -0.15340988     0              0.059460965    0.018802796  
    786500   0.24067182    -0.15062329     0              0.047851794    0.0069886231 
    787000   0.24542981    -0.15487118     0              0.047527682    0.091551046  
    787500   0.24005358    -0.14960225     0              0.048362988    0.13578493   
    788000   0.25443462    -0.14970954     0              0.060115327    0.12154109   
    788500   0.27812191    -0.15019766     0              0.079161431    0.097349768  
    789000   0.28282322    -0.1455613      0              0.087674822   -0.032014975  
    789500   0.29749726    -0.14269416     0              0.10264322     0.32048536   
    790000   0.27420878    -0.14371617     0              0.082415876   -0.12769289   
    790500   0.2787136     -0.14364977     0              0.086197275   -0.0042677502 
    791000   0.26688037    -0.14217886     0              0.077909659    0.074171647  
    791500   0.26372519    -0.13759099     0              0.07989554     0.096480681  
    792000   0.26026281    -0.13677883     0              0.077852378   -0.088651969  
    792500   0.25899939    -0.1413902      0              0.072199104   -0.0027032939 
    793000   0.25721979    -0.14028794     0              0.071833773    0.084346228  
    793500   0.24524972    -0.14077411     0              0.061476233    0.13878582   
    794000   0.23726491    -0.1463712      0              0.049294303    0.26084889   
    794500   0.2402298     -0.14905701     0              0.049053551   -0.091893278  
    795000   0.27690704    -0.14696309     0              0.081394131    0.02659275   
    795500   0.26471346    -0.14189686     0              0.076404668    0.49041077   
    796000   0.2652767     -0.1504298      0              0.068336218    0.075420029  
    796500   0.26420671    -0.15129478     0              0.066588843    0.15399177   
    797000   0.26750455    -0.15291003     0              0.067693228   -0.38734353   
    797500   0.25640246    -0.15360453     0              0.057843157    0.65694526   
    798000   0.25283406    -0.15691576     0              0.051589176   -0.023370396  
    798500   0.24946567    -0.15272633     0              0.053000785   -0.098091448  
    799000   0.26622611    -0.15026449     0              0.069284474   -0.055615339  
    799500   0.27156524    -0.14873102     0              0.075220968    0.072214838  
    800000   0.26607068    -0.14821565     0              0.071205137    0.062260528  
    800500   0.26397077    -0.14412445     0              0.073564607    0.17278614   
    801000   0.26269147    -0.14562314     0              0.071010913    0.14337842   
    801500   0.27366503    -0.14964505     0              0.076038572   -0.031170303  
    802000   0.26928351    -0.14489888     0              0.077171434   -0.044771245  
    802500   0.26122815    -0.14840907     0              0.067018225    0.075801063  
    803000   0.25526168    -0.14129182     0              0.069215096    0.23729574   
    803500   0.27136345    -0.14596513     0              0.07782046    -0.23502251   
    804000   0.25689533    -0.14351155     0              0.068342588   -0.018856386  
    804500   0.25987799    -0.15166549     0              0.06264837    -0.14671899   
    805000   0.25910308    -0.14804578     0              0.065629034   -0.012020912  
    805500   0.26015858    -0.14314975     0              0.071395504   -0.011259237  
    806000   0.25860469    -0.14884209     0              0.064421703    0.014146801  
    806500   0.27376557    -0.14740584     0              0.078360704    0.063977458  
    807000   0.25580196    -0.1443983      0              0.066554167    0.16918294   
    807500   0.25480229    -0.14837847     0              0.061749605    0.2225821    
    808000   0.26271262    -0.15192491     0              0.064726586    0.11927592   
    808500   0.25978237    -0.14760331     0              0.06663169     0.076685004  
    809000   0.26147881    -0.14402892     0              0.071605084    0.0071949707 
    809500   0.25288556    -0.15038846     0              0.058158941    0.042619595  
    810000   0.23974458    -0.15352214     0              0.044188274    0.06384298   
    810500   0.23483406    -0.15412794     0              0.039532911    0.030481511  
    811000   0.23493575    -0.14890854     0              0.044836177    0.025674811  
    811500   0.23662088    -0.14817471     0              0.046959678    0.043424104  
    812000   0.24213143    -0.14725302     0              0.052425755   -0.016410947  
    812500   0.23827856    -0.15822361     0              0.038277824   -0.058504384  
    813000   0.22962942    -0.15873553     0              0.030633208   -0.074724379  
    813500   0.22484575    -0.16106606     0              0.02435772     0.057024105  
    814000   0.23917576    -0.14733296     0              0.049908365    0.0088795014 
    814500   0.24947933    -0.15054358     0              0.055194804    0.083408926  
    815000   0.2471558     -0.1525196      0              0.051302637    0.025300987  
    815500   0.23750551    -0.15757984     0              0.038284082   -0.039844238  
    816000   0.22865673    -0.16189253     0              0.026674048    0.13836634   
    816500   0.21951037    -0.16281772     0              0.018206127    0.095449246  
    817000   0.21943999    -0.16872438     0              0.012241428    0.023461993  
    817500   0.22666473    -0.1608482      0              0.026075634    0.20748963   
    818000   0.23827713    -0.15747756     0              0.039022697   -0.0091916732 
    818500   0.25353649    -0.15668043     0              0.05240377    -0.15752921   
    819000   0.25720552    -0.15307554     0              0.059034411   -0.077995306  
    819500   0.25607144    -0.15273022     0              0.05844448    -0.057795122  
    820000   0.25682743    -0.1506482      0              0.061149945   -0.095185747  
    820500   0.25596582    -0.15857365     0              0.052513952   -0.062241164  
    821000   0.25627928    -0.15646046     0              0.054885645   -0.0081738157 
    821500   0.26164574    -0.15499595     0              0.060775714    0.14448388   
    822000   0.25357114    -0.15309675     0              0.056016033    0.054740678  
    822500   0.25095068    -0.14610759     0              0.060844177    0.077264328  
    823000   0.24981893    -0.14670063     0              0.059317807   -0.059724612  
    823500   0.24867658    -0.14840676     0              0.056669609    0.067250046  
    824000   0.24744762    -0.15547028     0              0.048592605   -0.015123773  
    824500   0.23694996    -0.15283661     0              0.042569163    0.4091693    
    825000   0.23563791    -0.15791422     0              0.036409545   -0.12365333   
    825500   0.23430298    -0.15528692     0              0.037935964   -0.010453411  
    826000   0.23820922    -0.16313162     0              0.033312623    0.03065867   
    826500   0.23278461    -0.16125966     0              0.030711068    0.093073286  
    827000   0.22287716    -0.15679436     0              0.027005979    0.063549897  
    827500   0.22412426    -0.15979207     0              0.025036718   -0.017786178  
    828000   0.21797165    -0.15978118     0              0.019973725   -0.27511017   
    828500   0.2240822     -0.16219477     0              0.022599337    0.16496152   
    829000   0.23866191    -0.15878095     0              0.038036621   -0.26174405   
    829500   0.24438758    -0.16193642     0              0.039602946    0.04698198   
    830000   0.23529737    -0.16512792     0              0.028915007   -0.057897523  
    830500   0.23969473    -0.16871172     0              0.028957583    0.10034769   
    831000   0.23933449    -0.16649155     0              0.030880679    0.037591995  
    831500   0.24657407    -0.16517996     0              0.038162536    0.056114365  
    832000   0.26257525    -0.16010748     0              0.056430728    0.27755502   
    832500   0.26115564    -0.15270311     0              0.062664387   -0.043176261  
    833000   0.25829368    -0.15498029     0              0.05802703     0.017572466  
    833500   0.26213345    -0.15164858     0              0.064525286   -0.029685505  
    834000   0.25587061    -0.1454691      0              0.065539987    0.082071469  
    834500   0.24970778    -0.14766419     0              0.058262591    0.12554368   
    835000   0.23795383    -0.15119205     0              0.045041584    0.010559721  
    835500   0.23541201    -0.15287238     0              0.04126509    -0.16231701   
    836000   0.2395762     -0.1479867      0              0.049584858    0.19623973   
    836500   0.25046468    -0.15267267     0              0.053878301   -0.042495345  
    837000   0.24250926    -0.15306765     0              0.046922718   -0.20135974   
    837500   0.24257127    -0.14635796     0              0.053683543   -0.028216696  
    838000   0.24018145    -0.14344626     0              0.054624421    0.057881412  
    838500   0.24286919    -0.13908661     0              0.061200575    0.084051289  
    839000   0.23838742    -0.14530726     0              0.051283951    0.091795681  
    839500   0.23293967    -0.14941198     0              0.042686623   -0.10266269   
    840000   0.22024048    -0.14493892     0              0.036687028    0.20784826   
    840500   0.2180622     -0.1476434      0              0.032186189    0.22294801   
    841000   0.21913858    -0.14945736     0              0.031259886   -0.16741385   
    841500   0.21484027    -0.15681189     0              0.020360658    0.084030822  
    842000   0.21976308    -0.15568837     0              0.025543878   -0.23060092   
    842500   0.22048685    -0.16378923     0              0.018039896   -0.090852902  
    843000   0.23048208    -0.15483015     0              0.035241745    0.010120801  
    843500   0.23885196    -0.15518004     0              0.041794259    0.023274766  
    844000   0.22959388    -0.1563999      0              0.032939531    0.044212758  
    844500   0.22623502    -0.15886428     0              0.027705192   -0.19769803   
    845000   0.22852144    -0.15387529     0              0.034579727   -0.10044421   
    845500   0.23474306    -0.15459873     0              0.038987084    0.020138811  
    846000   0.22732455    -0.15492853     0              0.032539451    0.17247779   
    846500   0.24723822    -0.15316958     0              0.050720629    0.16995104   
    847000   0.23747319    -0.15789504     0              0.037942223   -0.019457518  
    847500   0.22673285    -0.16172408     0              0.025255944   -0.055796192  
    848000   0.22090242    -0.15976771     0              0.022404118    0.10302683   
    848500   0.22426641    -0.15984641     0              0.025099606    0.06169335   
    849000   0.22232045    -0.16345484     0              0.019886394   -0.0088092301 
    849500   0.21751494    -0.16168381     0              0.017694464    0.014060492  
    850000   0.21373435    -0.16239205     0              0.013868485    0.0080011115 
    850500   0.22372013    -0.167349       0              0.017146513    0.21438668   
    851000   0.22153653    -0.1669916      0              0.015703162   -0.088455775  
    851500   0.22123266    -0.16708839     0              0.015355776   -0.22013563   
    852000   0.23280471    -0.16594015     0              0.026047156   -0.1172927    
    852500   0.2361459     -0.1583863      0              0.036356388   -0.051736386  
    853000   0.24202403    -0.15757348     0              0.042016735    0.15928116   
    853500   0.23475868    -0.15890694     0              0.034691744   -0.033466389  
    854000   0.2306561     -0.15452685     0              0.035688557    0.18359181   
    854500   0.22549351    -0.16084402     0              0.025113955    0.15704062   
    855000   0.22205467    -0.16431108     0              0.018810983   -0.10159477   
    855500   0.2294739     -0.15898464     0              0.03025584     0.20846685   
    856000   0.22057397    -0.15510876     0              0.026792216    0.15461412   
    856500   0.22745909    -0.1536868      0              0.033892129    0.1079696    
    857000   0.22448415    -0.15452095     0              0.030604636    0.12825733   
    857500   0.2419339     -0.15332925     0              0.046186635    0.19588155   
    858000   0.24387972    -0.16161947     0              0.039501075   -0.027741824  
    858500   0.24545       -0.15426802     0              0.048147488   -0.052260709  
    859000   0.2337909     -0.15350056     0              0.039300026   -0.082729235  
    859500   0.24901979    -0.16036241     0              0.044997004   -0.071749274  
    860000   0.2516391     -0.16134849     0              0.046170987   -0.051572825  
    860500   0.25284731    -0.14998914     0              0.058526714    0.13363345   
    861000   0.24998322    -0.15702393     0              0.049129992   -0.031335424  
    861500   0.25329388    -0.15701716     0              0.051866977    0.046550094  
    862000   0.25847202    -0.15649231     0              0.056662084   -0.014111095  
    862500   0.26205289    -0.15228515     0              0.063822284    0.21424632   
    863000   0.26860545    -0.14247825     0              0.079032889    0.051924942  
    863500   0.27244873    -0.14723322     0              0.077447356    0.16353586   
    864000   0.26624289    -0.14562569     0              0.073937111   -0.1369348    
    864500   0.25315213    -0.14702879     0              0.061738443   -0.053717087  
    865000   0.26598207    -0.15088419     0              0.068463523    0.053286585  
    865500   0.26311317    -0.14686561     0              0.070116202    0.054522829  
    866000   0.25813393    -0.14485431     0              0.068021262   -0.02636779   
    866500   0.25599894    -0.14315316     0              0.067961756   -0.16769486   
    867000   0.25125875    -0.14258863     0              0.064617187   -0.058879725  
    867500   0.25492767    -0.14957708     0              0.06065439    -0.016736     
    868000   0.25299713    -0.14418598     0              0.06445343     0.00022315208
    868500   0.2546882     -0.14462421     0              0.065409779    0.044731531  
    869000   0.24538947    -0.14796024     0              0.054405352   -0.10551432   
    869500   0.24196078    -0.1456818      0              0.053856252    0.010018938  
    870000   0.2418322     -0.14641539     0              0.053016621    0.22148063   
    870500   0.24989891    -0.14232146     0              0.063762938   -0.00053966512
    871000   0.23944968    -0.13942602     0              0.058041206    0.2535448    
    871500   0.22722874    -0.13735691     0              0.050032052   -0.038197535  
    872000   0.23450655    -0.13442173     0              0.058969032    0.046060754  
    872500   0.23731706    -0.13919414     0              0.056514368   -0.048393912  
    873000   0.24880704    -0.1391599      0              0.066024061   -0.066820184  
    873500   0.24803277    -0.14199785     0              0.062547595   -0.28297892   
    874000   0.23826259    -0.14374958     0              0.052738687   -0.055570913  
    874500   0.23823515    -0.14249417     0              0.053971465   -0.079466212  
    875000   0.23349256    -0.14528104     0              0.047273515   -0.16958316   
    875500   0.24058308    -0.15361736     0              0.044784541    0.39091538   
    876000   0.22770067    -0.14783048     0              0.039947668   -0.17833933   
    876500   0.24172522    -0.15925953     0              0.040084269   -0.15224861   
    877000   0.24114781    -0.1513793      0              0.047488322    0.49784778   
    877500   0.2353298     -0.16325433     0              0.030815338   -0.019398461  
    878000   0.25205474    -0.15792605     0              0.049936194    0.075710963  
    878500   0.24621313    -0.15055569     0              0.052489154   -0.26407264   
    879000   0.24742754    -0.15156561     0              0.052480714   -0.27006828   
    879500   0.25209773    -0.1515366      0              0.056361103    0.085114406  
    880000   0.24247852    -0.15457701     0              0.045388      -0.17939146   
    880500   0.25995047    -0.1440707      0              0.07030293    -0.0017014044 
    881000   0.26509179    -0.14504584     0              0.073567687   -0.30625474   
    881500   0.28537503    -0.1470579      0              0.088282632    0.20807203   
    882000   0.27423376    -0.14162917     0              0.084523467   -0.07595933   
    882500   0.27196894    -0.14480213     0              0.079482779   -0.19831938   
    883000   0.26080943    -0.14525212     0              0.069829861    0.62451167   
    883500   0.24721308    -0.13650599     0              0.067363488   -0.057837594  
    884000   0.24390476    -0.14375846     0              0.057382733   -0.19229216   
    884500   0.23986488    -0.14155189     0              0.056257731    0.29080355   
    885000   0.23478957    -0.14825548     0              0.045368676   -0.32373086   
    885500   0.25151707    -0.14517845     0              0.062240395    0.34142643   
    886000   0.24840229    -0.13831627     0              0.066533906   -0.21495981   
    886500   0.26866161    -0.14449364     0              0.077063819    0.12215395   
    887000   0.24954068    -0.13799722     0              0.06779175    -0.12246909   
    887500   0.24544822    -0.13960427     0              0.062809768   -0.13482558   
    888000   0.24770678    -0.14246764     0              0.061808974    0.20041252   
    888500   0.25244518    -0.13928557     0              0.068898661   -0.14561179   
    889000   0.23852279    -0.14402019     0              0.05268265    -0.058082659  
    889500   0.22979504    -0.14072575     0              0.048779568   -0.092987671  
    890000   0.22730232    -0.13996553     0              0.047484113    0.047346637  
    890500   0.22834316    -0.14586606     0              0.042441933   -0.08821518   
    891000   0.23494779    -0.14367332     0              0.050081322    0.088079089  
    891500   0.22390424    -0.13839219     0              0.046255163    0.29342355   
    892000   0.22506191    -0.14607265     0              0.039529389    0.28963289   
    892500   0.21751545    -0.14953899     0              0.029839705    0.090776675  
    893000   0.23856618    -0.14199736     0              0.054741261    0.026687866  
    893500   0.23804047    -0.1408849      0              0.055420182    0.076301178  
    894000   0.24840999    -0.13773403     0              0.067122492   -0.10205475   
    894500   0.25248438    -0.13576757     0              0.072448987    0.083638014  
    895000   0.26115289    -0.12821124     0              0.087153986    0.10580346   
    895500   0.26531967    -0.13261676     0              0.08618469     0.03507512   
    896000   0.25800103    -0.13013692     0              0.082629061    0.068543443  
    896500   0.25997107    -0.13138533     0              0.083005282    0.25374712   
    897000   0.27042006    -0.13701242     0              0.085995168    0.061676958  
    897500   0.26474318    -0.12856774     0              0.0897583      0.016027511  
    898000   0.25982863    -0.13008295     0              0.084190201   -0.057218707  
    898500   0.25646921    -0.12571584     0              0.085786887   -0.019472445  
    899000   0.26781531    -0.12612083     0              0.094738701    0.19147987   
    899500   0.25103061    -0.13164633     0              0.075371345    0.10639324   
    900000   0.24326127    -0.11931873     0              0.081291796    0.087399779  
    900500   0.23882018    -0.11885707     0              0.078091023    0.15102125   
    901000   0.24166494    -0.12050454     0              0.078789536   -0.11322841   
    901500   0.23018061    -0.11898048     0              0.070842811   -0.13646591   
    902000   0.22796586    -0.1298979      0              0.058098945   -0.12547933   
    902500   0.23058363    -0.11938812     0              0.070767521    0.27552485   
    903000   0.24902997    -0.12973698     0              0.075630833    0.11209174   
    903500   0.25572418    -0.12071815     0              0.090170178    0.0086918987 
    904000   0.23634407    -0.12834186     0              0.066564256    0.0034257942 
    904500   0.24113135    -0.12889711     0              0.069956929    0.053207221  
    905000   0.23808501    -0.12667591     0              0.069665902   -0.040546171  
    905500   0.24198046    -0.12339336     0              0.076160916    0.092053744  
    906000   0.23472361    -0.13084787     0              0.062721894   -0.016890516  
    906500   0.23348812    -0.12812614     0              0.064424755    0.006210923  
    907000   0.2351949     -0.13047564     0              0.063482788    0.22675013   
    907500   0.23572728    -0.13169615     0              0.062701318   -0.13108698   
    908000   0.23699812    -0.1346371      0              0.060808387    0.1199927    
    908500   0.24365929    -0.13376233     0              0.067176426   -0.12554333   
    909000   0.24749832    -0.12439945     0              0.079705244    0.043407731  
    909500   0.25199807    -0.12996319     0              0.077852322    0.03529449   
    910000   0.25439885    -0.13421246     0              0.075582911   -0.064427731  
    910500   0.27289871    -0.13833695     0              0.086714713    0.085343424  
    911000   0.27315799    -0.13596478     0              0.089300704   -0.25564273   
    911500   0.27934011    -0.13483425     0              0.095529453   -0.0053416019 
    912000   0.28035838    -0.12921023     0              0.10199321     0.079777441  
    912500   0.26432063    -0.12766092     0              0.09031666    -0.11814594   
    913000   0.27662763    -0.12999708     0              0.098129719   -0.21211411   
    913500   0.26691484    -0.12954628     0              0.090570656   -0.010331685  
    914000   0.25725136    -0.12693123     0              0.085216518   -0.064384684  
    914500   0.25073758    -0.13622321     0              0.070552819    0.20937737   
    915000   0.25162621    -0.13017463     0              0.077334222    0.0020349343 
    915500   0.25580163    -0.13463809     0              0.076314117    0.23719927   
    916000   0.24294793    -0.12667812     0              0.073674006    0.4249559    
    916500   0.25126883    -0.13023417     0              0.076979961   -0.14554076   
    917000   0.23976099    -0.13199192     0              0.065732032    0.16582918   
    917500   0.24071788    -0.13214044     0              0.06637262     0.041104633  
    918000   0.23771058    -0.13518299     0              0.060850049   -0.1271364    
    918500   0.24527309    -0.12819409     0              0.074075531    0.029972491  
    919000   0.25379412    -0.13314157     0              0.076155088    0.069358613  
    919500   0.25443482    -0.1343295      0              0.07549553     0.22926476   
    920000   0.24404687    -0.12969071     0              0.07156768    -0.09040647   
    920500   0.24784575    -0.13505313     0              0.069338086   -0.099547061  
    921000   0.2412158     -0.12783386     0              0.071089831   -0.16436027   
    921500   0.24658836    -0.13355311     0              0.069801168   -0.03603711   
    922000   0.2564059     -0.13199587     0              0.07945466     0.28804285   
    922500   0.23851131    -0.13032021     0              0.06637317     0.037288367  
    923000   0.24013781    -0.13009383     0              0.067940871    0.11188736   
    923500   0.23752159    -0.13264776     0              0.063229418    0.080688527  
    924000   0.2381832     -0.13278981     0              0.063632988    0.16773848   
    924500   0.24327831    -0.13838909     0              0.062235491   -0.13002562   
    925000   0.25034265    -0.13705965     0              0.069390685    0.11905157   
    925500   0.23781973    -0.13443917     0              0.061683875   -0.1707217    
    926000   0.2256785     -0.13775525     0              0.048355283   -0.011893592  
    926500   0.21924303    -0.13973241     0              0.041070972    0.11841327   
    927000   0.23255813    -0.14104484     0              0.050739121   -0.0068409495 
    927500   0.23938271    -0.13270727     0              0.064704721   -0.13502965   
    928000   0.23051608    -0.13291103     0              0.057188903   -0.027510023  
    928500   0.22508948    -0.13387554     0              0.051749244   -0.053389159  
    929000   0.23041433    -0.13504759     0              0.05496844     0.1339385    
    929500   0.22526698    -0.13629986     0              0.049471299    0.23576016   
    930000   0.23121057    -0.13726336     0              0.053409306    0.092309163  
    930500   0.23100747    -0.13865407     0              0.051851105   -0.092229098  
    931000   0.22673112    -0.13207663     0              0.054901959    0.12302283   
    931500   0.23732105    -0.13643025     0              0.059281548   -0.19577584   
    932000   0.23864333    -0.13759605     0              0.059206197    0.19976422   
    932500   0.24865602    -0.13853621     0              0.066523219    0.22649262   
    933000   0.23650613    -0.13830885     0              0.056730914   -0.16002657   
    933500   0.24051458    -0.14542863     0              0.052916788   -0.39463796   
    934000   0.23461541    -0.14699197     0              0.04648857    -0.34540592   
    934500   0.22788553    -0.14712656     0              0.040804039   -0.27998185   
    935000   0.22910808    -0.14618588     0              0.042752925    0.36900589   
    935500   0.23733974    -0.13615463     0              0.059572582   -0.0055362223 
    936000   0.24708836    -0.14428213     0              0.059484485   -0.25626445   
    936500   0.25899629    -0.13418032     0              0.079406424   -0.079589075  
    937000   0.25894654    -0.13727113     0              0.076274585    0.34133381   
    937500   0.2667037     -0.13493596     0              0.085006862   -0.072141515  
    938000   0.26837463    -0.12905663     0              0.092264166    0.10076177   
    938500   0.26376238    -0.13503248     0              0.082484714   -0.10148592   
    939000   0.26758274    -0.13124675     0              0.089420981   -0.09710384   
    939500   0.26128107    -0.13650016     0              0.07897077    -0.045696592  
    940000   0.25305224    -0.13193967     0              0.076745187   -0.10426805   
    940500   0.24995037    -0.13913535     0              0.06699149    -0.023948768  
    941000   0.25335727    -0.13466565     0              0.07427075     0.57619333   
    941500   0.25772948    -0.13650648     0              0.076035561   -0.052306901  
    942000   0.24034287    -0.13658084     0              0.061622965    0.16521918   
    942500   0.25633435    -0.13385437     0              0.077537145    0.53499092   
    943000   0.24995035    -0.13132774     0              0.074799078   -0.23901462   
    943500   0.24801329    -0.13760123     0              0.066928148    0.022412874  
    944000   0.23696171    -0.13647982     0              0.058935642   -0.12950324   
    944500   0.2362004     -0.13609857     0              0.05868906    -0.10201355   
    945000   0.24845383    -0.14250476     0              0.062387927   -0.20732754   
    945500   0.23612561    -0.13420268     0              0.060523276   -0.22841255   
    946000   0.23203852    -0.13699995     0              0.054355498    0.046040308  
    946500   0.23945696    -0.14446279     0              0.05301044     0.021701518  
    947000   0.23371578    -0.13585634     0              0.05688229    -0.040060206  
    947500   0.25272407    -0.13632445     0              0.072089773   -0.0065263773 
    948000   0.24053937    -0.13514408     0              0.063221773    0.29401157   
    948500   0.23881195    -0.14075555     0              0.056185745    0.33016787   
    949000   0.23173003    -0.13947567     0              0.051625375    0.42034322   
    949500   0.23090098    -0.13723322     0              0.053184133    0.17619497   
    950000   0.24104877    -0.13875618     0              0.060029759   -0.058209935  
    950500   0.25442054    -0.13257037     0              0.077242881    0.33004914   
    951000   0.26323461    -0.13238391     0              0.084698058    0.087001298  
    951500   0.26722727    -0.1294604      0              0.090914197    0.050613885  
    952000   0.26419475    -0.13071001     0              0.087163746    0.0077787289 
    952500   0.25379537    -0.12878624     0              0.080511457    0.35700979   
    953000   0.24774607    -0.12921022     0              0.075098796    0.026113708  
    953500   0.24880287    -0.12609625     0              0.079084278    0.75084488   
    954000   0.24046467    -0.13761312     0              0.060691129    0.073043783  
    954500   0.23752735    -0.14081566     0              0.05506627     0.59419152   
    955000   0.24114265    -0.13666188     0              0.062201482    0.2540402    
    955500   0.2431313     -0.13194472     0              0.068558623    0.0039864485 
    956000   0.25455767    -0.13728092     0              0.072645422   -0.074260527  
    956500   0.25231772    -0.13472666     0              0.073352462    0.53806164   
    957000   0.25347188    -0.13342487     0              0.075606051   -0.069350598  
    957500   0.2409188     -0.13242868     0              0.066250086   -0.062193602  
    958000   0.23829032    -0.14374057     0              0.052770559   -0.066265343  
    958500   0.24162625    -0.14370973     0              0.05555244    -0.11648739   
    959000   0.24405208    -0.1424916      0              0.058771084    0.17850089   
    959500   0.25142598    -0.14581217     0              0.061531552    0.48142608   
    960000   0.25927921    -0.14206675     0              0.071753308    0.069998191  
    960500   0.26638615    -0.13479552     0              0.084885425    0.39792906   
    961000   0.27616179    -0.13662366     0              0.091118972   -0.01673909   
    961500   0.26700495    -0.13053117     0              0.089660088    0.045456633  
    962000   0.26480044    -0.1320235      0              0.086349759    0.067753732  
    962500   0.25794804    -0.12883235     0              0.083889938   -0.20256289   
    963000   0.265557      -0.12564667     0              0.093350505   -0.028781574  
    963500   0.25857318    -0.12806078     0              0.085177032   -0.13322495   
    964000   0.25393382    -0.12943565     0              0.07997622    -0.17410268   
    964500   0.25443102    -0.13098005     0              0.078841854    0.27596687   
    965000   0.2427747     -0.13142561     0              0.068783662   -0.085740515  
    965500   0.23375308    -0.13209139     0              0.060678004   -0.20838238   
    966000   0.22721536    -0.13683364     0              0.050544291    0.159487     
    966500   0.22810542    -0.131342       0              0.056769931   -0.25948433   
    967000   0.23817334    -0.1378073      0              0.058607363    0.29887512   
    967500   0.24614751    -0.13400712     0              0.068983606    0.35174466   
    968000   0.2441301     -0.13425854     0              0.067068489   -0.040537468  
    968500   0.2445651     -0.14148551     0              0.060200246   -0.24108735   
    969000   0.22708287    -0.13514635     0              0.052122319    0.28841211   
    969500   0.22083581    -0.13920128     0              0.042915627    0.21549691   
    970000   0.21613078    -0.14541854     0              0.032818261    0.38244657   
    970500   0.21002166    -0.13852859     0              0.034670185    0.2264862    
    971000   0.2159551     -0.13936364     0              0.038728278   -0.38549241   
    971500   0.22440911    -0.13677735     0              0.048286346    0.49409453   
    972000   0.22477093    -0.13209011     0              0.053271968    0.090269418  
    972500   0.21975326    -0.13193234     0              0.049291818   -0.11237922   
    973000   0.21422688    -0.13301275     0              0.043653953   -0.016686028  
    973500   0.2181785     -0.13105481     0              0.048870684   -0.23030006   
    974000   0.22457397    -0.14068906     0              0.044510593   -0.041471924  
    974500   0.21103524    -0.14057057     0              0.033464083   -0.094955107  
    975000   0.21298606    -0.13720518     0              0.038438258   -0.15474848   
    975500   0.22763421    -0.13673433     0              0.050989017   -0.20858879   
    976000   0.23102431    -0.14113131     0              0.049387757    0.028732604  
    976500   0.23140373    -0.13988386     0              0.050948098    0.014002139  
    977000   0.23577555    -0.13675047     0              0.0576868     -0.081692467  
    977500   0.24451442    -0.13587628     0              0.065767682   -0.35776191   
    978000   0.24585418    -0.13914183     0              0.063606991   -0.28252728   
    978500   0.24990164    -0.13905293     0              0.067033723    0.42759791   
    979000   0.28016206    -0.13381896     0              0.097222587    0.37435932   
    979500   0.27658867    -0.13049227     0              0.097602404   -0.30735401   
    980000   0.26227318    -0.13118015     0              0.085108951   -0.33227567   
    980500   0.26788781    -0.13110714     0              0.089812185   -0.21050523   
    981000   0.28560316    -0.1303477      0              0.10518095    -0.31049591   
    981500   0.27790517    -0.11828542     0              0.11089493    -0.26325223   
    982000   0.28084939    -0.11700796     0              0.11460041     0.22877337   
    982500   0.27894302    -0.11995065     0              0.11008559     0.001315499  
    983000   0.26958911    -0.12023581     0              0.10208652    -0.25344753   
    983500   0.26237974    -0.12295674     0              0.093420243   -0.44304602   
    984000   0.25505864    -0.12802423     0              0.082315248   -0.21031544   
    984500   0.24366589    -0.12623135     0              0.07471285    -0.27948144   
    985000   0.22882604    -0.1308449      0              0.057861311    0.19988349   
    985500   0.23473459    -0.13252642     0              0.061052402   -0.37172931   
    986000   0.2306893     -0.13120808     0              0.059034712    0.53499931   
    986500   0.2328421     -0.13544654     0              0.0565716      0.3928414    
    987000   0.22711421    -0.13268414     0              0.054610376    0.37054198   
    987500   0.22942462    -0.13482816     0              0.054371677   -0.38408808   
    988000   0.23463864    -0.13914008     0              0.054359619   -0.13143349   
    988500   0.23783137    -0.14088034     0              0.055252304   -0.22190936   
    989000   0.2288224     -0.13714113     0              0.051562078   -0.15587945   
    989500   0.22512571    -0.1417276      0              0.04392705    -0.32259104   
    990000   0.22646119    -0.14099901     0              0.045756975   -0.12803306   
    990500   0.22708058    -0.13998408     0              0.047282698    0.70814874   
    991000   0.24120971    -0.14235544     0              0.056563218   -0.37294965   
    991500   0.25534425    -0.13577344     0              0.074801571   -0.093810019  
    992000   0.26036654    -0.14187495     0              0.072841802   -0.16759137   
    992500   0.25868449    -0.14117839     0              0.072151226   -0.2044765    
    993000   0.24934006    -0.14172769     0              0.063895841    0.26061752   
    993500   0.23996051    -0.14891692     0              0.048971565    0.022692444  
    994000   0.24019367    -0.15239729     0              0.045683474    0.054776595  
    994500   0.22704067    -0.14247523     0              0.044758637    0.26135371   
    995000   0.2345806     -0.15156821     0              0.041883623   -0.28848652   
    995500   0.24379756    -0.14176314     0              0.059289649    0.18709699   
    996000   0.24122193    -0.14312231     0              0.055806429    0.047999842  
    996500   0.24643885    -0.143157       0              0.06007399    -0.011919781  
    997000   0.2407934     -0.14222233     0              0.056353015   -0.18204047   
    997500   0.24023107    -0.14617365     0              0.051937953   -0.13096442   
    998000   0.24524567    -0.14110404     0              0.061142964   -0.15775871   
    998500   0.24050059    -0.13899546     0              0.059338421    0.10146528   
    999000   0.23832342    -0.14284786     0              0.053690568    0.22132288   
    999500   0.24842866    -0.13870473     0              0.066167192   -0.016208928  
   1000000   0.25034998    -0.13732505     0              0.069131325   -0.0050272054 
   1000001   0.25036345    -0.13739987     0              0.069067625    0.078347355  
Loop time of 442.037 on 4 procs for 1000000 steps with 1520 atoms

Performance: 195458.914 tau/day, 2262.256 timesteps/s, 3.439 Matom-step/s
91.3% CPU use with 4 MPI tasks x 1 OpenMP threads

MPI task timing breakdown:
Section |  min time  |  avg time  |  max time  |%varavg| %total
---------------------------------------------------------------
Pair    | 61.374     | 62.977     | 64.608     |  18.3 | 14.25
Bond    | 0.18109    | 0.19875    | 0.21282    |   3.0 |  0.04
Neigh   | 11.5       | 11.503     | 11.506     |   0.1 |  2.60
Comm    | 54.227     | 55.918     | 57.607     |  20.0 | 12.65
Output  | 1.709      | 1.7535     | 1.7969     |   2.5 |  0.40
Modify  | 296.89     | 297.25     | 297.7      |   2.1 | 67.25
Other   |            | 12.43      |            |       |  2.81

Nlocal:            380 ave         413 max         352 min
Histogram: 1 1 0 0 0 0 1 0 0 1
Nghost:         960.75 ave         981 max         947 min
Histogram: 1 1 0 0 1 0 0 0 0 1
Neighs:              0 ave           0 max           0 min
Histogram: 4 0 0 0 0 0 0 0 0 0

Total # of neighbors = 0
Ave neighs/atom = 0
Ave special neighs/atom = 2.0657895
Neighbor list builds = 5489
Dangerous builds = 0

unfix ThermoLng

# Now we let the system to create the polymeric network
fix ThermoLng all langevin ${temp} ${temp} ${damp} 12345 # Brownian Dynamics: langevin + nve
fix ThermoLng all langevin 0.05 ${temp} ${damp} 12345 
fix ThermoLng all langevin 0.05 0.05 ${damp} 12345 
fix ThermoLng all langevin 0.05 0.05 10 12345 
run ${steps}
run 1000000
WARNING: Using a manybody potential with bonds/angles/dihedrals and special_bond exclusions (src/pair.cpp:243)
Hybrid pair style last /omp style sw/omp
Last active /omp style is pair_style sw/omp
WARNING: More than one fix rigid command (src/RIGID/fix_rigid_small.cpp:529)
WARNING: More than one fix rigid command (src/RIGID/fix_rigid_small.cpp:529)
WARNING: One or more atoms are time integrated more than once (src/modify.cpp:296)
WARNING: Computing temperature of portions of rigid bodies (src/RIGID/fix_rigid_small.cpp:1178)
WARNING: Computing temperature of portions of rigid bodies (src/RIGID/fix_rigid_small.cpp:1178)
Per MPI rank memory allocation (min/avg/max) = 21.35 | 21.35 | 21.35 Mbytes
   Step          Temp          E_pair         E_mol          TotEng         Press     
   1000001   0.25030259    -0.13739987     0              0.069017432    0.50242742   
   1000500   0.25579177    -0.13297392     0              0.077970151   -0.092916684  
   1001000   0.2378777     -0.13151867     0              0.064652186    0.13263881   
   1001500   0.24666181    -0.13291246     0              0.070502401   -0.079495619  
   1002000   0.25264226    -0.13492941     0              0.073417345   -0.1372307    
   1002500   0.24678556    -0.13513409     0              0.068382818   -0.16357524   
   1003000   0.23167603    -0.13037566     0              0.060680852    0.16342765   
   1003500   0.2296847     -0.13122906     0              0.058185261    0.089695974  
   1004000   0.23428986    -0.13507305     0              0.058139016   -0.0073742799 
   1004500   0.23789791    -0.1294335      0              0.066754024    0.07380868   
   1005000   0.24405889    -0.13334422     0              0.067924078   -0.027714412  
   1005500   0.22718014    -0.12875769     0              0.058591194    0.020640497  
   1006000   0.22424778    -0.13574518     0              0.049185478    0.09434361   
   1006500   0.23055229    -0.13285193     0              0.057277869    0.22558832   
   1007000   0.23096808    -0.12759096     0              0.062881728    1.0109814    
   1007500   0.24560019    -0.13247053     0              0.070068833    0.27865686   
   1008000   0.23466469    -0.1311032      0              0.06241798    -0.20736981   
   1008500   0.23728125    -0.12927105     0              0.066407926    0.46242967   
   1009000   0.22930591    -0.13240905     0              0.056692903   -0.21661631   
   1009500   0.24327503    -0.13430246     0              0.066319415   -0.09032704   
   1010000   0.24136162    -0.12954191     0              0.069502033    0.2458607    
   1010500   0.24020675    -0.13556797     0              0.062523581    0.57667412   
   1011000   0.23615197    -0.13384279     0              0.060904903   -0.45404143   
   1011500   0.23008557    -0.1328733      0              0.056871606   -0.073075866  
   1012000   0.23275229    -0.14226128     0              0.049682794   -0.12818113   
   1012500   0.22525925    -0.14340002     0              0.04236476     0.34872437   
   1013000   0.2320892     -0.14038583     0              0.051011411    0.092707602  
   1013500   0.22885953    -0.13658672     0              0.052147111   -0.05293513   
   1014000   0.22890676    -0.13991291     0              0.048859863    0.35049028   
   1014500   0.22918667    -0.14553809     0              0.043465522   -0.149001     
   1015000   0.24390061    -0.14464344     0              0.056494325   -0.17706954   
   1015500   0.24515972    -0.1448419      0              0.057334223   -0.075961975  
   1016000   0.22704327    -0.14361955     0              0.043616462    0.093992395  
   1016500   0.22889375    -0.14410995     0              0.044652095   -0.19303219   
   1017000   0.24849981    -0.13732838     0              0.067602218   -0.11216363   
   1017500   0.24754628    -0.14022275     0              0.063921504   -0.12785843   
   1018000   0.24341256    -0.14141302     0              0.059322275    0.25809465   
   1018500   0.24382153    -0.14721492     0              0.053857645   -0.22317195   
   1019000   0.26327236    -0.14095992     0              0.076153174   -0.04095847   
   1019500   0.25285926    -0.13784729     0              0.070678419    0.066236872  
   1020000   0.2477402     -0.13619922     0              0.068104954    0.098080178  
   1020500   0.24755856    -0.13580576     0              0.068348618    0.098993925  
   1021000   0.24506883    -0.13165294     0              0.070448221   -0.091839827  
   1021500   0.2397941     -0.13477898     0              0.062972269   -0.20874647   
   1022000   0.25048065    -0.1373279      0              0.069236234    0.00086825654
   1022500   0.24930088    -0.13408276     0              0.071508459    0.27891073   
   1023000   0.25690986    -0.13818158     0              0.073684542   -0.004702612  
   1023500   0.25336976    -0.13499909     0              0.073947611   -0.053134097  
   1024000   0.25844018    -0.13141769     0              0.081710446   -0.026525184  
   1024500   0.2600908     -0.13077594     0              0.083713419    0.01356009   
   1025000   0.26401795    -0.13159327     0              0.086134689    0.037222073  
   1025500   0.26298743    -0.1344972      0              0.082380929   -0.045092402  
   1026000   0.25334823    -0.13477834     0              0.074150614   -0.061183013  
   1026500   0.26800634    -0.13792644     0              0.083090631    0.057955471  
   1027000   0.2585919     -0.1380641      0              0.075189161   -0.15797495   
   1027500   0.24523245    -0.13619208     0              0.066044024   -0.065905671  
   1028000   0.24794258    -0.13078284     0              0.073688229    0.17547439   
   1028500   0.24406048    -0.13701208     0              0.06425753     0.25362215   
   1029000   0.26148782    -0.12944148     0              0.086199953    0.035387698  
   1029500   0.29042185    -0.12529051     0              0.11421199    -0.089941571  
   1030000   0.28016147    -0.12706133     0              0.10397972    -0.18447765   
   1030500   0.2755566     -0.12789816     0              0.099345399    0.022677707  
   1031000   0.26852229    -0.1261403      0              0.095302254   -0.034672941  
   1031500   0.28588699    -0.12308215     0              0.11268058    -0.091228344  
   1032000   0.27756361    -0.12088005     0              0.10801863     0.2375775    
   1032500   0.2802307     -0.12192506     0              0.10917309     0.0088292158 
   1033000   0.2854303     -0.13081149     0              0.10457462     0.31317383   
   1033500   0.27333942    -0.12644016     0              0.098974949   -0.15230556   
   1034000   0.26464043    -0.12734431     0              0.090896988    0.11022562   
   1034500   0.27747648    -0.12709864     0              0.10172818    -0.085144153  
   1035000   0.27760301    -0.12160959     0              0.10732157     0.17582162   
   1035500   0.28783669    -0.12431898     0              0.1130516     -0.013741425  
   1036000   0.28076972    -0.12041508     0              0.11112759     0.22603014   
   1036500   0.27477361    -0.12392655     0              0.10267129     0.13304956   
   1037000   0.27700855    -0.12363628     0              0.10480465     0.0065231383 
   1037500   0.26932774    -0.12342481     0              0.09868198     0.054087388  
   1038000   0.26226636    -0.12737051     0              0.088912968    0.034269282  
   1038500   0.25476522    -0.13266224     0              0.077435262   -0.017393755  
   1039000   0.24878314    -0.13587364     0              0.069290615    0.022703176  
   1039500   0.26344223    -0.1387405      0              0.078512675    0.060469667  
   1040000   0.25220363    -0.13914853     0              0.068836501   -0.07000014   
   1040500   0.24568948    -0.14102528     0              0.061587718   -0.12087082   
   1041000   0.24893506    -0.13619399     0              0.069095543   -0.099822101  
   1041500   0.26278909    -0.13913961     0              0.077574942    0.024880656  
   1042000   0.25682067    -0.13174815     0              0.080044426    0.12867694   
   1042500   0.25516607    -0.13769303     0              0.072735034    0.16774595   
   1043000   0.26066769    -0.13997904     0              0.074986055   -0.27422853   
   1043500   0.25074719    -0.13894869     0              0.067835253    0.13140634   
   1044000   0.25478274    -0.13396512     0              0.076146833    0.19318446   
   1044500   0.25166522    -0.14116851     0              0.06637251    -0.10817356   
   1045000   0.24157496    -0.1375988      0              0.061621077   -0.060049271  
   1045500   0.25067509    -0.13811162     0              0.06861287     0.035048986  
   1046000   0.24133645    -0.14049062     0              0.058532563   -0.067448507  
   1046500   0.26597628    -0.13954163     0              0.079801309    0.039645282  
   1047000   0.26736296    -0.13948807     0              0.080998417    0.098848172  
   1047500   0.25729255    -0.13406362     0              0.078118098    0.042597461  
   1048000   0.23954312    -0.13681026     0              0.060734019   -0.01683751   
   1048500   0.24728858    -0.14213606     0              0.061795679   -0.10000314   
   1049000   0.25347814    -0.13959183     0              0.069444258   -0.025869455  
   1049500   0.2576869     -0.13104785     0              0.081459074    0.0024715202 
   1050000   0.25851839    -0.13355915     0              0.079633489    0.22492889   
   1050500   0.26090724    -0.13458549     0              0.080577157    0.069705992  
   1051000   0.25519028    -0.12937086     0              0.081077174    0.18388107   
   1051500   0.23993893    -0.12540272     0              0.072467971    0.20046433   
   1052000   0.2361624     -0.12664931     0              0.068106986   -0.04760406   
   1052500   0.26093657    -0.12972879     0              0.08545805    -0.11606653   
   1053000   0.27029004    -0.12636013     0              0.096540245    0.162167     
   1053500   0.27056901    -0.12068691     0              0.10244352    -0.074797132  
   1054000   0.26707254    -0.12194866     0              0.098298335    0.21185243   
   1054500   0.25439221    -0.11998784     0              0.089802053    0.11854198   
   1055000   0.26241809    -0.11966209     0              0.096746512    0.020739662  
   1055500   0.25408149    -0.12303963     0              0.086494016   -0.081785949  
   1056000   0.24539743    -0.12841399     0              0.073958169    0.097545464  
   1056500   0.2518706     -0.1188805      0              0.088829894   -0.044282953  
   1057000   0.25113593    -0.11839841     0              0.088706128    0.017935681  
   1057500   0.24410067    -0.12154425     0              0.07975851     0.0077775947 
   1058000   0.2506101     -0.12433617     0              0.082334719   -0.033646943  
   1058500   0.25749465    -0.12134592     0              0.091002471   -0.012859881  
   1059000   0.25191306    -0.12234178     0              0.085403627    0.1131602    
   1059500   0.26779547    -0.12594405     0              0.094899128   -0.14018911   
   1060000   0.27163684    -0.12373436     0              0.10027669    -0.019665348  
   1060500   0.26371377    -0.12475065     0              0.092726461   -0.038160808  
   1061000   0.25852191    -0.12363682     0              0.08955871    -0.05296397   
   1061500   0.26111985    -0.12108887     0              0.094249111    0.017214722  
   1062000   0.25830218    -0.12125682     0              0.091757515   -0.022766423  
   1062500   0.24787087    -0.12998874     0              0.07442319    -0.11331091   
   1063000   0.24423708    -0.12956551     0              0.071849742   -0.067997982  
   1063500   0.24671242    -0.13356761     0              0.069888983    0.37115315   
   1064000   0.2472139     -0.13285254     0              0.071017609   -0.039798829  
   1064500   0.25994668    -0.12808556     0              0.086284941   -0.019302488  
   1065000   0.26342128    -0.1333561      0              0.083879807    0.095430384  
   1065500   0.2516444     -0.12810041     0              0.079423437   -0.14953371   
   1066000   0.24482532    -0.13001671     0              0.071883639    0.12682647   
   1066500   0.2585063     -0.13365333     0              0.079529336    0.10099244   
   1067000   0.26064306    -0.13514449     0              0.079800292    0.032926146  
   1067500   0.27856313    -0.13368743     0              0.096035517    0.024875487  
   1068000   0.28272594    -0.12905426     0              0.10410164     0.10986774   
   1068500   0.28785586    -0.13317088     0              0.10421551     0.030473176  
   1069000   0.29474886    -0.13604859     0              0.10702226     0.018191121  
   1069500   0.28386245    -0.13050296     0              0.10359019    -0.0058576523 
   1070000   0.26923128    -0.13676818     0              0.08525906     0.009608512  
   1070500   0.27315958    -0.13381048     0              0.091456315    0.17905303   
   1071000   0.26958915    -0.13384045     0              0.088481918   -0.031322775  
   1071500   0.28114456    -0.13654492     0              0.095306859   -0.070992399  
   1072000   0.27798911    -0.13454014     0              0.094709433    0.13579573   
   1072500   0.27796656    -0.12900011     0              0.10023086     0.11629053   
   1073000   0.2732865     -0.13817013     0              0.087201329    0.30438731   
   1073500   0.27111624    -0.13425349     0              0.089328223    0.078163991  
   1074000   0.27189447    -0.13715115     0              0.087072344    0.1983769    
   1074500   0.28443191    -0.13350383     0              0.10105893    -0.1880718    
   1075000   0.28540227    -0.13137635     0              0.10398664    -0.045888989  
   1075500   0.28472862    -0.12603957     0              0.10876788    -0.01007325   
   1076000   0.27459787    -0.13323978     0              0.093213137    0.044061138  
   1076500   0.26173043    -0.13749241     0              0.078349101    0.073275151  
   1077000   0.2584382     -0.13505814     0              0.078068364   -0.078494534  
   1077500   0.26879606    -0.13591708     0              0.085751248   -0.23829181   
   1078000   0.2628762     -0.13687128     0              0.079915114   -0.039387467  
   1078500   0.2906105     -0.13157894     0              0.10807912     0.094101295  
   1079000   0.27581198    -0.12855718     0              0.098896975    0.12282764   
   1079500   0.25827439    -0.12506918     0              0.087922232    0.15710096   
   1080000   0.26206889    -0.14057022     0              0.07555041    -0.024655551  
   1080500   0.25856962    -0.12874018     0              0.084494704   -0.22527207   
   1081000   0.2622558     -0.13225889     0              0.084015875    0.17495095   
   1081500   0.26760558    -0.13717946     0              0.083507121   -0.27290312   
   1082000   0.2680489     -0.13575955     0              0.085292626   -0.14058175   
   1082500   0.26730102    -0.13284503     0              0.087590388    0.04120854   
   1083000   0.2720844     -0.12526125     0              0.09911888     0.081001822  
   1083500   0.28126271    -0.12505627     0              0.10689294    -0.030744217  
   1084000   0.28408885    -0.11864879     0              0.11563106    -0.12332289   
   1084500   0.27827651    -0.12121092     0              0.10827566     0.19366217   
   1085000   0.27916672    -0.12377063     0              0.10645009     0.10662281   
   1085500   0.28074676    -0.1231366      0              0.10838713     0.01949717   
   1086000   0.26720964    -0.12669328     0              0.093666773   -0.046012753  
   1086500   0.26871543    -0.12466805     0              0.09693378    -0.018711234  
   1087000   0.2944324     -0.12911125     0              0.11369862    -0.021380672  
   1087500   0.27673349    -0.12285465     0              0.10535945     0.010467257  
   1088000   0.28017032    -0.12375272     0              0.10729563     0.066127297  
   1088500   0.26658678    -0.12339326     0              0.096453143   -0.010716581  
   1089000   0.28889348    -0.12544019     0              0.1128019      0.096289515  
   1089500   0.28018963    -0.12208895     0              0.10897533    -0.020342402  
   1090000   0.28845069    -0.11839508     0              0.11948185    -0.02907877   
   1090500   0.27076932    -0.12029811     0              0.10299751     0.047515605  
   1091000   0.27759738    -0.12885055     0              0.10007597     0.43886699   
   1091500   0.26053075    -0.1213999      0              0.09345227     0.1598549    
   1092000   0.27279703    -0.12251504     0              0.10245277     0.25473303   
   1092500   0.25967406    -0.12527453     0              0.088871157   -0.13196694   
   1093000   0.26708997    -0.12527298     0              0.094988395    0.11345419   
   1093500   0.27518483    -0.126583       0              0.10035396     0.15826969   
   1094000   0.2660333     -0.12771179     0              0.091678167    0.13692389   
   1094500   0.25714317    -0.12637839     0              0.085680133   -0.0068398804 
   1095000   0.25834032    -0.12023475     0              0.09281104     0.063167504  
   1095500   0.26111638    -0.12830144     0              0.087033683   -0.015202174  
   1096000   0.25258249    -0.12138235     0              0.086915113   -0.029591551  
   1096500   0.26284181    -0.1208325      0              0.095925538    0.15953442   
   1097000   0.27044311    -0.11899779     0              0.10402881     0.085141756  
   1097500   0.26386837    -0.12347509     0              0.094129514   -0.059285575  
   1098000   0.25224124    -0.12684014     0              0.081175903    0.26314519   
   1098500   0.25447624    -0.12570331     0              0.084155875    0.008118185  
   1099000   0.25102851    -0.12591389     0              0.081102056    0.21756002   
   1099500   0.24287769    -0.12662794     0              0.073666256   -0.084972636  
   1100000   0.23834475    -0.12923215     0              0.067323864   -0.12645791   
   1100500   0.25153838    -0.12809525     0              0.079341162    0.067399224  
   1101000   0.24520846    -0.12765276     0              0.074563556    0.1288164    
   1101500   0.25859487    -0.12318858     0              0.090067121    0.057269682  
   1102000   0.24898697    -0.11921977     0              0.086112569    0.11063812   
   1102500   0.24069857    -0.12098007     0              0.077517067   -0.1143512    
   1103000   0.23818183    -0.12446721     0              0.071954448    0.020425555  
   1103500   0.2300071     -0.12220361     0              0.067476595   -0.06506338   
   1104000   0.23118751    -0.12801616     0              0.062637484    0.091867206  
   1104500   0.2258913     -0.12752148     0              0.058764538    0.051443318  
   1105000   0.24086924    -0.13216809     0              0.066469805    0.22925584   
   1105500   0.24846295    -0.13627899     0              0.068621215    0.0011474799 
   1106000   0.24741325    -0.1317609      0              0.072273643   -0.15153934   
   1106500   0.25080111    -0.13194252     0              0.074885891   -0.01151737   
   1107000   0.24378097    -0.13373577     0              0.067303344    0.099245943  
   1107500   0.25182507    -0.14334799     0              0.06432485    -0.027714742  
   1108000   0.26452241    -0.1357681      0              0.08237587     0.16638535   
   1108500   0.2662026     -0.13496593     0              0.08456365     0.049607888  
   1109000   0.26815136    -0.13076643     0              0.090370233    0.03823963   
   1109500   0.2689101     -0.12961731     0              0.092145063   -0.072834266  
   1110000   0.2752794     -0.13383228     0              0.093182677    0.05107491   
   1110500   0.27027381    -0.12708425     0              0.095802735    0.16381885   
   1111000   0.27426116    -0.1224706      0              0.10370463     0.065572672  
   1111500   0.2634707     -0.1245329      0              0.092743755   -0.0055682829 
   1112000   0.24822095    -0.12411731     0              0.080583315    0.037994405  
   1112500   0.24881251    -0.12368797     0              0.081500501    0.036563116  
   1113000   0.24888903    -0.13039248     0              0.074859096    0.074052234  
   1113500   0.23739284    -0.12848676     0              0.067284238    0.013624103  
   1114000   0.24074964    -0.13010339     0              0.068435872    0.05077303   
   1114500   0.23870975    -0.13032568     0              0.066531341   -0.12209926   
   1115000   0.23653706    -0.13654291     0              0.058522355    0.10158821   
   1115500   0.25687753    -0.13023248     0              0.081606981   -0.10386999   
   1116000   0.24601788    -0.12499001     0              0.077893819   -0.094440396  
   1116500   0.25909285    -0.1323856      0              0.081280768   -0.096164791  
   1117000   0.26173208    -0.12434653     0              0.091496339   -0.15774669   
   1117500   0.26123902    -0.12394597     0              0.091490286    0.13487202   
   1118000   0.26111369    -0.12306992     0              0.092262984   -0.01601484   
   1118500   0.24962015    -0.12827736     0              0.077577151    0.11188759   
   1119000   0.24583209    -0.12691174     0              0.07581887    -0.24007869   
   1119500   0.24099246    -0.12555396     0              0.073185544    0.17713262   
   1120000   0.25720429    -0.12189875     0              0.090210184    0.34409094   
   1120500   0.2613727     -0.12128256     0              0.094263939    0.10577838   
   1121000   0.25173431    -0.12309647     0              0.084501531    0.058537887  
   1121500   0.24582196    -0.12897902     0              0.07374323     0.0098681455 
   1122000   0.23854466    -0.12935166     0              0.067369212    0.068310044  
   1122500   0.23791135    -0.13019924     0              0.065999363    0.18409263   
   1123000   0.22734306    -0.12737552     0              0.060107726   -0.021748148  
   1123500   0.21857617    -0.13225009     0              0.048003352   -0.08729047   
   1124000   0.2135333     -0.13377757     0              0.042317157   -0.05905342   
   1124500   0.23249039    -0.13367024     0              0.05805785     0.02256125   
   1125000   0.24091321    -0.12931525     0              0.069358895    0.094141849  
   1125500   0.23267253    -0.13357102     0              0.058307286    0.26061316   
   1126000   0.22137616    -0.12736251     0              0.055199999   -0.048174927  
   1126500   0.22248424    -0.13071325     0              0.052763062   -0.020232046  
   1127000   0.21808116    -0.12889514     0              0.050950079    0.044730357  
   1127500   0.21585066    -0.13277711     0              0.045228682    0.17081139   
   1128000   0.2109667     -0.13677678     0              0.037201352    0.032154112  
   1128500   0.2155534     -0.1331114      0              0.044649248    0.051531295  
   1129000   0.21621828    -0.13676391     0              0.041545046   -0.13251782   
   1129500   0.21302478    -0.13886242     0              0.036812957    0.096630455  
   1130000   0.23086701    -0.13971879     0              0.050670558   -0.0047426653 
   1130500   0.23258266    -0.13719604     0              0.054608148    0.038144573  
   1131000   0.22504781    -0.132947       0              0.052643416   -0.068061421  
   1131500   0.23062929    -0.13687732     0              0.053315976   -0.16523802   
   1132000   0.23613944    -0.13919196     0              0.055545406    0.19161724   
   1132500   0.24407205    -0.13676753     0              0.06451163     0.13572952   
   1133000   0.22993196    -0.13662217     0              0.052996062    0.21574397   
   1133500   0.23167698    -0.13553104     0              0.055526262    0.1941249    
   1134000   0.24559049    -0.1293248      0              0.073206564   -0.12368011   
   1134500   0.23060139    -0.12774805     0              0.06242224    -0.13063739   
   1135000   0.23015008    -0.13242567     0              0.057372435    0.040659582  
   1135500   0.24220001    -0.13387218     0              0.065863155    0.13223297   
   1136000   0.25038094    -0.12959192     0              0.076889991    0.054662046  
   1136500   0.2559727     -0.12676671     0              0.084326563    0.13487579   
   1137000   0.25257372    -0.12303926     0              0.085250977    0.21923382   
   1137500   0.25562714    -0.13068417     0              0.080124135   -0.11049067   
   1138000   0.25398213    -0.12953072     0              0.079920992   -0.27361943   
   1138500   0.24861592    -0.12850766     0              0.076518691    0.1995066    
   1139000   0.25373045    -0.13131132     0              0.077932842    0.017707847  
   1139500   0.24401724    -0.13032054     0              0.070913422    0.11250907   
   1140000   0.24047835    -0.13851081     0              0.059804726    0.12889528   
   1140500   0.23866923    -0.14391562     0              0.052907986    0.024681798  
   1141000   0.22711884    -0.14381395     0              0.043484388    0.033246586  
   1141500   0.23541438    -0.13833773     0              0.0558017      0.12993972   
   1142000   0.23374987    -0.13996835     0              0.052798396   -0.16836432   
   1142500   0.23352803    -0.14183231     0              0.0507515     -0.010864064  
   1143000   0.23729534    -0.13847236     0              0.057218244    0.09111405   
   1143500   0.24669494    -0.13861027     0              0.064831901    0.033429442  
   1144000   0.25950164    -0.14535991     0              0.068643584    0.082098433  
   1144500   0.2511076     -0.14263522     0              0.064445955   -0.082437271  
   1145000   0.26428845    -0.14138218     0              0.076568849    0.065201494  
   1145500   0.26522161    -0.13968615     0              0.079034426   -0.057637671  
   1146000   0.25912768    -0.14272735     0              0.070967752   -0.045915736  
   1146500   0.25631277    -0.14318491     0              0.068188812   -0.063384162  
   1147000   0.25611094    -0.14717365     0              0.06403363    -0.025819578  
   1147500   0.25869187    -0.14443458     0              0.068901113    0.003159885  
   1148000   0.26032061    -0.14339054     0              0.071288337    0.052080825  
   1148500   0.25829883    -0.14018097     0              0.072830602   -0.063711949  
   1149000   0.27271527    -0.14052739     0              0.084372995    0.077229127  
   1149500   0.26633101    -0.13858344     0              0.081052034    0.12345331   
   1150000   0.2794574     -0.13961683     0              0.090843606   -0.10722215   
   1150500   0.26510691    -0.13898238     0              0.079643612    0.02171095   
   1151000   0.25053982    -0.1384139      0              0.068199037    0.10876374   
   1151500   0.24310977    -0.14326804     0              0.057217547    0.021991025  
   1152000   0.22573002    -0.13828326     0              0.047869749   -0.0091419259 
   1152500   0.23534034    -0.14474863     0              0.049329734   -0.013606254  
   1153000   0.22941954    -0.14123058     0              0.047965079   -0.10943762   
   1153500   0.23844992    -0.14648777     0              0.050154982    0.1285676    
   1154000   0.2515807     -0.15036443     0              0.057106888   -0.11843319   
   1154500   0.25318173    -0.14823693     0              0.060554709   -0.082080382  
   1155000   0.26022896    -0.14389215     0              0.070711135   -0.2181476    
   1155500   0.25448102    -0.14448348     0              0.065379643   -0.077447782  
   1156000   0.25985835    -0.14092168     0              0.07337598     0.11364813   
   1156500   0.24661667    -0.14136763     0              0.062009996    0.052580855  
   1157000   0.25577394    -0.1344839      0              0.076445463   -0.016220344  
   1157500   0.25020408    -0.13451364     0              0.071822425   -0.0014057509 
   1158000   0.25785831    -0.1354346      0              0.077213688   -0.086210809  
   1158500   0.27970561    -0.13078056     0              0.099884557   -0.044034526  
   1159000   0.2679125     -0.1416168      0              0.079322884    0.26516047   
   1159500   0.25776177    -0.14106082     0              0.071507848    0.16353827   
   1160000   0.25360895    -0.14363768     0              0.065506271    0.0369617    
   1160500   0.24710885    -0.13461537     0              0.069168143    0.1563483    
   1161000   0.25218968    -0.14154563     0              0.066427899   -0.04584857   
   1161500   0.25049036    -0.14138704     0              0.065185114    0.0061767234 
   1162000   0.25049233    -0.14143156     0              0.065142214    0.19415136   
   1162500   0.25564079    -0.14133334     0              0.069486217   -0.14346097   
   1163000   0.26411082    -0.13889406     0              0.078910487    0.0101539    
   1163500   0.247259      -0.13793592     0              0.065971425   -0.14750568   
   1164000   0.23692763    -0.14194583     0              0.053441532   -0.093378829  
   1164500   0.23959473    -0.14142352     0              0.056163313   -0.046646739  
   1165000   0.23899057    -0.14130181     0              0.0557868      0.14581755   
   1165500   0.24485843    -0.1367584      0              0.065169258   -0.099827959  
   1166000   0.24686302    -0.1391962      0              0.06438459     0.030993406  
   1166500   0.25109216    -0.13520458     0              0.071863857    0.089940546  
   1167000   0.24537218    -0.14067717     0              0.061674157    0.065994336  
   1167500   0.25269961    -0.13792397     0              0.070470089    0.11358994   
   1168000   0.25537822    -0.13848848     0              0.072114551   -0.113281     
   1168500   0.25374419    -0.14311279     0              0.066142699    0.059488392  
   1169000   0.25192894    -0.13973133     0              0.06802718     0.0057552615 
   1169500   0.2484708     -0.147938       0              0.05696867     0.01811596   
   1170000   0.25095938    -0.13652434     0              0.070434599   -0.12397145   
   1170500   0.27534583    -0.13638722     0              0.090682518   -0.12631395   
   1171000   0.27007956    -0.13711201     0              0.085614785    0.19415161   
   1171500   0.28098549    -0.13288625     0              0.098834354    0.23754998   
   1172000   0.27548817    -0.12850821     0              0.09867891    -0.026752334  
   1172500   0.26898503    -0.12639763     0              0.095426534    0.19700923   
   1173000   0.26079953    -0.12972512     0              0.0853487      0.15284341   
   1173500   0.24658901    -0.13133398     0              0.072020836   -0.15167561   
   1174000   0.23644494    -0.13394818     0              0.061041119    0.12761687   
   1174500   0.22921455    -0.1269746      0              0.062052011    0.036115182  
   1175000   0.23347356    -0.13015497     0              0.062383924    0.22237358   
   1175500   0.22687913    -0.13067001     0              0.056430635   -0.022526144  
   1176000   0.22812693    -0.13477687     0              0.053352811    0.17330934   
   1176500   0.23317229    -0.13308429     0              0.059206147    0.10317724   
   1177000   0.23469777    -0.12993762     0              0.06361083     0.034874432  
   1177500   0.23401929    -0.13493468     0              0.058054251    0.026738807  
   1178000   0.24544847    -0.13059723     0              0.07181702    -0.03882738   
   1178500   0.24305845    -0.13550569     0              0.064937574    0.047134917  
   1179000   0.24878561    -0.13508567     0              0.070080616    0.21619813   
   1179500   0.24133126    -0.13577579     0              0.063243114   -0.081137548  
   1180000   0.23500415    -0.13644129     0              0.057359826   -0.21660497   
   1180500   0.23817612    -0.13166793     0              0.064749026    0.23340527   
   1181000   0.23172837    -0.14241016     0              0.048689522    0.074426267  
   1181500   0.23932044    -0.13404456     0              0.063316084    0.23878407   
   1182000   0.24563349    -0.13837416     0              0.064192674   -0.065107507  
   1182500   0.25425565    -0.13028966     0              0.079387618    0.092068865  
   1183000   0.25574297    -0.13364072     0              0.077263097   -0.072084412  
   1183500   0.25983295    -0.12867983     0              0.085596879    0.10141855   
   1184000   0.2625824     -0.13156809     0              0.084976015   -0.031095717  
   1184500   0.26895417    -0.12920745     0              0.092591266   -0.062026769  
   1185000   0.2688329     -0.12978095     0              0.091917766   -0.054656063  
   1185500   0.27487611    -0.13185124     0              0.094831137   -0.1496532    
   1186000   0.2931497     -0.12398303     0              0.11776904    -0.012059162  
   1186500   0.28604857    -0.1218488      0              0.11404717     0.00064460656
   1187000   0.28112197    -0.12277211     0              0.10906104    -0.0063565991 
   1187500   0.28738011    -0.11971353     0              0.11728052     0.23544154   
   1188000   0.28978249    -0.10889995     0              0.13007528    -0.056307511  
   1188500   0.27867226    -0.11079519     0              0.11901775     0.11993122   
   1189000   0.27018882    -0.11428748     0              0.10852942    -0.039266175  
   1189500   0.26282931    -0.11841649     0              0.09833123     0.09480363   
   1190000   0.25846044    -0.11404626     0              0.099098587    0.02000674   
   1190500   0.26391189    -0.12180563     0              0.095834866    0.092996002  
   1191000   0.25432497    -0.12696794     0              0.082766505    0.032778536  
   1191500   0.26421475    -0.12062955     0              0.097260708    0.15943287   
   1192000   0.26714264    -0.12362867     0              0.096676132   -0.099712244  
   1192500   0.25163127    -0.1252748      0              0.082238224   -0.033238463  
   1193000   0.25612685    -0.12818659     0              0.083033813    0.43485809   
   1193500   0.24863903    -0.1277333      0              0.077312102    0.077395313  
   1194000   0.24579296    -0.1268486      0              0.075849747   -0.075721659  
   1194500   0.24024204    -0.12658753     0              0.071533132   -0.21433609   
   1195000   0.24828912    -0.13392654     0              0.070830311    0.043542185  
   1195500   0.25317425    -0.13005104     0              0.078734437   -0.056389294  
   1196000   0.25814664    -0.12797884     0              0.084907224   -0.021603028  
   1196500   0.26886101    -0.12567388     0              0.096048006    0.13321976   
   1197000   0.26829983    -0.12753027     0              0.093728832   -0.16633363   
   1197500   0.25878775    -0.12277958     0              0.090635179   -0.14365651   
   1198000   0.25246075    -0.12245245     0              0.085744627    0.050490452  
   1198500   0.25221286    -0.11916716     0              0.088825487    0.033236654  
   1199000   0.24797381    -0.11545152     0              0.0890453      0.028342545  
   1199500   0.28045244    -0.12003825     0              0.11124276     0.15790875   
   1200000   0.27375612    -0.12442048     0              0.10133827     0.026791068  
   1200500   0.28250155    -0.12131988     0              0.11165097     0.13477885   
   1201000   0.26844499    -0.12310193     0              0.098276879    0.16959464   
   1201500   0.24652425    -0.12510985     0              0.078191567    0.1888541    
   1202000   0.2477509     -0.12727201     0              0.077040985    0.18826321   
   1202500   0.24537016    -0.12809556     0              0.074254112   -0.024679948  
   1203000   0.25183353    -0.12824762     0              0.079432198    0.28938294   
   1203500   0.25409446    -0.13154553     0              0.077998814    0.048437869  
   1204000   0.26444561    -0.13154745     0              0.086533189    0.046513811  
   1204500   0.25496678    -0.13121787     0              0.079045856   -0.15614806   
   1205000   0.25445533    -0.1320704      0              0.077771542   -0.0078204845 
   1205500   0.27600904    -0.13523114     0              0.092385523    0.69655268   
   1206000   0.2639227     -0.12670071     0              0.090948703   -0.24007282   
   1206500   0.26024285    -0.12118545     0              0.093429296   -0.12781719   
   1207000   0.27217894    -0.13224261     0              0.092215483   -0.12454638   
   1207500   0.26484607    -0.12989946     0              0.08851143    -0.13344974   
   1208000   0.26218027    -0.12565904     0              0.090553444    0.78779145   
   1208500   0.2757567     -0.12637845     0              0.10103012    -0.19550229   
   1209000   0.29211272    -0.1336387      0              0.1072582      0.35938071   
   1209500   0.27958454    -0.13215181     0              0.098413466   -0.38694564   
   1210000   0.26887324    -0.12799067     0              0.093741312   -0.042967113  
   1210500   0.27241755    -0.12367127     0              0.10098359     0.52936857   
   1211000   0.26399921    -0.12688123     0              0.090831276    0.13506963   
   1211500   0.26503887    -0.13035083     0              0.088219055   -0.14630998   
   1212000   0.26354666    -0.12718162     0              0.090157679    0.27665239   
   1212500   0.24989413    -0.13463549     0              0.071444967    0.8312847    
   1213000   0.2487472     -0.13454067     0              0.070593944    0.44984694   
   1213500   0.25897773    -0.1344948      0              0.079076639    0.22893709   
   1214000   0.25285605    -0.12894484     0              0.079578229    0.20178828   
   1214500   0.2566198     -0.13219924     0              0.07942768     0.31501399   
   1215000   0.26491052    -0.133972       0              0.084492032   -0.15473878   
   1215500   0.26483354    -0.1351142      0              0.08328635     0.29243097   
   1216000   0.28125601    -0.12993584     0              0.10200785    -0.14737591   
   1216500   0.27632587    -0.12990345     0              0.097974503   -0.10381928   
   1217000   0.2690513     -0.12270224     0              0.099176576    0.079274806  
   1217500   0.27910226    -0.13063395     0              0.099533604   -0.24712947   
   1218000   0.27788863    -0.12422498     0              0.10494173    -0.25246261   
   1218500   0.27190636    -0.12910089     0              0.095132413    0.3754386    
   1219000   0.27649383    -0.13017772     0              0.097838733   -0.12225296   
   1219500   0.26870879    -0.12951023     0              0.092086135   -0.024391891  
   1220000   0.26389328    -0.13094102     0              0.086684125   -0.083483221  
   1220500   0.27650203    -0.13240565     0              0.09561757    -0.034368727  
   1221000   0.27595334    -0.13084305     0              0.09672768     0.11877324   
   1221500   0.28663676    -0.13049352     0              0.10588751    -0.19410874   
   1222000   0.28027576    -0.12608504     0              0.10505026    -0.11046205   
   1222500   0.27013552    -0.12463306     0              0.098139889   -0.056259346  
   1223000   0.27370631    -0.12633423     0              0.099383436   -0.19659669   
   1223500   0.2836728     -0.13524389     0              0.098692854    0.42006603   
   1224000   0.2787398     -0.12639149     0              0.10347715    -0.33205842   
   1224500   0.29072655    -0.12894342     0              0.11081035     0.37906441   
   1225000   0.27458639    -0.13156452     0              0.094878923   -0.014273563  
   1225500   0.27500301    -0.13223357     0              0.09455345    -0.11003368   
   1226000   0.28531459    -0.13040457     0              0.10488611     0.1618063    
   1226500   0.28052316    -0.1292254      0              0.10211393     0.19487232   
   1227000   0.26699574    -0.12953011     0              0.090653546   -0.057251855  
   1227500   0.26248104    -0.13652592     0              0.07993459    -0.084223541  
   1228000   0.25039202    -0.13188706     0              0.074603986    0.038757283  
   1228500   0.24934241    -0.13513932     0              0.070486153   -0.10863684   
   1229000   0.25767274    -0.13560126     0              0.076893984   -0.2428361    
   1229500   0.26625734    -0.12505663     0              0.094518091   -0.29382096   
   1230000   0.25864547    -0.13233241     0              0.080965014    0.0042347317 
   1230500   0.25033595    -0.12308859     0              0.083356227   -0.056794466  
   1231000   0.25519679    -0.1256818      0              0.0847716     -0.26693741   
   1231500   0.24979127    -0.12524004     0              0.08075559     0.088032523  
   1232000   0.27217779    -0.1267904      0              0.097666747    0.2129508    
   1232500   0.25583554    -0.12437176     0              0.086608403    0.16096195   
   1233000   0.2489711     -0.12555089     0              0.079768369    0.4223971    
   1233500   0.26039629    -0.12818614     0              0.086555137    0.48946773   
   1234000   0.25149071    -0.12887957     0              0.078517542   -0.015497452  
   1234500   0.24632154    -0.1366408      0              0.066493442   -0.061075467  
   1235000   0.25500646    -0.13161471     0              0.078681744   -0.20864843   
   1235500   0.2519758     -0.12959774     0              0.078199406   -0.1555127    
   1236000   0.25767187    -0.12739455     0              0.085099978    0.666836     
   1236500   0.23904453    -0.12863127     0              0.068501834    0.045673396  
   1237000   0.23681715    -0.13352266     0              0.061773591   -0.017254048  
   1237500   0.23635698    -0.13214465     0              0.062772113    0.38361833   
   1238000   0.2412737     -0.13224283     0              0.066728609   -0.15028578   
   1238500   0.24156089    -0.1315417      0              0.067666575   -0.2345211    
   1239000   0.2477544     -0.12976775     0              0.074548135   -0.076062275  
   1239500   0.25168986    -0.13164066     0              0.075920688    0.59626701   
   1240000   0.2626636     -0.13762284     0              0.078988227   -0.13825518   
   1240500   0.25814336    -0.1359787      0              0.076904658    0.26415831   
   1241000   0.24839643    -0.13362142     0              0.07122393     0.21786007   
   1241500   0.23659283    -0.12955765     0              0.0655536      0.057007691  
   1242000   0.24082241    -0.13976973     0              0.058829546    0.14632478   
   1242500   0.22714032    -0.14299208     0              0.044323971    0.12633614   
   1243000   0.23720363    -0.13648536     0              0.059129607    0.13896911   
   1243500   0.24746686    -0.13775775     0              0.066321006    0.20618363   
   1244000   0.25287835    -0.13604267     0              0.072498784    0.01752369   
   1244500   0.25903081    -0.13655679     0              0.077058418   -0.063538241  
   1245000   0.25338813    -0.13341595     0              0.075545908   -0.11180996   
   1245500   0.2512078     -0.13273206     0              0.074431741   -0.026281123  
   1246000   0.2481915     -0.12674199     0              0.077934355    0.11899188   
   1246500   0.2476261     -0.13431948     0              0.069890593    0.13996328   
   1247000   0.24519899    -0.13389263     0              0.068315876    0.16888022   
   1247500   0.24028217    -0.12810751     0              0.070046233    0.12113024   
   1248000   0.24958417    -0.13407251     0              0.07175233     0.011712466  
   1248500   0.26292146    -0.13544792     0              0.081375798   -0.025116981  
   1249000   0.25827118    -0.12520108     0              0.087787684   -0.21541356   
   1249500   0.25424542    -0.1203831      0              0.089285738    0.2730714    
   1250000   0.25089049    -0.1258594      0              0.08104273     0.097175982  
   1250500   0.24723507    -0.13083103     0              0.073056567    0.17543777   
   1251000   0.2474097     -0.13636849     0              0.067663129   -0.09413954   
   1251500   0.24682706    -0.12848072     0              0.075070412   -0.023917056  
   1252000   0.25482672    -0.13270568     0              0.077442537    0.16071341   
   1252500   0.24221316    -0.13420082     0              0.06554537    -0.027294628  
   1253000   0.25217357    -0.137433       0              0.070527239    0.21186257   
   1253500   0.26339809    -0.13667917     0              0.080537611    0.037279259  
   1254000   0.24662007    -0.13148252     0              0.071897915   -0.067607417  
   1254500   0.24994527    -0.13511653     0              0.0710061     -0.09508406   
   1255000   0.23441166    -0.12295296     0              0.070359549    0.041434286  
   1255500   0.23779259    -0.12591219     0              0.070188478   -0.13622612   
   1256000   0.24725132    -0.13079729     0              0.073103714    0.14626228   
   1256500   0.24171051    -0.11965377     0              0.079677887   -0.08214695   
   1257000   0.24224399    -0.13147138     0              0.068300227   -0.073304869  
   1257500   0.23753503    -0.12804364     0              0.067844618    0.025553693  
   1258000   0.23418447    -0.12977219     0              0.063352962    0.052287726  
   1258500   0.24323711    -0.13406999     0              0.066520611    0.012631736  
   1259000   0.23964168    -0.13313193     0              0.064493619   -0.043694609  
   1259500   0.23147727    -0.14169136     0              0.049201238    0.00052351976
   1260000   0.240874      -0.13950997     0              0.059131842   -0.18934913   
   1260500   0.24887042    -0.13078308     0              0.074453149    0.039876237  
   1261000   0.26011488    -0.13179715     0              0.082712067    0.16853751   
   1261500   0.26349006    -0.1332135      0              0.084079129    0.10972249   
   1262000   0.26090361    -0.13250105     0              0.082658605    0.2190861    
   1262500   0.26166405    -0.12715401     0              0.088632756   -0.17057567   
   1263000   0.2556805     -0.13239516     0              0.078457145    0.27925641   
   1263500   0.25127713    -0.13840709     0              0.068813883    0.075682251  
   1264000   0.25719853    -0.13499674     0              0.07710744     0.072353609  
   1264500   0.2500467     -0.13220205     0              0.074004225   -0.0233394    
   1265000   0.25373074    -0.13444264     0              0.074801751    0.22991261   
   1265500   0.26337567    -0.13065925     0              0.086539037   -0.049365899  
   1266000   0.25322603    -0.12740606     0              0.081422115    0.039765117  
   1266500   0.25809707    -0.1315132      0              0.081331985    0.2069803    
   1267000   0.25924705    -0.13239864     0              0.081394898   -0.083883191  
   1267500   0.24030339    -0.13103101     0              0.067140234    0.029477479  
   1268000   0.24710688    -0.12945724     0              0.07432465     0.063592415  
   1268500   0.24418086    -0.13368121     0              0.067687671    0.056648387  
   1269000   0.2423487     -0.1359206      0              0.063937356    0.12418666   
   1269500   0.23699062    -0.13607891     0              0.059360397    0.13762455   
   1270000   0.23509009    -0.13007489     0              0.063797101    0.037950519  
   1270500   0.23421604    -0.13382425     0              0.059326944    0.065773103  
   1271000   0.22651953    -0.13324404     0              0.053560054    0.021649139  
   1271500   0.21038537    -0.13603244     0              0.03746628     0.05768479   
   1272000   0.21991044    -0.13920117     0              0.042152602    0.28327391   
   1272500   0.22636005    -0.14610985     0              0.040562726   -0.10072401   
   1273000   0.21981902    -0.14205691     0              0.039221477   -0.054792943  
   1273500   0.21358679    -0.14927299     0              0.026865853    0.099923948  
   1274000   0.21666519    -0.14955562     0              0.029121891    0.07801889   
   1274500   0.22340553    -0.15123758     0              0.032998488    0.11049233   
   1275000   0.21723126    -0.1461245      0              0.033019829    0.021989063  
   1275500   0.22275626    -0.15445227     0              0.029248367   -0.017608398  
   1276000   0.21680616    -0.15154457     0              0.027249187    0.26973675   
   1276500   0.22394622    -0.15353343     0              0.031148541   -0.044371118  
   1277000   0.24059609    -0.15756341     0              0.040849224    0.14770059   
   1277500   0.23216604    -0.14860585     0              0.042854764    0.072201284  
   1278000   0.22714507    -0.14768881     0              0.039631157   -0.127738     
   1278500   0.24482019    -0.14170246     0              0.060193663    0.08938363   
   1279000   0.2535605     -0.14405198     0              0.065052026    0.16517544   
   1279500   0.25051168    -0.14282422     0              0.063765511    0.02665418   
   1280000   0.24368254    -0.13518968     0              0.065768253    0.062492326  
   1280500   0.25669845    -0.13794409     0              0.07374769     0.38016033   
   1281000   0.24364462    -0.13815385     0              0.062772809   -0.086640006  
   1281500   0.25761018    -0.13729419     0              0.075149464    0.023039263  
   1282000   0.25220845    -0.13305141     0              0.074937604   -0.1425664    
   1282500   0.2608573     -0.13187776     0              0.083243704    0.088070652  
   1283000   0.26335775    -0.12766866     0              0.089514855   -0.12479936   
   1283500   0.26316966    -0.1301334      0              0.086894999    0.12797981   
   1284000   0.25857854    -0.12196294     0              0.091279294   -0.0042275387 
   1284500   0.25387258    -0.12791507     0              0.081446295    0.003521214  
   1285000   0.2543001     -0.12689168     0              0.082822245   -0.10399284   
   1285500   0.25018855    -0.12907311     0              0.077250139    0.022870451  
   1286000   0.24069587    -0.13343206     0              0.065062857   -0.066310381  
   1286500   0.24417354    -0.13305705     0              0.068305803    0.094597486  
   1287000   0.24591842    -0.12643176     0              0.076370044    0.054817223  
   1287500   0.24181454    -0.12593759     0              0.073479863   -0.088139138  
   1288000   0.22962088    -0.12039474     0              0.068966949   -0.11805075   
   1288500   0.24025838    -0.12950202     0              0.068632113    0.1200737    
   1289000   0.22928371    -0.13004527     0              0.059038374   -0.086244126  
   1289500   0.23440026    -0.13103469     0              0.062268412    0.052683337  
   1290000   0.22380399    -0.13147253     0              0.053092141    0.09035812   
   1290500   0.23364725    -0.13068262     0              0.061999505    0.12603924   
   1291000   0.24506084    -0.12842332     0              0.073671266    0.0052437868 
   1291500   0.25608971    -0.13089775     0              0.080292017    0.0085136824 
   1292000   0.25131727    -0.12595735     0              0.081296723    0.17680953   
   1292500   0.25026516    -0.12542345     0              0.080962978   -0.0039917586 
   1293000   0.24772247    -0.13189246     0              0.072397097    0.044035128  
   1293500   0.24344304    -0.13407812     0              0.066682302    0.11674844   
   1294000   0.25311191    -0.1354457      0              0.073288368    0.048996036  
   1294500   0.25138725    -0.13355931     0              0.073752475    0.088480422  
   1295000   0.25214891    -0.13465126     0              0.07328864     0.0037730913 
   1295500   0.26929101    -0.13232674     0              0.089749756    0.10187647   
   1296000   0.27082029    -0.13316792     0              0.090169734   -0.0032809642 
   1296500   0.26764763    -0.12862982     0              0.092091436    0.17062131   
   1297000   0.27298273    -0.13452486     0              0.09059609     0.084649541  
   1297500   0.27830133    -0.12942998     0              0.10007707    -0.025859296  
   1298000   0.27089129    -0.12901305     0              0.094383153    0.19279802   
   1298500   0.26799666    -0.1340572      0              0.086951889   -0.1812215    
   1299000   0.27830881    -0.12389639     0              0.10561683    -0.0066022184 
   1299500   0.26181293    -0.12189317     0              0.094016379    0.31159849   
   1300000   0.26691869    -0.12758302     0              0.092537099    0.1003801    
   1300500   0.26404013    -0.12294055     0              0.094805707    0.21186102   
   1301000   0.28024002    -0.12288657     0              0.10821926     0.28187712   
   1301500   0.2726732     -0.12213991     0              0.10272578     0.075521666  
   1302000   0.27880367    -0.12026689     0              0.10965442     0.039104306  
   1302500   0.28686983    -0.11673283     0              0.11984042     0.2386042    
   1303000   0.2792419     -0.11548713     0              0.11479558    -0.052096641  
   1303500   0.28538368    -0.11199632     0              0.12335134     0.048254132  
   1304000   0.26590637    -0.11398194     0              0.10530334     0.31271188   
   1304500   0.25504632    -0.11825864     0              0.092070675   -0.00369532   
   1305000   0.2674026     -0.12606375     0              0.094455442    0.076281541  
   1305500   0.25290328    -0.12359998     0              0.084962033    0.10921674   
   1306000   0.25620291    -0.1210547      0              0.090228427    0.094334137  
   1306500   0.25149207    -0.12336721     0              0.084031025    0.041652842  
   1307000   0.25416126    -0.12484068     0              0.084758759    0.22332815   
   1307500   0.2453829     -0.13003767     0              0.072322506   -0.10758233   
   1308000   0.26254574    -0.12663926     0              0.08987461    -0.033124742  
   1308500   0.24756722    -0.12602488     0              0.07813664     0.062021124  
   1309000   0.24116687    -0.12649913     0              0.072384204   -0.2172625    
   1309500   0.23970284    -0.13380533     0              0.06387066    -0.25613752   
   1310000   0.24088604    -0.12884489     0              0.069806855    0.089070387  
   1310500   0.24044324    -0.12871602     0              0.069570556    0.14784384   
   1311000   0.24723334    -0.12809973     0              0.075786454   -0.054485053  
   1311500   0.25606306    -0.12777081     0              0.083396987    0.12396489   
   1312000   0.25538038    -0.12912861     0              0.081476202   -0.034335557  
   1312500   0.25886167    -0.13341822     0              0.0800575     -0.13061592   
   1313000   0.26688776    -0.12835828     0              0.091736327    0.10450694   
   1313500   0.26595424    -0.12763456     0              0.091690203    0.28227891   
   1314000   0.26788316    -0.12547241     0              0.095443075   -0.071896772  
   1314500   0.26947474    -0.12732097     0              0.094907051    0.025423157  
   1315000   0.25770606    -0.1272595      0              0.085263228    0.10931171   
   1315500   0.25328236    -0.12987383     0              0.079000801    0.0087909716 
   1316000   0.23817914    -0.13330627     0              0.06311317     0.17493414   
   1316500   0.24764078    -0.12995625     0              0.074265927   -0.15404451   
   1317000   0.25152822    -0.12552631     0              0.081901731   -0.031318431  
   1317500   0.25337868    -0.12861969     0              0.080334376   -0.22030468   
   1318000   0.25534759    -0.12764975     0              0.082928018    0.2241329    
   1318500   0.2515647     -0.12886435     0              0.078593781    0.13981883   
   1319000   0.25844975    -0.1279514      0              0.085184628   -0.042943412  
   1319500   0.25424962    -0.12664732     0              0.083024983   -0.0025673633 
   1320000   0.25226236    -0.12954505     0              0.078488413    0.18124731   
   1320500   0.24100875    -0.12672577     0              0.072027172    0.15810641   
   1321000   0.23760019    -0.13427644     0              0.061665561    0.0219739    
   1321500   0.24996859    -0.12993082     0              0.07621104     0.035131347  
   1322000   0.25095345    -0.12906421     0              0.077889841   -0.066802916  
   1322500   0.23980312    -0.13110032     0              0.066658367    0.04719609   
   1323000   0.24098094    -0.12628958     0              0.072440426    0.13900511   
   1323500   0.24993672    -0.12617165     0              0.079943921   -0.059219623  
   1324000   0.24549657    -0.12200496     0              0.080448954    0.24765162   
   1324500   0.23358092    -0.12613384     0              0.06649358    -0.054675093  
   1325000   0.24484616    -0.12206288     0              0.079854667    0.13700868   
   1325500   0.24594234    -0.12747492     0              0.075346612   -7.8376037e-05
   1326000   0.25009697    -0.12437883     0              0.081868905    0.05013467   
   1326500   0.25471737    -0.12712566     0              0.082932376    0.16320349   
   1327000   0.23940774    -0.12515119     0              0.072281447    0.15655292   
   1327500   0.22684474    -0.13066056     0              0.056411737    0.16616024   
   1328000   0.23210575    -0.13414368     0              0.057267215   -0.10204618   
   1328500   0.23010283    -0.13995598     0              0.049803166   -0.13453082   
   1329000   0.23023789    -0.13474297     0              0.055127551   -0.10371501   
   1329500   0.22685425    -0.14078731     0              0.046292829    0.020550154  
   1330000   0.22324556    -0.14014694     0              0.043957209    0.056856901  
   1330500   0.23893773    -0.13808461     0              0.058960414    0.16986474   
   1331000   0.24238763    -0.13771648     0              0.062173586   -0.1839409    
   1331500   0.23452746    -0.14194364     0              0.051464369   -0.13923413   
   1332000   0.22805343    -0.14219802     0              0.045871038   -0.085247785  
   1332500   0.22802733    -0.13674271     0              0.051304828    0.10722914   
   1333000   0.22370267    -0.13718883     0              0.047292293   -0.039249122  
   1333500   0.22182877    -0.1402329      0              0.04270286    -0.13762249   
   1334000   0.21622745    -0.14453106     0              0.033785463   -0.0066689558 
   1334500   0.21780594    -0.14033068     0              0.039287568   -0.12575578   
   1335000   0.21624743    -0.14497402     0              0.033358975    0.299257     
   1335500   0.21715429    -0.1438323      0              0.035248557   -0.020953206  
   1336000   0.21697066    -0.14539044     0              0.033538985    0.014304514  
   1336500   0.21780299    -0.1415822      0              0.03803362    -0.054355253  
   1337000   0.23595502    -0.14901505     0              0.045570225   -0.1018219    
   1337500   0.21372461    -0.13856859     0              0.037683906    0.15441422   
   1338000   0.21578513    -0.14574066     0              0.032211092   -0.020293455  
   1338500   0.22126095    -0.14634277     0              0.036124726    0.27675641   
   1339000   0.22797294    -0.1444114      0              0.043591278    0.026966015  
   1339500   0.2278184     -0.14875975     0              0.039115489   -0.11346879   
   1340000   0.22400897    -0.14920665     0              0.035527068    0.15388361   
   1340500   0.22353717    -0.14256628     0              0.041778352    0.086783315  
   1341000   0.22156466    -0.14815111     0              0.034566858   -0.1399178    
   1341500   0.21485664    -0.14791786     0              0.029268193   -0.076066587  
   1342000   0.22759076    -0.14917192     0              0.038515589   -0.001996284  
   1342500   0.2219979     -0.14626846     0              0.036806786   -0.1936739    
   1343000   0.21785677    -0.15137316     0              0.028287017   -0.16042476   
   1343500   0.23189294    -0.15015474     0              0.041080652    0.027696092  
   1344000   0.22952505    -0.14405353     0              0.045229131   -0.18117076   
   1344500   0.21837723    -0.14527284     0              0.034816538    0.21166272   
   1345000   0.21895853    -0.14954486     0              0.0310239      0.01565796   
   1345500   0.21717424    -0.14885611     0              0.030241199    0.061596072  
   1346000   0.22766349    -0.14994578     0              0.037801711    0.12300757   
   1346500   0.22207415    -0.14903156     0              0.03410657     0.071993268  
   1347000   0.22754296    -0.15439036     0              0.033257731    0.032022487  
   1347500   0.21821769    -0.14932359     0              0.030634226   -0.020047894  
   1348000   0.23055767    -0.14534518     0              0.044789053    0.047665076  
   1348500   0.22834541    -0.14533215     0              0.042977703    0.20405795   
   1349000   0.23064007    -0.14300813     0              0.047194059    0.077218535  
   1349500   0.22718121    -0.14405335     0              0.043296416   -0.027860013  
   1350000   0.2252592     -0.14799657     0              0.037768172   -0.024151791  
   1350500   0.24004087    -0.15072959     0              0.047225169    0.12361677   
   1351000   0.23164169    -0.14699511     0              0.044033087   -0.0026124879 
   1351500   0.22592811    -0.14906736     0              0.037249012    0.16395056   
   1352000   0.23131701    -0.15472676     0              0.036033684   -0.21136306   
   1352500   0.23444148    -0.15117563     0              0.042161475    0.040145175  
   1353000   0.23772541    -0.14017275     0              0.055872506    0.069062401  
   1353500   0.22612182    -0.14421817     0              0.042257944   -0.088471069  
   1354000   0.22035421    -0.14399407     0              0.037725673   -0.00036546117
   1354500   0.22892332    -0.14407922     0              0.044707214    0.12331798   
   1355000   0.22904968    -0.13741501     0              0.051475634   -0.018304876  
   1355500   0.22130988    -0.144957       0              0.03755086     0.027404024  
   1356000   0.22408166    -0.14405126     0              0.040742399   -0.06999813   
   1356500   0.22057268    -0.14548173     0              0.036418176   -0.12273606   
   1357000   0.23037129    -0.14810903     0              0.041871507   -0.12339521   
   1357500   0.22921097    -0.15171897     0              0.037304682   -0.073137702  
   1358000   0.24405449    -0.15358196     0              0.047682713    0.1518896    
   1358500   0.24342961    -0.14352081     0              0.05722854     0.034283875  
   1359000   0.25171824    -0.13869541     0              0.06888934     0.24012647   
   1359500   0.2491604     -0.13426329     0              0.071212077    0.18678771   
   1360000   0.23729178    -0.13305648     0              0.062631186   -0.22275376   
   1360500   0.23581643    -0.13628067     0              0.058190308   -0.033022074  
   1361000   0.2424757     -0.13156441     0              0.068398285    0.26899126   
   1361500   0.23981821    -0.1334812      0              0.064289928   -0.079224448  
   1362000   0.23659639    -0.13117202     0              0.063942168   -0.21288208   
   1362500   0.24357829    -0.13174699     0              0.069124969    0.28094673   
   1363000   0.25021311    -0.12988538     0              0.076458121   -0.050341896  
   1363500   0.24611629    -0.13380332     0              0.069161665   -0.011268557  
   1364000   0.24795346    -0.13505483     0              0.069425209    0.20912991   
   1364500   0.23540253    -0.13403365     0              0.060096003    0.013073984  
   1365000   0.24816694    -0.13281534     0              0.071840749   -0.15958689   
   1365500   0.24148682    -0.1373316      0              0.061815583    0.089522133  
   1366000   0.23673863    -0.13381988     0              0.061411615   -0.05023936   
   1366500   0.24176825    -0.13511279     0              0.064266488   -0.082148794  
   1367000   0.24235002    -0.13162001     0              0.068239038   -0.054440571  
   1367500   0.23824889    -0.1290584      0              0.067418562    0.10656584   
   1368000   0.24713394    -0.13003549     0              0.073768711    0.33100363   
   1368500   0.23905417    -0.12902972     0              0.068111332    0.17710656   
   1369000   0.23532826    -0.12977618     0              0.064292227    0.20165857   
   1369500   0.25035075    -0.13395578     0              0.072501234    0.10546867   
   1370000   0.23521672    -0.13657529     0              0.057401129    0.20865213   
   1370500   0.24188863    -0.13745754     0              0.062021008   -0.0050853164 
   1371000   0.2352836     -0.14240711     0              0.051624466    0.029355577  
   1371500   0.24531294    -0.13755689     0              0.064745591    0.076570184  
   1372000   0.23821361    -0.14451662     0              0.051931244    0.14402193   
   1372500   0.24584611    -0.14361816     0              0.059124009   -0.19021169   
   1373000   0.25745774    -0.14035236     0              0.071965583   -0.11609363   
   1373500   0.25788865    -0.13841463     0              0.074258668   -0.0074470118 
   1374000   0.25312125    -0.13839607     0              0.0703457     -0.15731948   
   1374500   0.25756953    -0.13466448     0              0.077745651   -0.014905374  
   1375000   0.25493911    -0.13639399     0              0.073846913   -0.027825418  
   1375500   0.26008935    -0.13155819     0              0.082929968    0.32073463   
   1376000   0.26266935    -0.1338648      0              0.082751009    0.18734013   
   1376500   0.24445767    -0.13617707     0              0.065420095    0.097744157  
   1377000   0.24182105    -0.13902723     0              0.060395594    0.035069198  
   1377500   0.24451068    -0.13430567     0              0.067335213   -0.083034407  
   1378000   0.24021571    -0.13829505     0              0.059803896   -0.046833157  
   1378500   0.22570985    -0.14022402     0              0.045912361   -0.29091786   
   1379000   0.23612936    -0.13937511     0              0.055353939    0.025695447  
   1379500   0.2366012     -0.13942453     0              0.05569363     0.16742248   
   1380000   0.24119773    -0.14108009     0              0.057828694   -0.011615817  
   1380500   0.23378527    -0.13910721     0              0.053688733    0.21484009   
   1381000   0.24116571    -0.13767898     0              0.061203399    0.078881406  
   1381500   0.24820449    -0.13722133     0              0.067465725   -0.055989518  
   1382000   0.23870894    -0.14003169     0              0.05682466     0.069965372  
   1382500   0.25166268    -0.13834711     0              0.069191824   -0.036929664  
   1383000   0.24678197    -0.13561485     0              0.067899102    0.1575904    
   1383500   0.24935709    -0.13796039     0              0.067677184    0.10784266   
   1384000   0.25284955    -0.13439709     0              0.074120611    0.11898979   
   1384500   0.24449673    -0.13562063     0              0.066008748    0.10635137   
   1385000   0.24311618    -0.13666107     0              0.063829803    0.037664661  
   1385500   0.2409863     -0.14360027     0              0.055134157    0.31408676   
   1386000   0.2407004     -0.1364073      0              0.062091354    0.013212988  
   1386500   0.23710321    -0.1410132      0              0.054518958   -0.070210913  
   1387000   0.25293401    -0.13677619     0              0.071811166    0.021510302  
   1387500   0.24269388    -0.13710747     0              0.06303515     0.096455809  
   1388000   0.24766681    -0.13811684     0              0.066126814    0.10148127   
   1388500   0.23769146    -0.13688061     0              0.059136655   -0.11252497   
   1389000   0.23911363    -0.13173779     0              0.065452302    0.015575583  
   1389500   0.23699507    -0.13659117     0              0.058851802   -0.046783179  
   1390000   0.25167447    -0.13754872     0              0.069999933    0.17695499   
   1390500   0.25296051    -0.1369089      0              0.071700311   -0.20489644   
   1391000   0.26332402    -0.13542991     0              0.081725782    0.23239117   
   1391500   0.26923318    -0.1410891      0              0.080939715    0.1453343    
   1392000   0.26166841    -0.13969415     0              0.076096212    0.11830243   
   1392500   0.25499015    -0.13947857     0              0.070804426   -0.065732806  
   1393000   0.24135327    -0.1449208      0              0.054116257    0.18218172   
   1393500   0.23805938    -0.14207804     0              0.054242645   -0.022303089  
   1394000   0.23906147    -0.14277502     0              0.054372053   -0.04182575   
   1394500   0.24044916    -0.14092901     0              0.05736245    -0.27417554   
   1395000   0.23625781    -0.14612055     0              0.048714427    0.15628649   
   1395500   0.23578672    -0.14806276     0              0.046383722    0.21840614   
   1396000   0.24632709    -0.14197712     0              0.061161705   -0.15158214   
   1396500   0.23859651    -0.14124641     0              0.055517228    0.07382751   
   1397000   0.23575634    -0.15055116     0              0.043870266    0.056814493  
   1397500   0.23035467    -0.14066977     0              0.049297056   -0.074226216  
   1398000   0.23634314    -0.14731141     0              0.047593931   -0.0080264612 
   1398500   0.22731767    -0.14932915     0              0.038133153    0.25364163   
   1399000   0.2426067     -0.15128182     0              0.048788905   -0.0041860387 
   1399500   0.24118005    -0.15446202     0              0.044432184   -0.30683267   
   1400000   0.25295759    -0.1480727      0              0.060534103    0.04695301   
   1400500   0.2648554     -0.14740835     0              0.071010233   -0.15838384   
   1401000   0.26392562    -0.14386659     0              0.07378523     0.064581607  
   1401500   0.27464349    -0.14551993     0              0.080970607   -0.11953861   
   1402000   0.26895242    -0.14190786     0              0.079889418    0.13796507   
   1402500   0.27674462    -0.14190814     0              0.086315137    0.055075393  
   1403000   0.26209385    -0.14016607     0              0.075975146    0.2866044    
   1403500   0.25146414    -0.13855108     0              0.068824113   -0.16819648   
   1404000   0.24721244    -0.14489503     0              0.058973911    0.22367069   
   1404500   0.25806631    -0.14556026     0              0.067259555   -0.055094927  
   1405000   0.23520255    -0.14614539     0              0.047819347   -0.081258889  
   1405500   0.22006062    -0.14016619     0              0.041311431   -0.18305965   
   1406000   0.23201032    -0.14104619     0              0.050285999   -0.080916606  
   1406500   0.23702072    -0.14720642     0              0.048257703    0.052774709  
   1407000   0.23555178    -0.14130164     0              0.052951089    0.021071604  
   1407500   0.23104721    -0.14835383     0              0.042184108   -0.042523104  
   1408000   0.22767705    -0.14796138     0              0.039797297   -0.12632295   
   1408500   0.23630712    -0.1492204      0              0.045655242   -0.063071899  
   1409000   0.23160316    -0.14126574     0              0.049730685   -0.034782162  
   1409500   0.23936345    -0.14301065     0              0.054385461   -0.052411954  
   1410000   0.23411816    -0.13715159     0              0.055918884    0.18742176   
   1410500   0.23764949    -0.13947214     0              0.056510516   -0.016195351  
   1411000   0.23385435    -0.13955434     0              0.053298566    0.12945205   
   1411500   0.24152426    -0.14092909     0              0.058248969    0.01903612   
   1412000   0.25303522    -0.13887013     0              0.069800694    0.05685983   
   1412500   0.24394224    -0.13447029     0              0.066701807   -0.087951623  
   1413000   0.24536853    -0.13631951     0              0.066028816   -0.16216173   
   1413500   0.22977906    -0.13358387     0              0.055908272    0.082021447  
   1414000   0.23067937    -0.14506262     0              0.045171972   -0.1176246    
   1414500   0.22780505    -0.13965734     0              0.048206886   -0.051579621  
   1415000   0.22106275    -0.14063584     0              0.04166821    -0.10724444   
   1415500   0.22688866    -0.14766246     0              0.039446045   -0.034755449  
   1416000   0.2184103     -0.13886913     0              0.041247521    0.0056939537 
   1416500   0.22383344    -0.14363847     0              0.04095049     0.13855142   
   1417000   0.23466406    -0.14076729     0              0.052753372   -0.10963092   
   1417500   0.22696561    -0.13845605     0              0.048715921    0.10154861   
   1418000   0.22073421    -0.13620381     0              0.045829302    0.065843399  
   1418500   0.2172187     -0.13763964     0              0.041494336    0.20249827   
   1419000   0.2187174     -0.13559089     0              0.044779023   -0.084469031  
   1419500   0.23363185    -0.13562004     0              0.057049386   -0.018377678  
   1420000   0.22111831    -0.13284999     0              0.049499881   -0.10733176   
   1420500   0.22347636    -0.1314042      0              0.052890286   -0.17964994   
   1421000   0.23240867    -0.13014281     0              0.06151789     0.013743434  
   1421500   0.23907422    -0.13283401     0              0.064323572   -0.13521196   
   1422000   0.24413203    -0.13250214     0              0.068826481    0.041220098  
   1422500   0.24987779    -0.13431364     0              0.071753345    0.085412044  
   1423000   0.26039012    -0.12549872     0              0.089237476   -0.083876665  
   1423500   0.25972027    -0.13748884     0              0.07669495    -0.0095715791 
   1424000   0.25940916    -0.13626784     0              0.077659383    0.00053689789
   1424500   0.25742792    -0.13735819     0              0.074935163    0.18973102   
   1425000   0.26307586    -0.13940287     0              0.077548175    0.069864788  
   1425500   0.24765965    -0.14153398     0              0.062703768    0.0426598    
   1426000   0.24635542    -0.14578396     0              0.057378227    0.066933256  
   1426500   0.23739854    -0.13719024     0              0.058585467    0.052264085  
   1427000   0.23713359    -0.15066078     0              0.044896421   -0.081865619  
   1427500   0.24122708    -0.14251137     0              0.056421618    0.014357586  
   1428000   0.26569467    -0.14334515     0              0.075765552    0.11480995   
   1428500   0.25286213    -0.14252722     0              0.066000859   -0.097284555  
   1429000   0.26044495    -0.13743763     0              0.077343782    0.027774742  
   1429500   0.26029197    -0.13706878     0              0.077586467    0.19587572   
   1430000   0.24986284    -0.14590462     0              0.060150037   -0.35037244   
   1430500   0.24911566    -0.14675433     0              0.058684145   -0.075384245  
   1431000   0.24638756    -0.14439823     0              0.058790461    0.17454089   
   1431500   0.24609917    -0.14625061     0              0.056700253   -0.030877893  
   1432000   0.23582529    -0.15097925     0              0.043499042    0.0066500937 
   1432500   0.22734966    -0.14905076     0              0.038437921   -0.072403361  
   1433000   0.2205126     -0.14202023     0              0.039830124    0.077436579  
   1433500   0.22793929    -0.14177509     0              0.046199847   -0.1248558    
   1434000   0.22559561    -0.14148268     0              0.04455949    -0.016047426  
   1434500   0.24547709    -0.13880455     0              0.063633301   -0.020864966  
   1435000   0.24594238    -0.13768078     0              0.065140781    0.019190863  
   1435500   0.23332707    -0.14121922     0              0.051198859    0.080547052  
   1436000   0.2382587     -0.14348602     0              0.052999031    0.15162379   
   1436500   0.24563252    -0.14044161     0              0.062124422   -0.055597241  
   1437000   0.24548849    -0.14082067     0              0.061626585    0.07343598   
   1437500   0.25391049    -0.1378443      0              0.071548331    0.20253081   
   1438000   0.25932918    -0.13755631     0              0.076304961   -0.096722258  
   1438500   0.26098905    -0.13834365     0              0.076886466    0.020383917  
   1439000   0.2527725     -0.13520651     0              0.073247653   -0.22371681   
   1439500   0.25141005    -0.12785206     0              0.079478529   -0.009898647  
   1440000   0.25058123    -0.13499086     0              0.071656228    0.10121154   
   1440500   0.23977609    -0.1339912      0              0.063745204    0.11787392   
   1441000   0.24148292    -0.13632127     0              0.062822705    0.052296162  
   1441500   0.22938289    -0.14062307     0              0.048542362   -0.0015579793 
   1442000   0.23293665    -0.14053917     0              0.051556945   -0.09423012   
   1442500   0.23898812    -0.13650225     0              0.060584336    0.12702047   
   1443000   0.23793507    -0.13715988     0              0.059058281   -0.05280684   
   1443500   0.23845267    -0.13923112     0              0.057413895    0.11064279   
   1444000   0.23329065    -0.13467027     0              0.057717775    0.049821693  
   1444500   0.22859409    -0.13981187     0              0.048703055    0.28106197   
   1445000   0.22210812    -0.14393747     0              0.039228674   -0.067148444  
   1445500   0.21630242    -0.14462047     0              0.033757866    0.0086347357 
   1446000   0.2307206     -0.14365891     0              0.046609694    0.051162573  
   1446500   0.22655215    -0.14450925     0              0.042321744    0.073096239  
   1447000   0.24234067    -0.14308708     0              0.056764254    0.092552385  
   1447500   0.23635189    -0.14639561     0              0.048516951    0.0022844598 
   1448000   0.23524464    -0.14507086     0              0.048928589   -0.079881948  
   1448500   0.23414511    -0.14499836     0              0.048094339    0.37753409   
   1449000   0.22829117    -0.13822256     0              0.050042561   -0.079641211  
   1449500   0.23093008    -0.14645397     0              0.043987388   -0.21949719   
   1450000   0.24899264    -0.14287474     0              0.062462276   -0.1023132    
   1450500   0.24524378    -0.14305507     0              0.059190379    0.024275943  
   1451000   0.25062305    -0.14358653     0              0.063095047   -0.13351357   
   1451500   0.25975578    -0.13912168     0              0.075091396    0.047368918  
   1452000   0.27243842    -0.1397217      0              0.084950376    0.10542353   
   1452500   0.27185276    -0.12897215     0              0.095216948   -0.016308363  
   1453000   0.27549957    -0.13088136     0              0.096315158   -0.10536158   
   1453500   0.26785409    -0.12384377     0              0.097047748    0.16142036   
   1454000   0.27276765    -0.12905422     0              0.095889366    0.016653681  
   1454500   0.28319822    -0.12245081     0              0.11109457     0.13459661   
   1455000   0.27337298    -0.12348943     0              0.10195336     0.0098503536 
   1455500   0.26754167    -0.1208398      0              0.099794062    0.089897214  
   1456000   0.27425195    -0.12383875     0              0.1023289      0.15850537   
   1456500   0.26429895    -0.12322182     0              0.094737874   -0.11140608   
   1457000   0.26682286    -0.1264272      0              0.093613881    0.15964026   
   1457500   0.2749277     -0.12667943     0              0.10004548     0.072888042  
   1458000   0.26437476    -0.12110849     0              0.09691372     0.00018618656
   1458500   0.25687481    -0.13239584     0              0.079441372    0.10759774   
   1459000   0.25501892    -0.12692488     0              0.083381839    0.0054823769 
   1459500   0.25083501    -0.12766296     0              0.079193404   -0.16145575   
   1460000   0.2639171     -0.1327911      0              0.084853696    0.23862034   
   1460500   0.26162411    -0.133859       0              0.081894824    0.13948044   
   1461000   0.26040552    -0.13166441     0              0.083084479    0.19829355   
   1461500   0.25185319    -0.12437236     0              0.083323679    0.064485735  
   1462000   0.26390892    -0.13193035     0              0.085707696   -0.054876711  
   1462500   0.26029545    -0.13498106     0              0.079677062   -0.036210411  
   1463000   0.24731326    -0.12551065     0              0.078441429    0.012150881  
   1463500   0.2411725     -0.12692556     0              0.071962421    0.1438496    
   1464000   0.24895566    -0.13367243     0              0.071634099    0.18835116   
   1464500   0.25453965    -0.13043904     0              0.079472447   -0.071034459  
   1465000   0.26644205    -0.13365697     0              0.086070075    0.094951568  
   1465500   0.2647818     -0.1313537      0              0.087004186   -0.11368933   
   1466000   0.26722361    -0.13721862     0              0.083152952    0.017097851  
   1466500   0.25710131    -0.13766843     0              0.07435558    -0.059887812  
   1467000   0.252918      -0.13833886     0              0.070235293   -0.16351066   
   1467500   0.26292362    -0.14320441     0              0.073621086    0.069035863  
   1468000   0.26152826    -0.13820725     0              0.077467536    0.11782684   
   1468500   0.26033671    -0.13097288     0              0.083719264    0.080546405  
   1469000   0.24746849    -0.13483096     0              0.069249136    0.0027382996 
   1469500   0.25077893    -0.13857229     0              0.068237829    0.064167985  
   1470000   0.24610567    -0.14012817     0              0.062828051    0.073407219  
   1470500   0.24323831    -0.13703632     0              0.063555275    0.12212925   
   1471000   0.25110738    -0.13560509     0              0.071475905   -0.14019507   
   1471500   0.24878931    -0.13149271     0              0.073676636   -0.026609432  
   1472000   0.24180584    -0.13584155     0              0.063568728    0.046837063  
   1472500   0.23198767    -0.13384493     0              0.05746859    -0.038254682  
   1473000   0.23280062    -0.13730784     0              0.054676089    0.11806232   
   1473500   0.23275843    -0.13626917     0              0.055679968   -0.033990315  
   1474000   0.23755749    -0.13924162     0              0.056665161    0.081689366  
   1474500   0.23268861    -0.13348079     0              0.058410778   -0.19303461   
   1475000   0.22846062    -0.13038836     0              0.058016499    0.11220774   
   1475500   0.2347728     -0.14040409     0              0.053206248    0.051606085  
   1476000   0.23233638    -0.13755155     0              0.054049539   -0.096993025  
   1476500   0.23974234    -0.14144691     0              0.056261655    0.043584414  
   1477000   0.2344096     -0.13480503     0              0.058505786    0.19311693   
   1477500   0.2380021     -0.13525039     0              0.061023052    0.090052476  
   1478000   0.2490678     -0.13841956     0              0.066979446    0.32846189   
   1478500   0.26091412    -0.13795875     0              0.077209571   -0.018192553  
   1479000   0.26017711    -0.13434565     0              0.080214881    0.1758942    
   1479500   0.24360523    -0.12538714     0              0.075507039    0.054286821  
   1480000   0.23672325    -0.12802659     0              0.067192225    0.10023905   
   1480500   0.2499509     -0.12662907     0              0.079498198    0.0051589983 
   1481000   0.25761947    -0.1305129      0              0.081938426    0.14284801   
   1481500   0.25097871    -0.12346005     0              0.083514833   -0.11969485   
   1482000   0.24397953    -0.12292121     0              0.078281645    0.10532923   
   1482500   0.24749787    -0.12797611     0              0.076128217    0.070167036  
   1483000   0.25410555    -0.12704801     0              0.082505487    0.069402458  
   1483500   0.24663442    -0.12812091     0              0.075271358    0.16156501   
   1484000   0.24893371    -0.12713626     0              0.078152172    0.10598894   
   1484500   0.25228175    -0.12468625     0              0.083363209    0.12029053   
   1485000   0.25827393    -0.12308582     0              0.089905216    0.086918758  
   1485500   0.25583556    -0.12448234     0              0.086497847    0.25756907   
   1486000   0.25758166    -0.12499675     0              0.087423387   -0.14864891   
   1486500   0.2426577     -0.12268116     0              0.077431621   -0.023838852  
   1487000   0.25141595    -0.13004276     0              0.077292699   -0.10943014   
   1487500   0.25348522    -0.12506039     0              0.083981534   -0.068228522  
   1488000   0.25259484    -0.12279645     0              0.0855112      0.047455485  
   1488500   0.27600617    -0.1258736      0              0.1017407      0.36305389   
   1489000   0.26668564    -0.12065282     0              0.099275108    0.026681097  
   1489500   0.24917172    -0.12072836     0              0.084756348   -0.13699231   
   1490000   0.25416172    -0.12418233     0              0.085417482   -0.073193571  
   1490500   0.25548652    -0.1271824      0              0.083509937    0.097339388  
   1491000   0.24277199    -0.12822584     0              0.071981189    0.098452523  
   1491500   0.24194916    -0.12855418     0              0.07097429    -0.096015308  
   1492000   0.24205933    -0.13036129     0              0.069258029    0.10194917   
   1492500   0.24435246    -0.12997339     0              0.071537016    0.21458581   
   1493000   0.2422346     -0.12524031     0              0.074523551   -0.11323811   
   1493500   0.22561276    -0.12620681     0              0.0598495     -0.062986897  
   1494000   0.2317881     -0.13100271     0              0.060146228    0.17065841   
   1494500   0.23095577    -0.13067153     0              0.059791008   -0.056685208  
   1495000   0.23113311    -0.12960035     0              0.061008429   -0.16076485   
   1495500   0.22590896    -0.12466397     0              0.061636611   -0.076633424  
   1496000   0.22896155    -0.12613557     0              0.062682393   -0.16987157   
   1496500   0.2247855     -0.12806719     0              0.057306905   -0.13672072   
   1497000   0.22352253    -0.13009541     0              0.054237144   -0.054340407  
   1497500   0.21890649    -0.13092881     0              0.049597035   -0.22770183   
   1498000   0.2224909     -0.13624562     0              0.047236185    0.10803279   
   1498500   0.23077271    -0.13303248     0              0.057279093    0.16692325   
   1499000   0.23296785    -0.13778097     0              0.054340876    0.1878155    
   1499500   0.22504891    -0.13473829     0              0.050853031   -0.26934241   
   1500000   0.23442417    -0.14517089     0              0.048151932   -0.048414766  
   1500500   0.23464619    -0.14122569     0              0.052280233    0.16626352   
   1501000   0.24092935    -0.14230975     0              0.056377717   -0.052287911  
   1501500   0.25317133    -0.13916787     0              0.0696152     -0.10261918   
   1502000   0.24850405    -0.14568736     0              0.059246735    0.14014191   
   1502500   0.24638354    -0.13882206     0              0.064363308    0.019939398  
   1503000   0.24138907    -0.14560686     0              0.053459717   -0.0187818    
   1503500   0.24485945    -0.14231899     0              0.059609516    0.034865502  
   1504000   0.23905379    -0.13618239     0              0.060958349   -0.031476582  
   1504500   0.23069474    -0.14241989     0              0.047827386   -0.058304731  
   1505000   0.23905442    -0.13958835     0              0.057552908    0.2448984    
   1505500   0.24796699    -0.14511247     0              0.059378726   -0.1602453    
   1506000   0.24004156    -0.1470424      0              0.050912929   -0.075741155  
   1506500   0.24326491    -0.14760626     0              0.053007271    0.08746718   
   1507000   0.244881      -0.14403438     0              0.057911889    0.037259609  
   1507500   0.24867195    -0.14826223     0              0.056810325    0.12535289   
   1508000   0.24181229    -0.14105666     0              0.058358936   -0.018942013  
   1508500   0.24361365    -0.14825308     0              0.052648038    0.042752622  
   1509000   0.23536722    -0.14020856     0              0.053891977    0.011727165  
   1509500   0.24458448    -0.13691773     0              0.06478401     0.052968633  
   1510000   0.25703308    -0.14202039     0              0.069947345   -0.039771148  
   1510500   0.25801928    -0.14346161     0              0.069319427   -0.139465     
   1511000   0.25374811    -0.13855128     0              0.070707434   -0.033823811  
   1511500   0.23933155    -0.14575643     0              0.051613372    0.072859654  
   1512000   0.25155858    -0.14130911     0              0.066143969    0.10859319   
   1512500   0.25747545    -0.14050166     0              0.071830883    0.012568879  
   1513000   0.25991657    -0.14225733     0              0.072088336   -0.071432045  
   1513500   0.24971274    -0.14283802     0              0.063092847    0.071658191  
   1514000   0.25604161    -0.14456598     0              0.066584115    0.0072941073 
   1514500   0.2676714     -0.14157376     0              0.079167097    0.34255565   
   1515000   0.26497033    -0.13508104     0              0.08343232    -0.21008396   
   1515500   0.27075167    -0.1388787      0              0.084402363    0.012448796  
   1516000   0.25856041    -0.13811534     0              0.075111938    0.034670386  
   1516500   0.24673202    -0.14201086     0              0.06146189    -0.039836277  
   1517000   0.24901253    -0.14177659     0              0.063576835    0.04607189   
   1517500   0.26211871    -0.14156276     0              0.07459895     0.087031528  
   1518000   0.26332848    -0.14345336     0              0.073706013    0.021653275  
   1518500   0.2465793     -0.13981272     0              0.063534088    0.076953519  
   1519000   0.24533534    -0.14404849     0              0.058272457    0.10694855   
   1519500   0.2477439     -0.139626       0              0.064681216   -0.087062784  
   1520000   0.25515127    -0.14497785     0              0.065438017    0.11944578   
   1520500   0.26680731    -0.14108205     0              0.078946215   -0.037348085  
   1521000   0.26973128    -0.13882172     0              0.083617853    0.0061403062 
   1521500   0.2657046     -0.13958995     0              0.079528942    0.01567947   
   1522000   0.27173431    -0.13577621     0              0.088315205    0.14739529   
   1522500   0.26693471    -0.14016955     0              0.079963779   -0.33399281   
   1523000   0.26023586    -0.14000596     0              0.074603021   -0.060018724  
   1523500   0.25727844    -0.13453448     0              0.0776356      0.22476243   
   1524000   0.24718414    -0.13515816     0              0.06868745    -0.058330916  
   1524500   0.24354506    -0.12884988     0              0.071994684    0.071426102  
   1525000   0.26386628    -0.13162939     0              0.085973491    0.15373028   
   1525500   0.25871225    -0.12841949     0              0.084933007    0.20942061   
   1526000   0.25641271    -0.12889522     0              0.082560917   -0.035403166  
   1526500   0.26691083    -0.13355995     0              0.086553681   -0.13453906   
   1527000   0.27345484    -0.11751636     0              0.10799393    -0.023017081  
   1527500   0.2671874     -0.12491515     0              0.095426566   -0.099749016  
   1528000   0.27031213    -0.12226449     0              0.1006541      0.29089198   
   1528500   0.26623172    -0.12532022     0              0.094233368    0.21096599   
   1529000   0.26158903    -0.12133772     0              0.094387185   -0.28656942   
   1529500   0.24948866    -0.12605774     0              0.079688338    0.012775655  
   1530000   0.24211755    -0.12801271     0              0.07165462     0.075155863  
   1530500   0.24442413    -0.1253359      0              0.076233604    0.09539758   
   1531000   0.2526697     -0.12906066     0              0.079308728    0.061852174  
   1531500   0.25107152    -0.12175974     0              0.085291669    0.06308063   
   1532000   0.2428221     -0.12176084     0              0.07848751    -0.012437244  
   1532500   0.25439061    -0.12331919     0              0.086469389   -0.0039475469 
   1533000   0.274254      -0.12552987     0              0.10063946     0.062125854  
   1533500   0.25943551    -0.12159992     0              0.092349033    0.11884427   
   1534000   0.25394493    -0.12091751     0              0.088503523    0.1083716    
   1534500   0.24804937    -0.11903545     0              0.085523686    0.23032047   
   1535000   0.25486704    -0.11705096     0              0.093130506   -0.13243696   
   1535500   0.24556149    -0.12385998     0              0.078647476   -0.14445872   
   1536000   0.24831537    -0.11941935     0              0.08535915    -0.13778101   
   1536500   0.25071006    -0.12086853     0              0.085884796    0.030529162  
   1537000   0.24983383    -0.12665976     0              0.079370963    0.04872048   
   1537500   0.2548728     -0.12710649     0              0.083079735    0.0093417857 
   1538000   0.23848802    -0.12498552     0              0.07168865     0.075732547  
   1538500   0.22444872    -0.1216237      0              0.063472668    0.00087994676
   1539000   0.22477016    -0.12398887     0              0.061372576   -0.21345953   
   1539500   0.23690571    -0.12466784     0              0.070701435    0.47579557   
   1540000   0.25018984    -0.12567836     0              0.080645957    0.16499933   
   1540500   0.2332872     -0.12130064     0              0.071084558    0.068490661  
   1541000   0.23496712    -0.12595334     0              0.067817242    0.10872532   
   1541500   0.24949515    -0.12061612     0              0.085135308    0.1247767    
   1542000   0.25388283    -0.12325187     0              0.08611795    -0.057132487  
   1542500   0.25486308    -0.1233161      0              0.086862103    0.020126874  
   1543000   0.25479852    -0.12411351     0              0.086011454    0.11493417   
   1543500   0.24617502    -0.13157379     0              0.071439618   -0.026164104  
   1544000   0.23503416    -0.12832137     0              0.065504498    0.086207836  
   1544500   0.23314492    -0.13733107     0              0.0549368      0.19591833   
   1545000   0.23869446    -0.13736993     0              0.059474478    0.042268921  
   1545500   0.25843038    -0.13188081     0              0.081239242    0.303083     
   1546000   0.25779194    -0.13460267     0              0.077990886   -0.14233063   
   1546500   0.24333576    -0.13348556     0              0.067186392    0.10672983   
   1547000   0.23190479    -0.12963203     0              0.061613145    0.099789217  
   1547500   0.24001952    -0.13663071     0              0.061306434   -0.19021457   
   1548000   0.26381201    -0.13717868     0              0.080379448    0.16847749   
   1548500   0.26667322    -0.13203815     0              0.087879533    0.074051647  
   1549000   0.25610168    -0.13837714     0              0.072822504    0.26296419   
   1549500   0.27557855    -0.13600861     0              0.091253042    0.071227688  
   1550000   0.26696222    -0.13126064     0              0.08889537    -0.046879903  
   1550500   0.25455224    -0.13406896     0              0.075852908   -0.018343294  
   1551000   0.25867444    -0.13570124     0              0.077620079    0.053844687  
   1551500   0.25386971    -0.12984576     0              0.079513247   -0.091421093  
   1552000   0.253031      -0.1262752      0              0.082392137   -0.21105601   
   1552500   0.28381848    -0.13200158     0              0.10205531    -0.0075395418 
   1553000   0.27527543    -0.13161261     0              0.095399074   -0.21998374   
   1553500   0.28220786    -0.13272833     0              0.10000032     0.38584661   
   1554000   0.26521058    -0.13654817     0              0.082163312    0.11342017   
   1554500   0.25190397    -0.13500693     0              0.07273098     0.21777425   
   1555000   0.23729808    -0.13771623     0              0.05797663     0.093631397  
   1555500   0.24487381    -0.14369181     0              0.058248532   -0.079594699  
   1556000   0.24231504    -0.13971646     0              0.06011374     0.11263875   
   1556500   0.25314236    -0.1404269      0              0.068332276   -0.25626666   
   1557000   0.27365789    -0.13840776     0              0.087269981   -0.20806884   
   1557500   0.26001286    -0.13991853     0              0.074506547    0.0088695902 
   1558000   0.24755741    -0.14248419     0              0.061669241    0.03072686   
   1558500   0.24361113    -0.13879404     0              0.062105001    0.16658916   
   1559000   0.26130625    -0.14576318     0              0.069728513    0.45932337   
   1559500   0.2605257     -0.14347        0              0.071378001    0.16744853   
   1560000   0.24388735    -0.14314844     0              0.057978392    0.096951773  
   1560500   0.22830349    -0.1398649      0              0.048410376    0.046320142  
   1561000   0.22227931    -0.14020529     0              0.043102024   -0.01199788   
   1561500   0.22277552    -0.14187742     0              0.041839104   -0.15777755   
   1562000   0.22990417    -0.14228055     0              0.047314766   -0.059475066  
   1562500   0.2390059     -0.13801782     0              0.059083425    0.011626271  
   1563000   0.2299318     -0.13923901     0              0.050379093   -0.041923041  
   1563500   0.22654576    -0.14021501     0              0.046610718    0.040394146  
   1564000   0.22369222    -0.14562634     0              0.038846156   -0.017347528  
   1564500   0.22585274    -0.1498912      0              0.036363023   -0.14358727   
   1565000   0.22146975    -0.14606592     0              0.036573765   -0.15586055   
   1565500   0.22035315    -0.15035317     0              0.031365695    0.29424962   
   1566000   0.23333542    -0.14992429     0              0.042500675    0.14884061   
   1566500   0.23401434    -0.14954942     0              0.043435437    0.010324213  
   1567000   0.2263311     -0.1478953      0              0.038753402   -0.059684235  
   1567500   0.23213605    -0.14056619     0              0.050869689    0.038114947  
   1568000   0.23016933    -0.14073635     0              0.049077632   -0.033115377  
   1568500   0.23063814    -0.14503743     0              0.045163169   -0.027768016  
   1569000   0.23975315    -0.13936222     0              0.058355263    0.12475763   
   1569500   0.25855164    -0.14266302     0              0.070557033   -0.0081284393 
   1570000   0.24768818    -0.13929458     0              0.064966691   -0.0064534499 
   1570500   0.25042747    -0.13994354     0              0.066576747    0.033034874  
   1571000   0.25885672    -0.14184321     0              0.071628433   -0.039732747  
   1571500   0.24870817    -0.1347177      0              0.070384724   -0.18417406   
   1572000   0.24134805    -0.13854865     0              0.060484106   -0.014492661  
   1572500   0.23616388    -0.14044273     0              0.054314789    0.13295336   
   1573000   0.24750897    -0.14371601     0              0.060397473   -0.17978301   
   1573500   0.24463651    -0.1346316      0              0.067113049   -0.1287042    
   1574000   0.24063386    -0.14048913     0              0.057954644    0.1445195    
   1574500   0.24410338    -0.14079062     0              0.060514371    0.19918545   
   1575000   0.25020574    -0.13217193     0              0.074165503   -0.1354615    
   1575500   0.25852197    -0.13631325     0              0.076882335   -0.16176519   
   1576000   0.25807718    -0.13654384     0              0.076284939   -0.029051224  
   1576500   0.25929979    -0.13628489     0              0.077552145   -0.053277839  
   1577000   0.25322249    -0.14544232     0              0.063382931    0.11808158   
   1577500   0.24712758    -0.14189493     0              0.061904035    0.050680284  
   1578000   0.23597835    -0.13526133     0              0.059343193    0.091908372  
   1578500   0.22768831    -0.13917873     0              0.048589232    0.12232392   
   1579000   0.23154086    -0.13686936     0              0.054075683    0.12332775   
   1579500   0.24467576    -0.13873362     0              0.063043401    0.15559191   
   1580000   0.25500157    -0.1453028      0              0.064989616   -0.22632166   
   1580500   0.26125162    -0.13758357     0              0.077863078   -0.12187575   
   1581000   0.25457371    -0.13171558     0              0.078223991    0.058163793  
   1581500   0.24617759    -0.1394831      0              0.063532428    0.054598792  
   1582000   0.24163218    -0.14179773     0              0.057469338   -0.13082008   
   1582500   0.23660003    -0.13596728     0              0.059149924    0.32608399   
   1583000   0.23167175    -0.13865236     0              0.052400631   -0.15073324   
   1583500   0.24354524    -0.14202307     0              0.058821637    0.20019677   
   1584000   0.27244509    -0.14695808     0              0.077719495   -0.11512905   
   1584500   0.27671148    -0.14105573     0              0.08714022     0.15163203   
   1585000   0.26356322    -0.13873219     0              0.078620771    0.020390251  
   1585500   0.26673982    -0.13074088     0              0.089231727   -0.071040068  
   1586000   0.27915082    -0.13162502     0              0.098582584   -0.091552785  
   1586500   0.26859577    -0.14008924     0              0.081413923   -0.053875663  
   1587000   0.25982916    -0.13989887     0              0.074374715   -0.035081256  
   1587500   0.2626165     -0.1395272      0              0.077045026   -0.14371216   
   1588000   0.27995792    -0.13613014     0              0.094743049   -0.023650844  
   1588500   0.27144563    -0.13626794     0              0.08758541     0.077893683  
   1589000   0.25608744    -0.1349156      0              0.076272294    0.090487256  
   1589500   0.25111982    -0.14354491     0              0.063546337   -0.14817628   
   1590000   0.25021043    -0.1420277      0              0.064313596    0.14017893   
   1590500   0.24635416    -0.1408078      0              0.062353342    0.078571679  
   1591000   0.24676812    -0.14366211     0              0.059840419    0.041605332  
   1591500   0.2557185     -0.13524186     0              0.075641781    0.23529579   
   1592000   0.24564955    -0.1359667      0              0.066613377    0.05952416   
   1592500   0.24419018    -0.13882433     0              0.062552242   -0.12048035   
   1593000   0.23986201    -0.14073063     0              0.057076628    0.045457784  
   1593500   0.24258924    -0.14360334     0              0.056452981   -0.042696843  
   1594000   0.2445882     -0.14144361     0              0.060261203    0.13528399   
   1594500   0.2396488     -0.13710422     0              0.060527201    0.093755017  
   1595000   0.23424734    -0.13898467     0              0.054192327    0.067255764  
   1595500   0.23458595    -0.14629615     0              0.047160098    0.11454901   
   1596000   0.23749011    -0.14908942     0              0.046761801    0.01427048   
   1596500   0.23902527    -0.14450696     0              0.052610254   -0.18648432   
   1597000   0.24197483    -0.15026822     0              0.049281417   -0.037178545  
   1597500   0.23000734    -0.14526923     0              0.044411164   -0.01541746   
   1598000   0.22839724    -0.15110106     0              0.03725153    -0.011428569  
   1598500   0.22968598    -0.15176113     0              0.037654249   -0.15451977   
   1599000   0.21792222    -0.1510711      0              0.028643046    0.054411274  
   1599500   0.21731663    -0.14840826     0              0.030806471    0.23116229   
   1600000   0.21047408    -0.14754164     0              0.026030242    0.058257755  
   1600500   0.2261526     -0.15162783     0              0.03487367     0.047743489  
   1601000   0.22773359    -0.1443903      0              0.043415002    0.042627352  
   1601500   0.22303799    -0.14670698     0              0.037225994    0.089147637  
   1602000   0.23003161    -0.14635634     0              0.043344066   -0.17973713   
   1602500   0.2332591     -0.14363493     0              0.048727096    0.088554111  
   1603000   0.22993722    -0.14027933     0              0.049343238    0.16116567   
   1603500   0.22134222    -0.14722021     0              0.035314309   -0.11844258   
   1604000   0.24508359    -0.14344929     0              0.058664049    0.040240617  
   1604500   0.24737939    -0.14526562     0              0.058741      -0.0671749    
   1605000   0.24168257    -0.14487998     0              0.054428635   -0.15640351   
   1605500   0.22768648    -0.13267398     0              0.055092469   -0.043513035  
   1606000   0.22814836    -0.13530939     0              0.052837962    0.092328962  
   1606500   0.2230588     -0.14235652     0              0.041593621    0.013359826  
   1607000   0.21886582    -0.14033753     0              0.040154775   -0.11603929   
   1607500   0.2176386     -0.13921065     0              0.040269601    0.1987707    
   1608000   0.21620705    -0.14126212     0              0.037037574    0.10673065   
   1608500   0.20721857    -0.14339964     0              0.027487518   -0.27707363   
   1609000   0.21165685    -0.14337284     0              0.031174437   -0.11119286   
   1609500   0.20973234    -0.14377344     0              0.029186755    0.022993735  
   1610000   0.20371317    -0.14362309     0              0.024373259    0.084434282  
   1610500   0.22450619    -0.14332521     0              0.041818543   -0.092828665  
   1611000   0.24143688    -0.14296012     0              0.056145885    0.042610778  
   1611500   0.2421531     -0.13557865     0              0.064118005    0.086957831  
   1612000   0.23765523    -0.13422172     0              0.061765673    0.089482806  
   1612500   0.23310135    -0.1277195      0              0.064512434    0.19599984   
   1613000   0.23248937    -0.13604149     0              0.05568576     0.1548943    
   1613500   0.23252149    -0.13644844     0              0.055305297    0.038314571  
   1614000   0.24222937    -0.13392306     0              0.065836489   -0.078387079  
   1614500   0.23791437    -0.13761011     0              0.058590983    0.064301552  
   1615000   0.23178877    -0.13459281     0              0.056556679    0.077282339  
   1615500   0.22392068    -0.13728183     0              0.047379076    0.26528914   
   1616000   0.23284477    -0.13695256     0              0.055067782    0.11111882   
   1616500   0.23474196    -0.13661687     0              0.056968031    0.0143133    
   1617000   0.22757255    -0.14117288     0              0.046499614   -0.050047028  
   1617500   0.24458661    -0.14190505     0              0.05979844     0.010352422  
   1618000   0.22989434    -0.14201281     0              0.047574396    0.076782567  
   1618500   0.22620846    -0.14221749     0              0.044330073    0.032863917  
   1619000   0.22910068    -0.14453171     0              0.044400985   -0.0079149443 
   1619500   0.21680255    -0.14556182     0              0.033228971    0.053817104  
   1620000   0.21772154    -0.14837408     0              0.031174574    0.035856064  
   1620500   0.23036318    -0.15161644     0              0.038357406   -0.02467877   
   1621000   0.23780872    -0.1474342      0              0.048679772    0.076002633  
   1621500   0.25042349    -0.15000619     0              0.056510814    0.29962351   
   1622000   0.22496669    -0.14449663     0              0.041026883    0.30306494   
   1622500   0.2341608     -0.14349954     0              0.049606095   -0.081856517  
   1623000   0.23575735    -0.1470992      0              0.047323066    0.027732533  
   1623500   0.25241365    -0.13916776     0              0.068990467    0.19117547   
   1624000   0.25254019    -0.1368892      0              0.071373385   -0.050220279  
   1624500   0.26198026    -0.13281329     0              0.083234242   -0.18619272   
   1625000   0.27031157    -0.13526456     0              0.08765356    -0.0033413308 
   1625500   0.26245492    -0.13092339     0              0.085515581   -0.27434338   
   1626000   0.24993585    -0.13274825     0              0.073366612   -0.17242731   
   1626500   0.24302253    -0.1302274      0              0.070186243    0.17917882   
   1627000   0.24444202    -0.13010051     0              0.071483747   -0.0039744576 
   1627500   0.23658491    -0.13592024     0              0.059184487    0.054639434  
   1628000   0.23001298    -0.13477567     0              0.054909373    0.10008928   
   1628500   0.22881542    -0.12966936     0              0.059028098   -0.192151     
   1629000   0.22546779    -0.12660213     0              0.059334629    0.17265983   
   1629500   0.23136112    -0.12850066     0              0.062296155    0.18609188   
   1630000   0.24256402    -0.12526439     0              0.074771136    0.087315243  
   1630500   0.2424759     -0.12170333     0              0.078259524    0.063016932  
   1631000   0.24745186    -0.12641862     0              0.077647772   -0.0060856064 
   1631500   0.24421059    -0.13394954     0              0.06744387     0.20712102   
   1632000   0.23602491    -0.13666876     0              0.057974145   -0.084847838  
   1632500   0.24044464    -0.12861555     0              0.069672183   -0.038007247  
   1633000   0.26570323    -0.1330231      0              0.086094667    0.027065757  
   1633500   0.27279206    -0.12878623     0              0.09617748     0.10862012   
   1634000   0.26357326    -0.12967464     0              0.087686597    0.0089184537 
   1634500   0.27491768    -0.13111275     0              0.095603905    0.23798402   
   1635000   0.25179837    -0.12973901     0              0.077911817    0.0011692996 
   1635500   0.25559307    -0.12953614     0              0.081244068    0.018028449  
   1636000   0.26409935    -0.12843988     0              0.089355208    0.15693687   
   1636500   0.25712552    -0.13175017     0              0.08029381    -0.0048350728 
   1637000   0.25803221    -0.13013778     0              0.082653918   -0.016319224  
   1637500   0.2514468     -0.13099063     0              0.076370274   -0.036924367  
   1638000   0.24244704    -0.13011076     0              0.0698283      0.35032351   
   1638500   0.2344552     -0.13461234     0              0.058736082    0.307025     
   1639000   0.24696738    -0.13055001     0              0.073116841    0.036532873  
   1639500   0.23672152    -0.13517105     0              0.060046335   -0.30454127   
   1640000   0.25602845    -0.1363228      0              0.074816448    0.073483051  
   1640500   0.26695471    -0.13377061     0              0.086379208    0.10254633   
   1641000   0.25600545    -0.13987283     0              0.071247459   -0.0070569677 
   1641500   0.2534574     -0.14246931     0              0.06654967     0.011543354  
   1642000   0.22677205    -0.13216839     0              0.054843955   -0.006512477  
   1642500   0.24340006    -0.14079787     0              0.059927113   -0.055881094  
   1643000   0.23974361    -0.13339963     0              0.064309987    0.058510106  
   1643500   0.23170959    -0.13618306     0              0.054901132    0.084001811  
   1644000   0.24185943    -0.1315044      0              0.06795007     0.053424723  
   1644500   0.24378678    -0.13362354     0              0.067420366    0.085846084  
   1645000   0.22701323    -0.13502679     0              0.052184449    0.057723136  
   1645500   0.24392274    -0.13874398     0              0.062412046    0.015126436  
   1646000   0.23137969    -0.13617089     0              0.054641239   -0.17337076   
   1646500   0.23082241    -0.13646519     0              0.053887371   -0.1290473    
   1647000   0.24201232    -0.13677899     0              0.062801565    0.18211806   
   1647500   0.23633839    -0.13664632     0              0.058255108   -0.042228095  
   1648000   0.22678316    -0.13940262     0              0.047618892    0.27478216   
   1648500   0.21880623    -0.13941419     0              0.041028973   -0.20290829   
   1649000   0.23409537    -0.14178143     0              0.05127025    -0.22004548   
   1649500   0.23728352    -0.13735388     0              0.058326973    0.21386988   
   1650000   0.24870425    -0.14089634     0              0.064202856    0.07142541   
   1650500   0.25221855    -0.14011815     0              0.067879183   -0.037107366  
   1651000   0.23751056    -0.14102469     0              0.054843388    0.046919252  
   1651500   0.24145741    -0.13707943     0              0.06204351     0.024865894  
   1652000   0.23462943    -0.13740504     0              0.056087058   -0.066452889  
   1652500   0.2493735     -0.14612083     0              0.059530277    0.16241604   
   1653000   0.24534469    -0.13777556     0              0.064553102   -0.090072321  
   1653500   0.25279308    -0.13601334     0              0.072457796    0.011343446  
   1654000   0.25582583    -0.13586929     0              0.075102868   -0.058082066  
   1654500   0.24866113    -0.13524628     0              0.069817362   -0.095387548  
   1655000   0.25666891    -0.12785661     0              0.083810806   -0.16628805   
   1655500   0.2528907     -0.13101942     0              0.077532224    0.14597724   
   1656000   0.26861661    -0.12948578     0              0.092034565    0.27278126   
   1656500   0.27845702    -0.13451612     0              0.095119324    0.039098183  
   1657000   0.26535512    -0.13591707     0              0.08291362     0.040058162  
   1657500   0.25740801    -0.13919406     0              0.073082871    0.11380481   
   1658000   0.26602758    -0.13762712     0              0.08175813     0.070099483  
   1658500   0.2670881     -0.13067568     0              0.089584147    0.26297762   
   1659000   0.2668488     -0.13590415     0              0.084158331    0.00023929847
   1659500   0.2706583     -0.13849417     0              0.084709894   -0.025778537  
   1660000   0.27476673    -0.12687269     0              0.099719474    0.040595494  
   1660500   0.26520868    -0.12509769     0              0.093612227    0.070705497  
   1661000   0.25292387    -0.122857       0              0.085721994   -0.0027789187 
   1661500   0.2529627     -0.1329972      0              0.07561382     0.031061725  
   1662000   0.24968697    -0.12837521     0              0.077534411    0.11509432   
   1662500   0.24250364    -0.13153355     0              0.068452178   -0.095919567  
   1663000   0.24450416    -0.13120613     0              0.070429371   -0.035704335  
   1663500   0.24184113    -0.12630096     0              0.073138417   -0.054506926  
   1664000   0.25043033    -0.13015861     0              0.076364034    0.23419458   
   1664500   0.23020652    -0.12488838     0              0.064956274    0.036528471  
   1665000   0.24194819    -0.13004395     0              0.069483723   -0.047376852  
   1665500   0.23069281    -0.13027063     0              0.059975053    0.14003948   
   1666000   0.24631616    -0.1360396      0              0.067090213    0.0096641458 
   1666500   0.24025899    -0.13319325     0              0.064941384    0.0005355138 
   1667000   0.24659668    -0.13217467     0              0.071186471   -0.040218099  
   1667500   0.24812712    -0.12772541     0              0.076897842   -0.20116833   
   1668000   0.24641273    -0.12904248     0              0.074166967   -0.11715516   
   1668500   0.25528161    -0.13087253     0              0.079650822    0.0053323499 
   1669000   0.24152353    -0.12719638     0              0.071981082    0.085469294  
   1669500   0.25077497    -0.1372891      0              0.069517757   -0.17317017   
   1670000   0.23937652    -0.1330761      0              0.064330792   -0.13664549   
   1670500   0.22985973    -0.13333627     0              0.056222401    0.051482091  
   1671000   0.24053199    -0.13253881     0              0.065820957    0.17450584   
   1671500   0.23730715    -0.13131219     0              0.064388152   -0.081596714  
   1672000   0.23891355    -0.129568       0              0.06745709    -0.12807572   
   1672500   0.23950934    -0.13275123     0              0.064765194    0.17622956   
   1673000   0.24962999    -0.13278128     0              0.073081345    0.19116278   
   1673500   0.25586592    -0.13681019     0              0.074195022    0.16569737   
   1674000   0.25906913    -0.13788697     0              0.075759841   -0.2177811    
   1674500   0.25078984    -0.13536786     0              0.071451265   -0.23043425   
   1675000   0.24333019    -0.14335324     0              0.057314127   -0.012432578  
   1675500   0.24108161    -0.14107796     0              0.057735065   -0.065747586  
   1676000   0.24833937    -0.14312043     0              0.06167786    -0.078245159  
   1676500   0.24512517    -0.14266034     0              0.059487291    0.35129847   
   1677000   0.23688815    -0.13660335     0              0.058751448    0.011179017  
   1677500   0.25754745    -0.14327427     0              0.069117656   -0.041532407  
   1678000   0.24863552    -0.12812844     0              0.076914076    0.093475378  
   1678500   0.24500287    -0.13774364     0              0.064303134    0.092274696  
   1679000   0.25823134    -0.13888309     0              0.074072822    0.09958969   
   1679500   0.24165434    -0.13961833     0              0.059667009   -0.099213702  
   1680000   0.24635671    -0.14038343     0              0.062779821   -0.064428169  
   1680500   0.25150235    -0.13591614     0              0.071490573    0.065670201  
   1681000   0.25459799    -0.13156909     0              0.078390502   -0.028894532  
   1681500   0.25204561    -0.13495117     0              0.072903543    0.19456593   
   1682000   0.26385586    -0.13451008     0              0.08308421     0.062695663  
   1682500   0.24686037    -0.13759023     0              0.065988374    0.02829588   
   1683000   0.26595119    -0.13393716     0              0.085385084    0.047138481  
   1683500   0.25421706    -0.13072527     0              0.078920175    0.15710541   
   1684000   0.25264204    -0.13741971     0              0.070926873    0.24133308   
   1684500   0.24397275    -0.13415904     0              0.067038221   -0.17061943   
   1685000   0.23429062    -0.13520306     0              0.058009632   -0.17881303   
   1685500   0.24106291    -0.1295986      0              0.069199001    0.27666262   
   1686000   0.26443329    -0.12731623     0              0.090754247    0.053937207  
   1686500   0.27493448    -0.12725748     0              0.099473032    0.018630873  
   1687000   0.28822441    -0.12150152     0              0.11618881    -0.14407369   
   1687500   0.28528693    -0.12455807     0              0.1107098     -0.00049841101
   1688000   0.27333297    -0.1232404      0              0.10216939    -0.16328819   
   1688500   0.27177406    -0.1207575      0              0.1033667      0.0029334663 
   1689000   0.27286657    -0.1230304      0              0.10199476     0.073231127  
   1689500   0.26935107    -0.12550015     0              0.096625877    0.091388777  
   1690000   0.26514869    -0.11935047     0              0.09930998     0.20336183   
   1690500   0.26375315    -0.12177393     0              0.095735659    0.19389139   
   1691000   0.2549052     -0.12556745     0              0.084645495   -0.22596208   
   1691500   0.25608249    -0.12569565     0              0.085488171   -0.15439529   
   1692000   0.25204435    -0.12794632     0              0.079907359   -0.082861131  
   1692500   0.23805543    -0.12276205     0              0.073555369    0.17565891   
   1693000   0.25702978    -0.11794152     0              0.094023498    0.10761887   
   1693500   0.24546481    -0.11873628     0              0.083691442   -0.12763875   
   1694000   0.23698065    -0.12179918     0              0.073631901    0.083030936  
   1694500   0.23250635    -0.12632446     0              0.0654168      0.0071775931 
   1695000   0.23041991    -0.13084412     0              0.059176506   -0.11886936   
   1695500   0.23218844    -0.13638066     0              0.055098424    0.41459795   
   1696000   0.23705307    -0.13361841     0              0.06187239     0.37444656   
   1696500   0.25485436    -0.12361332     0              0.086557691    0.074095575  
   1697000   0.26677449    -0.11710928     0              0.10289192    -0.021369789  
   1697500   0.26789771    -0.12244251     0              0.098484981   -0.080127281  
   1698000   0.25547604    -0.11671258     0              0.093971112    0.016757888  
   1698500   0.24943679    -0.11835708     0              0.087346221    0.0044869989 
   1699000   0.25338191    -0.12162311     0              0.087333616    0.048059379  
   1699500   0.25550204    -0.12487198     0              0.085833149   -0.079611555  
   1700000   0.24746082    -0.12504088     0              0.079032894    0.086905531  
   1700500   0.24325337    -0.12806876     0              0.072535257    0.23580368   
   1701000   0.24217151    -0.12660065     0              0.073111191    0.13817461   
   1701500   0.23962915    -0.12411661     0              0.073498613    0.10689405   
   1702000   0.23249444    -0.12736082     0              0.064370612   -0.0091668089 
   1702500   0.2369495     -0.13413657     0              0.061268826    0.0009135607 
   1703000   0.24687409    -0.13268892     0              0.070901004    0.089692236  
   1703500   0.24112728    -0.13461134     0              0.064239353    0.16109607   
   1704000   0.23867632    -0.13472007     0              0.062109384    0.092051571  
   1704500   0.24243285    -0.13479772     0              0.065129627   -0.20074134   
   1705000   0.24054051    -0.12829766     0              0.070069138    0.029331503  
   1705500   0.236101      -0.13838909     0              0.056316569    0.20959606   
   1706000   0.23056979    -0.13500315     0              0.055141083   -0.11747126   
   1706500   0.22298852    -0.12956116     0              0.054331016    0.13786904   
   1707000   0.23746131    -0.13594795     0              0.059879525   -0.10692803   
   1707500   0.23621288    -0.13104271     0              0.063755219    0.02894142   
   1708000   0.24357487    -0.14300427     0              0.057864869    0.2167877    
   1708500   0.23439227    -0.13481974     0              0.058476785    0.15937082   
   1709000   0.25101679    -0.13754961     0              0.069456668   -0.066397664  
   1709500   0.2535008     -0.14009205     0              0.068962723    0.11513761   
   1710000   0.26199365    -0.13918614     0              0.07687244    -0.059043141  
   1710500   0.27074188    -0.13246011     0              0.090812887    0.23879476   
   1711000   0.26721181    -0.13030514     0              0.090056705    0.14498038   
   1711500   0.2553406     -0.13091247     0              0.079659533    0.26898321   
   1712000   0.26331354    -0.13165841     0              0.085488648    0.012676154  
   1712500   0.25916849    -0.13414302     0              0.079585726   -0.016721868  
   1713000   0.27836891    -0.13711191     0              0.092450874    0.24941587   
   1713500   0.2772855     -0.13174425     0              0.09692507    -0.18713426   
   1714000   0.26452283    -0.12743891     0              0.090705416   -0.04885868   
   1714500   0.26199186    -0.13934742     0              0.076709683   -0.031296037  
   1715000   0.25513702    -0.14327758     0              0.067126531   -0.018611866  
   1715500   0.25714412    -0.14309809     0              0.068961226   -0.030248871  
   1716000   0.25660241    -0.13573647     0              0.075876115    0.078278947  
   1716500   0.24614182    -0.1437466      0              0.059239434   -0.097559154  
   1717000   0.24243662    -0.13980097     0              0.060129488   -0.056674375  
   1717500   0.24570442    -0.14265805     0              0.059967275   -0.1277832    
   1718000   0.24737846    -0.13987915     0              0.064126711   -0.14862085   
   1718500   0.24896922    -0.14223822     0              0.063079486    0.086881996  
   1719000   0.25449733    -0.14428815     0              0.065588437    0.033491685  
   1719500   0.24722443    -0.14177357     0              0.06210526    -0.17991293   
   1720000   0.23683155    -0.13648094     0              0.058827187   -0.097465881  
   1720500   0.23008647    -0.14294812     0              0.046797531    0.16830242   
   1721000   0.22817544    -0.14149416     0              0.046675521   -0.00048942752
   1721500   0.23374279    -0.14279156     0              0.04996936     0.022626012  
   1722000   0.22960533    -0.1423333      0              0.04701557    -0.17523638   
   1722500   0.23442941    -0.13482648     0              0.058500662   -0.088652848  
   1723000   0.23637309    -0.13603052     0              0.058899523   -0.045633755  
   1723500   0.25743519    -0.12739478     0              0.084904565   -0.038346062  
   1724000   0.25147085    -0.12282437     0              0.084556366   -0.048755972  
   1724500   0.25450735    -0.12766377     0              0.082221076    0.12324251   
   1725000   0.24334065    -0.12305872     0              0.077617267   -0.16754396   
   1725500   0.24381751    -0.12829514     0              0.072774096   -0.09159839   
   1726000   0.23908459    -0.13145796     0              0.065708181   -0.16897423   
   1726500   0.2441429     -0.12970096     0              0.071636623    0.10663345   
   1727000   0.25344552    -0.130881       0              0.078128182    0.21851845   
   1727500   0.25171265    -0.13237351     0              0.075206626    0.24122123   
   1728000   0.25382972    -0.13472554     0              0.074600484   -0.12395436   
   1728500   0.25944399    -0.12840521     0              0.085550731    0.030461987  
   1729000   0.25752724    -0.13116374     0              0.081211518    0.10858852   
   1729500   0.24564331    -0.13275623     0              0.069818697    0.0066658219 
   1730000   0.24344519    -0.12863791     0              0.072124291   -0.13146848   
   1730500   0.23811889    -0.1354211      0              0.060948657   -0.04655153   
   1731000   0.25107823    -0.12846518     0              0.078591765    0.18936454   
   1731500   0.23848881    -0.13220286     0              0.064471959    0.020709997  
   1732000   0.23605071    -0.13542827     0              0.05923591    -0.034307218  
   1732500   0.24083467    -0.13770104     0              0.060908341    0.056591463  
   1733000   0.23958541    -0.13509946     0              0.06247969     0.024226504  
   1733500   0.24582554    -0.13810581     0              0.064619391    0.040176581  
   1734000   0.24410023    -0.142388       0              0.05891439     0.12438569   
   1734500   0.25914435    -0.13614403     0              0.077564812    0.068976904  
   1735000   0.24174164    -0.13592973     0              0.063427608    0.043327418  
   1735500   0.24720836    -0.14124723     0              0.062618343    0.073312728  
   1736000   0.23803094    -0.13549364     0              0.060803587    0.11030954   
   1736500   0.24340362    -0.14583253     0              0.054895387    0.064960338  
   1737000   0.24294846    -0.14250703     0              0.057845528    0.1216459    
   1737500   0.25827901    -0.1372213      0              0.075773927    0.019329426  
   1738000   0.25728209    -0.14202404     0              0.070149048    0.04958479   
   1738500   0.27275993    -0.13171269     0              0.093224526   -0.021726959  
   1739000   0.27801712    -0.12947525     0              0.099797415   -0.021645065  
   1739500   0.2687        -0.13062293     0              0.090966185    0.1786133    
   1740000   0.26197894    -0.13508485     0              0.080961605    0.37918812   
   1740500   0.25621041    -0.13659437     0              0.07469494    -0.044310003  
   1741000   0.24413915    -0.13680253     0              0.064531958   -0.085754768  
   1741500   0.25199994    -0.13488624     0              0.072930816    0.16522471   
   1742000   0.24443863    -0.13798715     0              0.063594316   -0.016565501  
   1742500   0.25355165    -0.12588151     0              0.083215199   -0.0096901942 
   1743000   0.23984307    -0.12459464     0              0.07319699    -0.37312346   
   1743500   0.24005423    -0.12892892     0              0.069036848    0.049104168  
   1744000   0.23272893    -0.12843399     0              0.063490824   -0.01446393   
   1744500   0.23562353    -0.13201894     0              0.062292966   -0.00046211288
   1745000   0.22968099    -0.13778742     0              0.051623848    0.21194836   
   1745500   0.2383731     -0.13279908     0              0.063780317    0.10842553   
   1746000   0.23748321    -0.12485081     0              0.070994713   -0.10915693   
   1746500   0.24452902    -0.12750862     0              0.074147381    0.22728806   
   1747000   0.26786837    -0.12469188     0              0.096211405    0.03732956   
   1747500   0.25780288    -0.12117023     0              0.09143234    -0.23411282   
   1748000   0.25885573    -0.12737882     0              0.086092003    0.15945807   
   1748500   0.25518246    -0.12676874     0              0.083672849   -0.16522255   
   1749000   0.26980227    -0.1201469      0              0.10235122     0.038283951  
   1749500   0.27082578    -0.11113669     0              0.11220549     0.092604847  
   1750000   0.26629516    -0.12234729     0              0.097258615   -0.22072286   
   1750500   0.26208042    -0.12242263     0              0.093707499    0.18890868   
   1751000   0.2595897     -0.12062327     0              0.093452848    0.021904452  
   1751500   0.26214272    -0.11686824     0              0.099313269   -0.089943727  
   1752000   0.25999697    -0.1213585      0              0.093053475   -0.098070527  
   1752500   0.25041352    -0.11881869     0              0.087690091    0.12238838   
   1753000   0.2459939     -0.12308162     0              0.079782421    0.036768624  
   1753500   0.25715952    -0.12596391     0              0.086108102    0.078867722  
   1754000   0.25881064    -0.12192554     0              0.091508103    0.19633318   
   1754500   0.24710828    -0.1278502      0              0.075932844    0.28176229   
   1755000   0.24014592    -0.12607116     0              0.071970228   -0.052321944  
   1755500   0.2353345     -0.12491798     0              0.069155575   -0.11255814   
   1756000   0.23976351    -0.1240288      0              0.073697223    0.16640287   
   1756500   0.23015704    -0.12463459     0              0.065169256   -0.041654667  
   1757000   0.22122294    -0.12879072     0              0.053645428   -0.043841448  
   1757500   0.22412718    -0.13198701     0              0.052844184   -0.045467693  
   1758000   0.23039155    -0.13200744     0              0.057989805   -0.084234856  
   1758500   0.23536701    -0.12877193     0              0.065328432    0.084165275  
   1759000   0.24632858    -0.12311356     0              0.080026493    0.032750914  
   1759500   0.23569694    -0.12763286     0              0.066739587   -0.13429224   
   1760000   0.22841       -0.13579639     0              0.052566726   -0.013350698  
   1760500   0.22393219    -0.13326652     0              0.051403875    0.075256781  
   1761000   0.21520555    -0.13267104     0              0.044802743   -0.12959765   
   1761500   0.21890799    -0.14135918     0              0.039167898    0.080034309  
   1762000   0.21412247    -0.13889274     0              0.037687865    0.041182028  
   1762500   0.2233423     -0.14004036     0              0.044143572    0.014597708  
   1763000   0.23925649    -0.14057756     0              0.056730344    0.032777438  
   1763500   0.23613179    -0.14024266     0              0.054488396    0.075719436  
   1764000   0.24202492    -0.1412324      0              0.05835854     0.046692475  
   1764500   0.24242388    -0.13704745     0              0.062872503    0.12248445   
   1765000   0.25795543    -0.13487795     0              0.077850423   -0.14049949   
   1765500   0.2631603     -0.14348962     0              0.073531061    0.052560519  
   1766000   0.25518804    -0.13576804     0              0.074678146    0.0015470773 
   1766500   0.27518562    -0.1307434      0              0.096194214    0.14782052   
   1767000   0.2710015     -0.1352152      0              0.088271891   -0.073955045  
   1767500   0.27689535    -0.13366626     0              0.094681324   -0.10358144   
   1768000   0.2691015     -0.13132749     0              0.090592733   -0.074970396  
   1768500   0.27641001    -0.12930273     0              0.098644608   -0.054646419  
   1769000   0.28136024    -0.12926552     0              0.10276413     0.1717629    
   1769500   0.27771914    -0.12438119     0              0.10464575     0.087092517  
   1770000   0.26913424    -0.12520595     0              0.096741263   -0.12321409   
   1770500   0.25478201    -0.12513051     0              0.084980836   -0.15098399   
   1771000   0.25424365    -0.12380505     0              0.085862323    0.21283285   
   1771500   0.25435982    -0.13094579     0              0.078817391   -0.15031511   
   1772000   0.25432915    -0.12873696     0              0.081000927    0.052071596  
   1772500   0.26762007    -0.12804133     0              0.092657196    0.014399191  
   1773000   0.26403872    -0.1303425      0              0.08740259     0.016011092  
   1773500   0.25303466    -0.13496049     0              0.073709861    0.067019519  
   1774000   0.26020397    -0.1375481      0              0.077034585    0.12855532   
   1774500   0.25733595    -0.12925454     0              0.082962971   -0.026080595  
   1775000   0.27752963    -0.12258489     0              0.10628577    -0.099572375  
   1775500   0.27259621    -0.12615556     0              0.098646646    0.29409191   
   1776000   0.26422137    -0.12329089     0              0.09460483    -0.0052120308 
   1776500   0.26671244    -0.12568653     0              0.094263502    0.098645548  
   1777000   0.26500669    -0.11754134     0              0.10100201     0.11938114   
   1777500   0.25875561    -0.11866828     0              0.094719984    0.20680012   
   1778000   0.26687483    -0.11990414     0              0.1001798      0.015054379  
   1778500   0.24536119    -0.12451506     0              0.077827211    0.15211847   
   1779000   0.24846427    -0.11988358     0              0.085017709   -0.25959401   
   1779500   0.25481496    -0.12923114     0              0.080907385   -0.041056386  
   1780000   0.24485005    -0.12620265     0              0.075718097   -0.00058118825
   1780500   0.25061663    -0.11886276     0              0.087813526   -0.10280957   
   1781000   0.25359429    -0.12204723     0              0.087084645   -0.0038373509 
   1781500   0.25652738    -0.12459608     0              0.086954621    0.09083047   
   1782000   0.24822735    -0.12295046     0              0.081755446    0.12740342   
   1782500   0.23830459    -0.12110176     0              0.075421131   -0.047356171  
   1783000   0.23351042    -0.12624663     0              0.066322655    0.18159326   
   1783500   0.24096447    -0.12990573     0              0.068810692    0.14249621   
   1784000   0.22139502    -0.12794578     0              0.054632281    0.26095962   
   1784500   0.22828153    -0.13006659     0              0.058190577    0.1317194    
   1785000   0.22244434    -0.13518192     0              0.048261495    0.12027307   
   1785500   0.21746066    -0.13849435     0              0.040839159    0.04988386   
   1786000   0.23181106    -0.13634465     0              0.054823223   -0.011309211  
   1786500   0.22913034    -0.13422919     0              0.054727968    0.0036367007 
   1787000   0.24330022    -0.13523267     0              0.065409982    0.038253073  
   1787500   0.24248553    -0.13445815     0              0.06551265     0.081632944  
   1788000   0.24801653    -0.12937811     0              0.075153946   -0.058438908  
   1788500   0.26108025    -0.12812087     0              0.087184447   -0.0069647073 
   1789000   0.24622822    -0.1258227      0              0.077234592    0.059937501  
   1789500   0.25035172    -0.12936312     0              0.077094699   -0.099227526  
   1790000   0.25944985    -0.12994746     0              0.084013321    0.034525032  
   1790500   0.25256005    -0.13108627     0              0.077192697   -0.063088259  
   1791000   0.25358519    -0.13004973     0              0.079074637    0.46828266   
   1791500   0.25779988    -0.13528521     0              0.07731489     0.11524232   
   1792000   0.25173929    -0.13366041     0              0.073941702   -0.073256561  
   1792500   0.27462682    -0.13198141     0              0.094495373    0.091408871  
   1793000   0.26382978    -0.13232884     0              0.085243944   -0.062184133  
   1793500   0.25247119    -0.13569558     0              0.072510103    0.13565374   
   1794000   0.2463083     -0.13437044     0              0.068752887    0.021928388  
   1794500   0.24100627    -0.13637899     0              0.062371907   -0.1367845    
   1795000   0.24983203    -0.13464177     0              0.071387475    0.084830692  
   1795500   0.24831536    -0.13468405     0              0.070094432   -0.18258338   
   1796000   0.26763634    -0.12849272     0              0.092219224   -0.12185106   
   1796500   0.26609861    -0.12915935     0              0.090284464   -0.14057301   
   1797000   0.25373917    -0.12819066     0              0.081060689    0.084796678  
   1797500   0.25041       -0.13839113     0              0.068114749   -0.020276003  
   1798000   0.25313187    -0.13029491     0              0.078455613    0.032832859  
   1798500   0.26395699    -0.1310471      0              0.086630592   -0.0096210101 
   1799000   0.24894859    -0.12565813     0              0.079642565    0.077725461  
   1799500   0.2481011     -0.13167632     0              0.072925475   -0.044803376  
   1800000   0.2344874     -0.12677066     0              0.06660431    -0.020204709  
   1800500   0.24447324    -0.12733571     0              0.074274297   -0.07118258   
   1801000   0.2626475     -0.12495356     0              0.091644225    0.14092487   
   1801500   0.26885703    -0.12326874     0              0.09844987     0.29265297   
   1802000   0.26366421    -0.11945699     0              0.097979252   -0.027726495  
   1802500   0.25624273    -0.12526541     0              0.086050552    0.0085995474 
   1803000   0.25846871    -0.13112576     0              0.082025903   -0.064565502  
   1803500   0.25841368    -0.13290889     0              0.080197391   -0.028420296  
   1804000   0.2568004     -0.13798212     0              0.073793738    0.10857808   
   1804500   0.24406182    -0.13731231     0              0.063958402   -0.051049464  
   1805000   0.24308007    -0.14269293     0              0.057768167   -0.057745361  
   1805500   0.25119926    -0.13862439     0              0.068532365    0.14724126   
   1806000   0.24294585    -0.13828263     0              0.062067777    0.05414761   
   1806500   0.24596498    -0.13598848     0              0.066851719    0.0091716447 
   1807000   0.24566574    -0.13941767     0              0.063175753   -0.15895144   
   1807500   0.237538      -0.13456444     0              0.061326274    0.067562642  
   1808000   0.23657453    -0.1358448      0              0.059251371    0.10183932   
   1808500   0.23885088    -0.13771334     0              0.059260067    0.059864843  
   1809000   0.24626678    -0.14650213     0              0.056586959    0.076867031  
   1809500   0.23430902    -0.14406305     0              0.049164809   -0.069443839  
   1810000   0.22848483    -0.14350927     0              0.044915561    0.21398186   
   1810500   0.23124698    -0.14339062     0              0.047312075   -0.072602376  
   1811000   0.2345093     -0.13850737     0              0.05488566     0.029924853  
   1811500   0.24761727    -0.13927977     0              0.064923024   -0.069738299  
   1812000   0.25073508    -0.13737966     0              0.069394304    0.15570338   
   1812500   0.25000078    -0.14228941     0              0.06387899     0.098268995  
   1813000   0.25352468    -0.13314332     0              0.075931148   -0.11993468   
   1813500   0.2585841     -0.13162905     0              0.081617771   -0.095891424  
   1814000   0.25870155    -0.13399063     0              0.079353051   -0.022541089  
   1814500   0.25114425    -0.13576176     0              0.071349628   -0.025134592  
   1815000   0.24200773    -0.13648147     0              0.063095306   -0.027351588  
   1815500   0.24526323    -0.13114135     0              0.07112014    -0.14251899   
   1816000   0.25273557    -0.12921199     0              0.079211716    0.065603032  
   1816500   0.25466368    -0.12285088     0              0.087162887    0.079041547  
   1817000   0.26334423    -0.12336942     0              0.093802941    0.010794082  
   1817500   0.25886675    -0.12703844     0              0.086441474   -0.10914822   
   1818000   0.25558964    -0.12542274     0              0.085354645    0.26781601   
   1818500   0.25571927    -0.12613014     0              0.084754142    0.27459375   
   1819000   0.24603133    -0.12480153     0              0.078093389   -0.13909508   
   1819500   0.25305195    -0.12948586     0              0.079198762    0.038141627  
   1820000   0.2622745     -0.1296293      0              0.086660887   -0.00056449872
   1820500   0.25002933    -0.13096073     0              0.075231214    0.10764263   
   1821000   0.24560758    -0.13482576     0              0.067719709   -0.25768148   
   1821500   0.24181266    -0.12980625     0              0.069609647    0.30481479   
   1822000   0.24416514    -0.13149352     0              0.069862408   -0.15115001   
   1822500   0.25764351    -0.13192812     0              0.080543022    0.092343695  
   1823000   0.24296132    -0.12834397     0              0.072019201   -0.049344211  
   1823500   0.25605617    -0.13176918     0              0.079392929   -0.048404721  
   1824000   0.25928408    -0.12190095     0              0.091923119    0.092023726  
   1824500   0.2668977     -0.12461184     0              0.095490962   -0.12872698   
   1825000   0.27020393    -0.13073541     0              0.092093947    0.16052075   
   1825500   0.25511776    -0.12835434     0              0.082033887   -0.24469814   
   1826000   0.25152407    -0.12466385     0              0.082760775    0.13929372   
   1826500   0.25483802    -0.12325729     0              0.086900247    0.065632704  
   1827000   0.25744296    -0.12835406     0              0.083951688   -0.078319293  
   1827500   0.25312409    -0.13448599     0              0.074258122    0.004720663  
   1828000   0.25519853    -0.1284548      0              0.082000047   -0.091596017  
   1828500   0.25390919    -0.12920184     0              0.080189719    0.17966199   
   1829000   0.26241757    -0.13022773     0              0.086180442    0.0084587673 
   1829500   0.2558047     -0.12618692     0              0.084767818    0.11031686   
   1830000   0.24519948    -0.12650533     0              0.075703589   -0.041938849  
   1830500   0.24212192    -0.13030857     0              0.069362373   -0.24581715   
   1831000   0.23535987    -0.12939199     0              0.064702474    0.1025717    
   1831500   0.23658333    -0.13506695     0              0.06003648    -0.09267971   
   1832000   0.22813572    -0.13508038     0              0.053056545   -0.064027967  
   1832500   0.2404511     -0.14341567     0              0.054877394    0.011387888  
   1833000   0.24354843    -0.13361023     0              0.067237108   -0.0056796878 
   1833500   0.2424751     -0.14125363     0              0.058708568    0.099017655  
   1834000   0.22845646    -0.13391566     0              0.054485764    0.086054769  
   1834500   0.23531655    -0.12964812     0              0.064410631    0.035541599  
   1835000   0.23261734    -0.13204911     0              0.059783674   -0.26185378   
   1835500   0.23164508    -0.12967054     0              0.06136045    -0.079078613  
   1836000   0.22322344    -0.12927471     0              0.054811196   -0.068513202  
   1836500   0.22398938    -0.1418286      0              0.042888953    0.19753625   
   1837000   0.23187695    -0.13979192     0              0.051430284    0.045970819  
   1837500   0.23504495    -0.13284943     0              0.060985334   -0.095971848  
   1838000   0.23371991    -0.13701427     0              0.055727778    0.0096432475 
   1838500   0.22726284    -0.13493513     0              0.052481961    0.061536209  
   1839000   0.22946802    -0.14075267     0              0.048482965    0.0088609225 
   1839500   0.22803071    -0.13838149     0              0.049668842    0.057521927  
   1840000   0.23585404    -0.14415237     0              0.050349634    0.012856797  
   1840500   0.24127939    -0.13929988     0              0.059676254   -0.087598131  
   1841000   0.255134      -0.13285968     0              0.077541949    0.16893217   
   1841500   0.25128193    -0.13851194     0              0.068712995   -0.051449644  
   1842000   0.26074975    -0.1397832      0              0.07524957     0.023223151  
   1842500   0.24927383    -0.13179212     0              0.073776798   -0.041156841  
   1843000   0.24738534    -0.13498881     0              0.069022721    0.10023579   
   1843500   0.24969836    -0.13472296     0              0.071196051   -0.092123466  
   1844000   0.24122497    -0.13434835     0              0.064582898    0.05725636   
   1844500   0.2313684     -0.14153947     0              0.049263355    0.01641497   
   1845000   0.24268876    -0.13771007     0              0.062428327    0.043145538  
   1845500   0.23861591    -0.14115971     0              0.055619922    0.10108728   
   1846000   0.23323863    -0.13744118     0              0.054903964   -0.13544377   
   1846500   0.24214808    -0.13466676     0              0.065025754   -0.056847627  
   1847000   0.23582872    -0.13509145     0              0.059389668    0.012542832  
   1847500   0.2414631     -0.1252798      0              0.073847829    0.034868167  
   1848000   0.24691802    -0.12858808     0              0.075038065    0.039336188  
   1848500   0.24397786    -0.13192584     0              0.06927564     0.23629133   
   1849000   0.24654779    -0.13349163     0              0.06982919     0.10216612   
   1849500   0.25222174    -0.13344342     0              0.074556554   -0.057745583  
   1850000   0.25335314    -0.12845661     0              0.080476382    0.015890071  
   1850500   0.24890227    -0.12666083     0              0.078601663    0.20956806   
   1851000   0.25868095    -0.12029644     0              0.093030248   -0.21907123   
   1851500   0.25036452    -0.12774654     0              0.07872183    -0.016905385  
   1852000   0.24167805    -0.132219       0              0.067085888    0.04537469   
   1852500   0.23915829    -0.12895716     0              0.06826976    -0.025822871  
   1853000   0.24364127    -0.13224333     0              0.068680571    0.091398441  
   1853500   0.24509706    -0.12820806     0              0.073916395    0.18580328   
   1854000   0.24526099    -0.13136922     0              0.070890416    0.094960653  
   1854500   0.25139419    -0.13233756     0              0.074979954    0.18306939   
   1855000   0.25053572    -0.13508904     0              0.07152052    -0.0052042753 
   1855500   0.25602172    -0.13218492     0              0.07894878     0.13401599   
   1856000   0.2434773     -0.1315185      0              0.069270181   -0.1406481    
   1856500   0.25031041    -0.13353595     0              0.072887803    0.10765902   
   1857000   0.26113398    -0.13578443     0              0.079565198   -0.020260916  
   1857500   0.25848306    -0.12765155     0              0.08551195     0.32466612   
   1858000   0.26434448    -0.12562788     0              0.092369367    0.12367315   
   1858500   0.26574484    -0.1277739      0              0.091378173    0.19098199   
   1859000   0.26218354    -0.1202619      0              0.095953274   -0.11115961   
   1859500   0.25577961    -0.11732533     0              0.093608712    0.13894565   
   1860000   0.25608014    -0.12327831     0              0.087903568    0.068439695  
   1860500   0.26217536    -0.12283177     0              0.093376664    0.088165591  
   1861000   0.26006624    -0.12034421     0              0.094124886    0.078285583  
   1861500   0.25087313    -0.11807741     0              0.088810406    0.28290704   
   1862000   0.26486958    -0.12471716     0              0.093713115    0.14003177   
   1862500   0.26770802    -0.12466207     0              0.096108988    0.15628051   
   1863000   0.2559987     -0.12210986     0              0.089004854    0.15944738   
   1863500   0.25907548    -0.1256201      0              0.088031942    0.0094292343 
   1864000   0.25055284    -0.12915721     0              0.077466456   -0.10892048   
   1864500   0.25438591    -0.13100947     0              0.078775228    0.061453373  
   1865000   0.25149884    -0.12429356     0              0.083110252    0.0064744319 
   1865500   0.2584794     -0.12913122     0              0.084029259   -0.054740123  
   1866000   0.27841266    -0.13056174     0              0.099037115    0.068793505  
   1866500   0.27202601    -0.12617334     0              0.098158637   -0.12821224   
   1867000   0.27880446    -0.12938988     0              0.10053209    -0.06261726   
   1867500   0.2748703     -0.12754028     0              0.099137297    0.037652438  
   1868000   0.2603494     -0.12754899     0              0.08715362    -0.030432679  
   1868500   0.24728746    -0.13097329     0              0.072957524    0.054141638  
   1869000   0.2601429     -0.13686864     0              0.077663678    0.14465934   
   1869500   0.25239101    -0.12268502     0              0.085454539    0.0039569842 
   1870000   0.24267296    -0.13191597     0              0.068209394   -0.15343829   
   1870500   0.23883262    -0.13411798     0              0.062840362   -0.06538699   
   1871000   0.24738809    -0.12767787     0              0.076335925    0.052034375  
   1871500   0.24408416    -0.13019        0              0.071099144    0.029001674  
   1872000   0.24690584    -0.12702722     0              0.076588877    0.18318746   
   1872500   0.23934153    -0.12567037     0              0.071707665   -0.030454129  
   1873000   0.2494939     -0.12956343     0              0.076186962   -0.0025149604 
   1873500   0.24733548    -0.13033216     0              0.073638247    0.0040856637 
   1874000   0.24033285    -0.1241225      0              0.074073049    0.03595029   
   1874500   0.24981239    -0.13083719     0              0.075175859   -0.035578928  
   1875000   0.2542177     -0.1341262      0              0.07551978    -0.043048163  
   1875500   0.25955487    -0.13010899     0              0.083938392   -0.082723904  
   1876000   0.26119187    -0.12359148     0              0.091805895   -0.028987561  
   1876500   0.26527043    -0.12855391     0              0.090206931   -0.099225466  
   1877000   0.25474146    -0.12776849     0              0.082309416    0.053490442  
   1877500   0.26175837    -0.12920364     0              0.086660911   -0.055736037  
   1878000   0.26068785    -0.13145694     0              0.083524782    0.14998794   
   1878500   0.25551632    -0.13051836     0              0.080198545    0.12743351   
   1879000   0.24979528    -0.13479447     0              0.071204467    0.19749703   
   1879500   0.25341351    -0.13419297     0              0.074789815    0.060198336  
   1880000   0.25081218    -0.13213074     0              0.074706809    0.14435528   
   1880500   0.25250294    -0.1296545      0              0.078577362    0.22893956   
   1881000   0.25470459    -0.13449452     0              0.075552985   -0.1212521    
   1881500   0.25566675    -0.13712407     0              0.073716906    0.048666774  
   1882000   0.24316209    -0.13624588     0              0.064282855   -0.05978118   
   1882500   0.25214219    -0.13501307     0              0.072921296    0.058375085  
   1883000   0.23649735    -0.13498377     0              0.060048742    0.1076637    
   1883500   0.24411186    -0.13218571     0              0.069126274    0.27763114   
   1884000   0.24762814    -0.13394077     0              0.070270989    0.05579038   
   1884500   0.25174573    -0.13630448     0              0.071302937   -0.0057339472 
   1885000   0.2426231     -0.14528778     0              0.054796471    0.011456213  
   1885500   0.24427092    -0.13744019     0              0.06400296    -0.070559984  
   1886000   0.2524751     -0.13446803     0              0.073740883    0.052529677  
   1886500   0.25426517    -0.1369043      0              0.072780826   -0.044256156  
   1887000   0.25530711    -0.13103255     0              0.079511831    0.17061994   
   1887500   0.24673485    -0.14119273     0              0.062282363   -0.16214628   
   1888000   0.25844479    -0.14069435     0              0.072437588   -0.017652614  
   1888500   0.25159769    -0.1357363      0              0.071749025   -0.063443955  
   1889000   0.25636349    -0.13553778     0              0.075877766   -0.098684569  
   1889500   0.25656399    -0.12479788     0              0.086783018    0.027345534  
   1890000   0.2504435     -0.12798537     0              0.078548136    0.062139722  
   1890500   0.25830429    -0.12896692     0              0.08404915    -0.063933963  
   1891000   0.26257185    -0.12572779     0              0.090807618    0.017742684  
   1891500   0.24788007    -0.12717792     0              0.077241603   -0.036505552  
   1892000   0.23998031    -0.12666768     0              0.071237135   -0.027046815  
   1892500   0.2340326     -0.12594441     0              0.067055504    0.050068689  
   1893000   0.23143982    -0.12415703     0              0.066704697    0.033752676  
   1893500   0.23044995    -0.13034439     0              0.059701018    0.076127497  
   1894000   0.22968247    -0.13044687     0              0.058965615    0.013153575  
   1894500   0.23215919    -0.13167127     0              0.059783691   -0.10612218   
   1895000   0.22328792    -0.13264985     0              0.051489231   -0.03392508   
   1895500   0.261301      -0.12425806     0              0.09122931     0.028570221  
   1896000   0.25043684    -0.12849754     0              0.078030475   -0.03885292   
   1896500   0.2602483     -0.12495794     0              0.089661292   -0.072650463  
   1897000   0.25910977    -0.11894015     0              0.094740179    0.19881545   
   1897500   0.25055106    -0.11948264     0              0.087139561    0.020395074  
   1898000   0.25529497    -0.11805092     0              0.092483447    0.095743874  
   1898500   0.24531615    -0.12235059     0              0.079954542    0.32075976   
   1899000   0.24403944    -0.11353017     0              0.087722098    0.10026546   
   1899500   0.2345455     -0.11825045     0              0.075172432    0.08298547   
   1900000   0.22364251    -0.12086662     0              0.063564882   -0.071568289  
   1900500   0.23107162    -0.12907508     0              0.061483001    0.070069339  
   1901000   0.22166073    -0.12981682     0              0.052980369    0.071559128  
   1901500   0.21877434    -0.12965622     0              0.050760649   -0.082730562  
   1902000   0.22127039    -0.13762077     0              0.044854518    0.051367276  
   1902500   0.22616537    -0.1351934      0              0.051318634   -0.010232512  
   1903000   0.23692661    -0.14212441     0              0.053262107   -0.0096602352 
   1903500   0.24390091    -0.13249493     0              0.068643091    0.06027262   
   1904000   0.25035139    -0.13237246     0              0.074085087   -0.08066391   
   1904500   0.26545573    -0.13071727     0              0.088196382   -0.012829035  
   1905000   0.26128148    -0.13046408     0              0.085007195   -0.063485324  
   1905500   0.25953166    -0.13356556     0              0.080462681    0.094843114  
   1906000   0.26666553    -0.1356594      0              0.084251943    0.023119888  
   1906500   0.27260337    -0.12777937     0              0.09702874     0.035462091  
   1907000   0.250986      -0.13067324     0              0.076307648    0.10143554   
   1907500   0.25026272    -0.13854435     0              0.067840074   -0.11655608   
   1908000   0.27810674    -0.12507723     0              0.10426935     0.010501506  
   1908500   0.27130485    -0.12543692     0              0.098300333    0.2143363    
   1909000   0.27296734    -0.13054034     0              0.094567931   -0.27052311   
   1909500   0.2940769     -0.12410202     0              0.11841468     0.17470844   
   1910000   0.27342113    -0.12481472     0              0.10066777     0.3832107    
   1910500   0.26203204    -0.12847361     0              0.087616625    0.29516756   
   1911000   0.26638955    -0.12523013     0              0.094453615    0.38013959   
   1911500   0.25761029    -0.13112758     0              0.081316167   -0.21116707   
   1912000   0.24466678    -0.12898422     0              0.072785391   -0.4003742    
   1912500   0.24242588    -0.12585099     0              0.074070614   -0.03606723   
   1913000   0.24785392    -0.13162576     0              0.072772197   -0.12396938   
   1913500   0.24077896    -0.12669337     0              0.071870072   -0.22718038   
   1914000   0.24499902    -0.13486188     0              0.067181722    0.34624074   
   1914500   0.23226021    -0.13252904     0              0.059009232   -0.23845272   
   1915000   0.255854      -0.1284087      0              0.082586696    0.0090672449 
   1915500   0.2498824     -0.13237058     0              0.0737002     -0.11783348   
   1916000   0.23844823    -0.13283847     0              0.063802881    0.19837633   
   1916500   0.23284174    -0.12864993     0              0.063367918    0.2572907    
   1917000   0.24137179    -0.13134033     0              0.067712      -0.03277414   
   1917500   0.2319177     -0.13359563     0              0.057660188    0.33472575   
   1918000   0.22158256    -0.1355994      0              0.047133326   -0.075784271  
   1918500   0.22823293    -0.13882716     0              0.049389933   -0.50225866   
   1919000   0.23089034    -0.14120404     0              0.049204538    0.025520818  
   1919500   0.23812704    -0.13921162     0              0.057164856    0.09412055   
   1920000   0.23713968    -0.1364718      0              0.059090428    0.37190353   
   1920500   0.24074028    -0.14014285     0              0.058388686    0.68539062   
   1921000   0.23626089    -0.14084873     0              0.053988784   -0.27746834   
   1921500   0.23184331    -0.13396981     0              0.05722465     0.0042791572 
   1922000   0.23482081    -0.13329227     0              0.060357657   -0.18913016   
   1922500   0.2460904     -0.13679018     0              0.066153447   -0.32415536   
   1923000   0.24197388    -0.12931659     0              0.070232267    0.54395035   
   1923500   0.24865801    -0.12986478     0              0.075196289    0.48894409   
   1924000   0.25047355    -0.13062374     0              0.075934549   -0.083246141  
   1924500   0.26205978    -0.12771085     0              0.08840226     0.038531161  
   1925000   0.26287642    -0.12866329     0              0.088123285    0.12034674   
   1925500   0.24834145    -0.13072668     0              0.074073325    0.30997094   
   1926000   0.25416005    -0.12444277     0              0.085155657    0.0999752    
   1926500   0.2468785     -0.12979579     0              0.073797763   -0.27265803   
   1927000   0.24046911    -0.12695254     0              0.071355367   -0.22654608   
   1927500   0.25634337    -0.12272625     0              0.088672702    0.041875017  
   1928000   0.25615098    -0.12911232     0              0.082127981   -0.096751198  
   1928500   0.26029276    -0.13230639     0              0.082349511   -0.032992943  
   1929000   0.26203713    -0.1239148      0              0.092179639    0.023294244  
   1929500   0.26037183    -0.12442772     0              0.09029339     0.13559978   
   1930000   0.26081626    -0.12547543     0              0.089612191    0.31019219   
   1930500   0.27193394    -0.12318106     0              0.10107499    -0.16820771   
   1931000   0.27133933    -0.11944439     0              0.1043213      0.17654289   
   1931500   0.27479203    -0.12696246     0              0.099650568   -0.21157774   
   1932000   0.2600057     -0.12983533     0              0.084583847    0.0010499102 
   1932500   0.25667046    -0.13166397     0              0.080004726   -0.03282018   
   1933000   0.25037067    -0.13139727     0              0.075076175    0.13431982   
   1933500   0.24982766    -0.12724426     0              0.078781381    0.005844163  
   1934000   0.24075363    -0.12556133     0              0.072981225   -0.087719047  
   1934500   0.23876093    -0.13133384     0              0.065565388    0.19490845   
   1935000   0.24312825    -0.13463191     0              0.065868918    0.08613334   
   1935500   0.23124743    -0.13387305     0              0.056830008    0.25546158   
   1936000   0.23287287    -0.13671813     0              0.055325383    0.15440502   
   1936500   0.24259264    -0.12998898     0              0.070070154    0.083169154  
   1937000   0.25130713    -0.13595875     0              0.071286971   -0.25555923   
   1937500   0.25344412    -0.1416016      0              0.067406432    0.09815761   
   1938000   0.24984392    -0.13987909     0              0.066159963    0.10217326   
   1938500   0.25759025    -0.1335045      0              0.078922728    0.086714756  
   1939000   0.24515843    -0.1319632      0              0.070211857   -0.06684576   
   1939500   0.25139437    -0.1324992      0              0.074818463    0.02610945   
   1940000   0.25340854    -0.13121547     0              0.077763218    0.044251862  
   1940500   0.24830879    -0.1379422      0              0.066830867    0.0043706309 
   1941000   0.24775413    -0.13661027     0              0.067705384    0.35834874   
   1941500   0.24548932    -0.12828578     0              0.074162162    0.11561716   
   1942000   0.24905851    -0.1276691      0              0.077722241   -0.24945717   
   1942500   0.24538921    -0.12879432     0              0.07357106    -0.10302694   
   1943000   0.24261977    -0.12948053     0              0.070600969   -0.18269068   
   1943500   0.23352611    -0.1261598      0              0.066422429   -0.060235364  
   1944000   0.23888867    -0.12957196     0              0.067432615    0.12365433   
   1944500   0.22427121    -0.1259326      0              0.059017371   -0.12765215   
   1945000   0.22954586    -0.13280479     0              0.056495029   -0.021311761  
   1945500   0.23197861    -0.13236558     0              0.058940467    0.21027779   
   1946000   0.23119518    -0.13557296     0              0.055087014    0.049835332  
   1946500   0.2138195     -0.13046042     0              0.045870336    0.25319893   
   1947000   0.22511021    -0.13326402     0              0.05237786     0.06021528   
   1947500   0.21845716    -0.13213376     0              0.048021534   -0.13252769   
   1948000   0.21595894    -0.13608136     0              0.042013724   -0.14188963   
   1948500   0.21303988    -0.13499209     0              0.040695738    0.078114222  
   1949000   0.22259709    -0.14172288     0              0.041846493    0.0077188706 
   1949500   0.23534662    -0.13820306     0              0.055880482    0.24844599   
   1950000   0.23661695    -0.13633484     0              0.05879631    -0.28076671   
   1950500   0.23502757    -0.13846072     0              0.055359711    0.25051558   
   1951000   0.2331336     -0.14228916     0              0.049969376    0.065072208  
   1951500   0.24409117    -0.14498863     0              0.056306295    0.14117038   
   1952000   0.24544797    -0.13933986     0              0.063073975   -0.0024930318 
   1952500   0.24293054    -0.14526188     0              0.055075906   -0.1676873    
   1953000   0.24628052    -0.13892644     0              0.064173976    0.218882     
   1953500   0.23794797    -0.1333272      0              0.062901602   -0.11853162   
   1954000   0.24991694    -0.13515359     0              0.07094568    -0.10267171   
   1954500   0.24662067    -0.13544244     0              0.067938484    0.1517831    
   1955000   0.240938      -0.13574244     0              0.062952154    0.10592738   
   1955500   0.23497157    -0.12994813     0              0.063826124    0.20567673   
   1956000   0.22663399    -0.13855056     0              0.048347931   -0.22174401   
   1956500   0.22890141    -0.13958055     0              0.049187815   -0.0067741729 
   1957000   0.22136214    -0.13787676     0              0.044674185    0.0038319837 
   1957500   0.23463448    -0.13011883     0              0.063377437   -0.20801365   
   1958000   0.23205843    -0.13668128     0              0.05469059     0.035163648  
   1958500   0.23106195    -0.13756359     0              0.052986511    0.1949571    
   1959000   0.23743326    -0.13431639     0              0.061487938   -0.12689242   
   1959500   0.23581231    -0.12933299     0              0.065134593    0.31744868   
   1960000   0.23669877    -0.13300845     0              0.062190169   -0.10692648   
   1960500   0.24782701    -0.13135733     0              0.073018433    0.11011782   
   1961000   0.25433126    -0.12908296     0              0.080656669    0.14224801   
   1961500   0.26244041    -0.13436171     0              0.082065298    0.13430649   
   1962000   0.24839651    -0.13465965     0              0.070185763   -0.01680198   
   1962500   0.24966584    -0.13338353     0              0.072508659    0.15387922   
   1963000   0.25334603    -0.12420697     0              0.084720173   -0.031060672  
   1963500   0.24825593    -0.1258018      0              0.078927675    0.0049790128 
   1964000   0.25125255    -0.12260992     0              0.084590783    0.069488093  
   1964500   0.24971787    -0.12246029     0              0.083474804   -0.066472119  
   1965000   0.24611384    -0.12764926     0              0.075313704    0.18766272   
   1965500   0.24078262    -0.13290009     0              0.065666373    0.036343898  
   1966000   0.23543967    -0.13041373     0              0.063746551    0.0758683    
   1966500   0.24073195    -0.13568617     0              0.062838507   -0.2641539    
   1967000   0.24507709    -0.13448518     0              0.067622802   -0.14978624   
   1967500   0.23783741    -0.1336331      0              0.062504525    0.10182441   
   1968000   0.25570396    -0.13313679     0              0.07773487     0.2012773    
   1968500   0.26714421    -0.1322114      0              0.088094704   -0.055351347  
   1969000   0.27773106    -0.12482291     0              0.10421385    -0.16601214   
   1969500   0.2710735     -0.11937019     0              0.10417628     0.18328126   
   1970000   0.27155061    -0.12743955     0              0.096500377    0.046253542  
   1970500   0.2761583     -0.12796664     0              0.099773119    0.16377868   
   1971000   0.26761332    -0.1341114      0              0.086581559   -0.0090147996 
   1971500   0.25450976    -0.13498394     0              0.074902898    0.32049976   
   1972000   0.26078515    -0.1328731      0              0.082188866   -0.17016557   
   1972500   0.26320478    -0.13061562     0              0.086441742   -0.0096491514 
   1973000   0.25108564    -0.1292383      0              0.077824751   -0.25113415   
   1973500   0.2565438     -0.13166064     0              0.079903598    0.056608837  
   1974000   0.25047966    -0.12410143     0              0.082461898    0.15895899   
   1974500   0.24621338    -0.13220175     0              0.070843293    0.26651398   
   1975000   0.25942684    -0.12887109     0              0.085070721    0.20715045   
   1975500   0.29123909    -0.12486258     0              0.11531387     0.15288882   
   1976000   0.30625957    -0.11195204     0              0.14061136     0.193586     
   1976500   0.30147928    -0.11535227     0              0.13326897    -0.18356707   
   1977000   0.30776751    -0.10757559     0              0.14623137    -0.19276057   
   1977500   0.2966326     -0.11442075     0              0.13020357     0.17153583   
   1978000   0.28100344    -0.11766569     0              0.11406971     0.17857789   
   1978500   0.28802201    -0.11892645     0              0.11859696     0.013481702  
   1979000   0.28116869    -0.1186726      0              0.11319908     0.085948485  
   1979500   0.2783042     -0.1065637      0              0.12294572     0.011508213  
   1980000   0.28447317    -0.11065917     0              0.12393762     0.12557587   
   1980500   0.28297548    -0.09610442     0              0.13725726     0.18744006   
   1981000   0.30321505    -0.11076855     0              0.13928412     0.30783443   
   1981500   0.28574463    -0.11164787     0              0.12399745    -0.030016117  
   1982000   0.27922473    -0.10571776     0              0.12455079     0.11004178   
   1982500   0.26330757    -0.10758002     0              0.10956212     0.12658903   
   1983000   0.27402689    -0.10884354     0              0.11713851    -0.036228677  
   1983500   0.26405365    -0.11735583     0              0.10040157     0.17935231   
   1984000   0.26396587    -0.11544107     0              0.10224394    -0.10212364   
   1984500   0.26728882    -0.11604867     0              0.10437668     0.0017173465 
   1985000   0.25299779    -0.11013065     0              0.098509298    0.051293412  
   1985500   0.26768225    -0.11401746     0              0.10673234     0.045497848  
   1986000   0.24815042    -0.10662199     0              0.098020481   -0.12498871   
   1986500   0.25503016    -0.1118811      0              0.098434889   -0.036051896  
   1987000   0.25632903    -0.11612223     0              0.095264898   -0.29302551   
   1987500   0.25709598    -0.11875088     0              0.09326873     0.14499538   
   1988000   0.23890225    -0.12079866     0              0.076217107    0.062243912  
   1988500   0.23816054    -0.12259427     0              0.073809828   -0.035696034  
   1989000   0.24676572    -0.11794282     0              0.085557725    0.13192371   
   1989500   0.25188477    -0.1152309      0              0.092491182    0.16683636   
   1990000   0.25216949    -0.11940237     0              0.088554517    0.21211192   
   1990500   0.24341534    -0.11575512     0              0.084982464   -0.046057931  
   1991000   0.23979438    -0.11744689     0              0.080304595   -0.068377005  
   1991500   0.23964766    -0.11427217     0              0.083358319   -0.077485379  
   1992000   0.25136758    -0.11949547     0              0.087800102    0.36221367   
   1992500   0.25208462    -0.12528204     0              0.082604853   -0.018847006  
   1993000   0.27478549    -0.12063173     0              0.10597591    -0.02515258   
   1993500   0.2628835     -0.11303772     0              0.10375469     0.10938968   
   1994000   0.26530047    -0.11927703     0              0.099508584    0.027807014  
   1994500   0.26272537    -0.1221129      0              0.094549102   -0.13552497   
   1995000   0.26744714    -0.12258188     0              0.097974029    0.1065486    
   1995500   0.26076316    -0.12453948     0              0.090504344    0.38871356   
   1996000   0.26119204    -0.12018394     0              0.095213567   -0.020538135  
   1996500   0.27944155    -0.11839928     0              0.11204808    -0.10544601   
   1997000   0.27408638    -0.1167305      0              0.1093006     -0.018031473  
   1997500   0.26056844    -0.12084434     0              0.094038902    0.049548661  
   1998000   0.25616816    -0.1214572      0              0.089797267    0.01871495   
   1998500   0.26758526    -0.11833948     0              0.10233034     0.26129984   
   1999000   0.25859798    -0.11961019     0              0.093648083   -0.00076263004
   1999500   0.25144565    -0.11484653     0              0.092513421    0.12292247   
   2000000   0.24346703    -0.11550455     0              0.085275662    0.12768194   
   2000001   0.24347099    -0.11569167     0              0.085091816    0.039788611  
Loop time of 450.382 on 4 procs for 1000000 steps with 1520 atoms

Performance: 191837.062 tau/day, 2220.336 timesteps/s, 3.375 Matom-step/s
91.4% CPU use with 4 MPI tasks x 1 OpenMP threads

MPI task timing breakdown:
Section |  min time  |  avg time  |  max time  |%varavg| %total
---------------------------------------------------------------
Pair    | 61.542     | 66.505     | 72.092     |  61.0 | 14.77
Bond    | 0.18385    | 0.20083    | 0.21415    |   3.0 |  0.04
Neigh   | 11.894     | 11.896     | 11.899     |   0.1 |  2.64
Comm    | 53.205     | 58.827     | 63.849     |  65.6 | 13.06
Output  | 1.7172     | 1.7619     | 1.8058     |   2.5 |  0.39
Modify  | 298.25     | 298.81     | 299.27     |   2.3 | 66.35
Other   |            | 12.38      |            |       |  2.75

Nlocal:            380 ave         403 max         358 min
Histogram: 1 0 0 0 1 1 0 0 0 1
Nghost:         976.75 ave        1007 max         927 min
Histogram: 1 0 0 0 0 1 0 0 0 2
Neighs:              0 ave           0 max           0 min
Histogram: 4 0 0 0 0 0 0 0 0 0

Total # of neighbors = 0
Ave neighs/atom = 0
Ave special neighs/atom = 2.0657895
Neighbor list builds = 5673
Dangerous builds = 0

# Write data for deformation

write_data data.hydrogel
System init for write_data ...
WARNING: Using a manybody potential with bonds/angles/dihedrals and special_bond exclusions (src/pair.cpp:243)
Hybrid pair style last /omp style sw/omp
Last active /omp style is pair_style sw/omp
WARNING: More than one fix rigid command (src/RIGID/fix_rigid_small.cpp:529)
WARNING: More than one fix rigid command (src/RIGID/fix_rigid_small.cpp:529)
WARNING: One or more atoms are time integrated more than once (src/modify.cpp:296)
Total wall time: 0:14:56
