LAMMPS (29 Aug 2024)
OMP_NUM_THREADS environment is not set. Defaulting to 1 thread. (src/comm.cpp:98)
  using 1 OpenMP thread(s) per MPI task
package omp 0
using multi-threaded neighbor list subroutines
# Input Script of lammps for assembly simulation of polimeric network.

# Fco. Vazquez and Felipe Benavides

# Initialization
units lj
dimension 3
boundary p p p

# Styles of atoms and that stuff
atom_style bond
bond_style zero nocoeff
#pair_style hybrid/overlay/omp zero 0.0 lj/cut/omp 1.12 table/omp linear 5000000 threebody/table
pair_style hybrid/overlay/omp zero 0.0 lj/cut/omp 1.12 sw/omp threebody off threebody/table
newton on

# Create simulaiton box
region simulation_box block -$L $L -$L $L -$L $L
region simulation_box block -6.932675 $L -$L $L -$L $L
region simulation_box block -6.932675 6.932675 -$L $L -$L $L
region simulation_box block -6.932675 6.932675 -6.932675 $L -$L $L
region simulation_box block -6.932675 6.932675 -6.932675 6.932675 -$L $L
region simulation_box block -6.932675 6.932675 -6.932675 6.932675 -6.932675 $L
region simulation_box block -6.932675 6.932675 -6.932675 6.932675 -6.932675 6.932675
# N-atom-types region-ID keyword value Is necesesary the extra/special/per/atom (# of special neighbors per atom)
create_box 4 simulation_box     bond/types 1     extra/bond/per/atom 4     extra/special/per/atom 5
Created orthogonal box = (-6.932675 -6.932675 -6.932675) to (6.932675 6.932675 6.932675)
  2 by 1 by 2 MPI processor grid

# Atom types
mass 1 1.0      # CL
mass 2 1.0      # MO
mass 3 0.5      # PA
mass 4 0.5      # PB

# Coefficients
include potential.in
# Script with the pair-wise interaction and bonds between particles

bond_coeff * nocoeff
pair_coeff 1 3 zero
pair_coeff 1 4 zero
pair_coeff 2 3 zero
pair_coeff 2 4 zero
pair_coeff 3 3 zero
pair_coeff 1 1 lj/cut/omp 1.0 1.0 1.12
pair_coeff 2 2 lj/cut/omp 1.0 1.0 1.12
pair_coeff 1 2 lj/cut/omp 1.0 1.0 1.12
pair_coeff 3 4 sw/omp sysFiles/patchyPot.sw NULL NULL PA PB
  disabling sw potential three-body terms
pair_coeff 4 4 sw/omp sysFiles/patchyPot.sw NULL NULL PA PB
pair_coeff * * threebody/table swapMech.3b NULL NULL PA PB
pair_modify pair lj/cut/omp shift yes


# Molecules
include molecules.in
# Script with all molecule information and create groups for computes

# Read the molecule information
molecule CL sysFiles/molecule.patchy.CL
Read molecule template CL:
# Patchy Cross-Linker
  1 molecules
  0 fragments
  5 atoms with max type 3
  4 bonds with max type 1
  0 angles with max type 0
  0 dihedrals with max type 0
  0 impropers with max type 0
molecule MO sysFiles/molecule.patchy.MO
Read molecule template MO:
# Patchy Monomer
  1 molecules
  0 fragments
  3 atoms with max type 4
  2 bonds with max type 1
  0 angles with max type 0
  0 dihedrals with max type 0
  0 impropers with max type 0

# Introduce the molecules
# ID style args keyword arg
region spawn_box block -$L $L -$L $L -$L $L
region spawn_box block -6.932675 $L -$L $L -$L $L
region spawn_box block -6.932675 6.932675 -$L $L -$L $L
region spawn_box block -6.932675 6.932675 -6.932675 $L -$L $L
region spawn_box block -6.932675 6.932675 -6.932675 6.932675 -$L $L
region spawn_box block -6.932675 6.932675 -6.932675 6.932675 -6.932675 $L
region spawn_box block -6.932675 6.932675 -6.932675 6.932675 -6.932675 6.932675

# create_atoms type style args keyword values
# style_random: N seed region-ID
# keyword_mol: template-ID seed
# keyword_overlap: overlap value = only insert if at least this distance from all existing atoms
# keyword_maxtry: maxtry value = number of attempts to insert a particle before failure
create_atoms 0 random ${NCL} ${seed1} spawn_box mol CL ${seed1} overlap 1.0 maxtry 5000 #xls
create_atoms 0 random 10 ${seed1} spawn_box mol CL ${seed1} overlap 1.0 maxtry 5000 
create_atoms 0 random 10 1234 spawn_box mol CL ${seed1} overlap 1.0 maxtry 5000 
create_atoms 0 random 10 1234 spawn_box mol CL 1234 overlap 1.0 maxtry 5000 
Created 50 atoms
  using lattice units in orthogonal box = (-6.932675 -6.932675 -6.932675) to (6.932675 6.932675 6.932675)
  create_atoms CPU = 0.003 seconds
create_atoms 0 random ${NMO} ${seed2} spawn_box mol MO ${seed2} overlap 1.0 maxtry 5000 #mon
create_atoms 0 random 490 ${seed2} spawn_box mol MO ${seed2} overlap 1.0 maxtry 5000 
create_atoms 0 random 490 4321 spawn_box mol MO ${seed2} overlap 1.0 maxtry 5000 
create_atoms 0 random 490 4321 spawn_box mol MO 4321 overlap 1.0 maxtry 5000 
Created 1470 atoms
  using lattice units in orthogonal box = (-6.932675 -6.932675 -6.932675) to (6.932675 6.932675 6.932675)
  create_atoms CPU = 0.079 seconds

# Create patchy particles
group CrossLinker type 1 3
50 atoms in group CrossLinker
group Monomer type 2 4
1470 atoms in group Monomer
group Patches type 3 4
1020 atoms in group Patches
group CL type 1
10 atoms in group CL
group MO type 2
490 atoms in group MO
group PA type 3
40 atoms in group PA
group CM type 1 2
500 atoms in group CM

# Fix rigid bodies
fix frCL CrossLinker rigid/small/omp molecule
  create bodies CPU = 0.000 seconds
  10 rigid bodies with 50 atoms
  0.46400431 = max distance from body owner to body atom
fix frMO Monomer rigid/small/omp molecule
  create bodies CPU = 0.000 seconds
  490 rigid bodies with 1470 atoms
  0.5 = max distance from body owner to body atom

# Neighbor list
neighbor 1.12 bin # extra-distance style
neigh_modify exclude molecule/intra CrossLinker
neigh_modify exclude molecule/intra Monomer

# COMPUTES

# Compute global kinetic and potential energy and temperature
compute t all temp
compute tCM CM temp
compute ep all pe
compute ek all ke
compute ekCM CM ke
compute stressVirial all pressure t ke pair
compute wcaPair all pair lj/cut/omp epair
compute patchPair all pair sw/omp epair
compute swapPair all pair threebody/table epair
compute disc CM displace/atom
compute daux CM chunk/atom type pbc yes
compute dis CM reduce/chunk daux sum c_disc[4]
#compute disM CM reduce/chunk daux sum c_disc[4]

# Energy minimization
minimize 1.0e-4 1.0e-6 1000 10000
WARNING: Using a manybody potential with bonds/angles/dihedrals and special_bond exclusions (src/pair.cpp:243)
Hybrid pair style last /omp style sw/omp
Last active /omp style is pair_style sw/omp
WARNING: More than one fix rigid command (src/RIGID/fix_rigid_small.cpp:529)
WARNING: More than one fix rigid command (src/RIGID/fix_rigid_small.cpp:529)
Neighbor list info ...
  update: every = 1 steps, delay = 0 steps, check = yes
  max neighbors/atom: 2000, page size: 100000
  master list distance cutoff = 2.24
  ghost atom cutoff = 2.24
  binsize = 1.12, bins = 13 13 13
  6 neighbor lists, perpetual/occasional/extra = 6 0 0
  (1) pair zero, perpetual, skip from (5)
      attributes: half, newton on, omp
      pair build: skip/omp
      stencil: none
      bin: none
  (2) pair lj/cut/omp, perpetual, skip from (5)
      attributes: half, newton on, omp
      pair build: skip/omp
      stencil: none
      bin: none
  (3) pair sw/omp, perpetual, skip trim from (5)
      attributes: half, newton on, omp, cut 1.87
      pair build: skip/trim/omp
      stencil: none
      bin: none
  (4) pair threebody/table, perpetual, skip from (6)
      attributes: full, newton on, omp, cut 1.7200000000000002
      pair build: skip/omp
      stencil: none
      bin: none
  (5) neighbor class addition, perpetual
      attributes: half, newton on, omp
      pair build: half/bin/newton/omp
      stencil: half/bin/3d
      bin: standard
  (6) neighbor class addition, perpetual
      attributes: full, newton on, omp, cut 1.7200000000000002
      pair build: full/bin/omp
      stencil: full/bin/3d
      bin: standard
WARNING: Cannot count rigid body degrees-of-freedom before bodies are fully initialized (src/RIGID/fix_rigid_small.cpp:1129)
WARNING: Cannot count rigid body degrees-of-freedom before bodies are fully initialized (src/RIGID/fix_rigid_small.cpp:1129)
WARNING: Cannot count rigid body degrees-of-freedom before bodies are fully initialized (src/RIGID/fix_rigid_small.cpp:1129)
WARNING: Cannot count rigid body degrees-of-freedom before bodies are fully initialized (src/RIGID/fix_rigid_small.cpp:1129)
WARNING: Cannot count rigid body degrees-of-freedom before bodies are fully initialized (src/RIGID/fix_rigid_small.cpp:1129)
WARNING: Cannot count rigid body degrees-of-freedom before bodies are fully initialized (src/RIGID/fix_rigid_small.cpp:1129)
Per MPI rank memory allocation (min/avg/max) = 20.01 | 20.01 | 20.02 Mbytes
   Step          Temp          E_pair         E_mol          TotEng         Press     
         0   0              0.00067516832  0              0.00067516832  0.0066653253 
         1   0              0.00067516832  0              0.00067516832  0.0066653253 
Loop time of 0.000189092 on 4 procs for 1 steps with 1520 atoms

97.6% CPU use with 4 MPI tasks x 1 OpenMP threads

Minimization stats:
  Stopping criterion = quadratic factors are zero
  Energy initial, next-to-last, final = 
    0.000675168319707251 0.000675168319707251 0.000675168319707251
  Force two-norm initial, final = 21.154727 21.154727
  Force max component initial, final = 6.3589627 6.3589627
  Final line search alpha, max atom move = 0.015725835 0.1
  Iterations, force evaluations = 1 2

MPI task timing breakdown:
Section |  min time  |  avg time  |  max time  |%varavg| %total
---------------------------------------------------------------
Pair    | 3.4143e-05 | 4.03e-05   | 5.1256e-05 |   0.0 | 21.31
Bond    | 1.9e-07    | 2.4275e-07 | 3.7e-07    |   0.0 |  0.13
Neigh   | 0          | 0          | 0          |   0.0 |  0.00
Comm    | 8.9737e-05 | 0.00010148 | 0.00010916 |   0.0 | 53.67
Output  | 0          | 0          | 0          |   0.0 |  0.00
Modify  | 4.207e-06  | 5.1345e-06 | 6.813e-06  |   0.0 |  2.72
Other   |            | 4.193e-05  |            |       | 22.18

Nlocal:            380 ave         382 max         378 min
Histogram: 1 0 0 0 0 2 0 0 0 1
Nghost:        1000.75 ave        1005 max         993 min
Histogram: 1 0 0 0 0 0 0 1 1 1
Neighs:              0 ave           0 max           0 min
Histogram: 4 0 0 0 0 0 0 0 0 0

Total # of neighbors = 0
Ave neighs/atom = 0
Ave special neighs/atom = 2.0657895
Neighbor list builds = 0
Dangerous builds = 0

# DUMPS and FIXES

thermo ${sstep}
thermo 500

# Save atom positions
dump dumpID all atom ${sstep} info/dumps/assembly/patchyParticles_assembly.*.dumpf
dump dumpID all atom 500 info/dumps/assembly/patchyParticles_assembly.*.dumpf
dump_modify dumpID pbc yes # remap atoms via periodic boundary conditions

# Save global energies and temperature
group Energy empty
0 atoms in group Energy
fix fixEng Energy ave/time 1 10 10 c_t c_ep c_ek c_tCM file info/energy_assembly.fixf

group PairE1 empty
0 atoms in group PairE1
group PairE2 empty
0 atoms in group PairE2
group PairE3 empty
0 atoms in group PairE3

fix fixwca PairE1 ave/time 1 10 10 c_wcaPair file info/wcaPair_assembly.fixf
fix fixpatch PairE2 ave/time 1 10 10 c_patchPair file info/patchPair_assembly.fixf
fix fixswap PairE3 ave/time 1 10 10 c_swapPair file info/swapPair_assembly.fixf

# Save Atom displacement
group Displ empty
0 atoms in group Displ
fix fixDispl Displ ave/time 1 ${Nave} ${Nave} c_dis[1] c_dis[2] c_dis[3] c_dis[4] file info/cmdisplacement_assembly.fixf
fix fixDispl Displ ave/time 1 100000 ${Nave} c_dis[1] c_dis[2] c_dis[3] c_dis[4] file info/cmdisplacement_assembly.fixf
fix fixDispl Displ ave/time 1 100000 100000 c_dis[1] c_dis[2] c_dis[3] c_dis[4] file info/cmdisplacement_assembly.fixf

# Save Stress tensor
group Stress empty
0 atoms in group Stress
fix fixStress5 Stress ave/time 1 ${Nave} ${Nave} c_stressVirial[*] file info/stressVirial_assembly.fixf
fix fixStress5 Stress ave/time 1 100000 ${Nave} c_stressVirial[*] file info/stressVirial_assembly.fixf
fix fixStress5 Stress ave/time 1 100000 100000 c_stressVirial[*] file info/stressVirial_assembly.fixf

# RUN SIMULATION

# Brownian Dynamics using Langevin Thermostat

# Set the time integrator
fix VelVerlet all nve/omp # Use Velocity Verlet integrator
timestep ${tstep}
timestep 0.001

# First elevate the temperature
fix ThermoLng all langevin 0.0 ${temp} ${damp} 12345 # Brownian Dynamics: langevin + nve
fix ThermoLng all langevin 0.0 0.05 ${damp} 12345 
fix ThermoLng all langevin 0.0 0.05 1 12345 
run 1000000
WARNING: Using a manybody potential with bonds/angles/dihedrals and special_bond exclusions (src/pair.cpp:243)
Hybrid pair style last /omp style sw/omp
Last active /omp style is pair_style sw/omp
WARNING: More than one fix rigid command (src/RIGID/fix_rigid_small.cpp:529)
WARNING: More than one fix rigid command (src/RIGID/fix_rigid_small.cpp:529)
WARNING: One or more atoms are time integrated more than once (src/modify.cpp:296)
WARNING: Computing temperature of portions of rigid bodies (src/RIGID/fix_rigid_small.cpp:1178)
WARNING: Computing temperature of portions of rigid bodies (src/RIGID/fix_rigid_small.cpp:1178)
Per MPI rank memory allocation (min/avg/max) = 20.32 | 20.33 | 20.33 Mbytes
   Step          Temp          E_pair         E_mol          TotEng         Press     
         1   0              0.00067516832  0              0.00067516832  0.021123967  
       500   0.00035952529  0              0              0.0002964901  -0.002371193  
      1000   0.00015858646  3.6216827e-07  0              0.00013114383 -0.0073469111 
      1500   9.9034291e-05  0              0              8.1670713e-05 -0.011984611  
      2000   9.1797e-05     0              0              7.5702329e-05  0.0095307797 
      2500   0.00010171469  0              0              8.3881164e-05  0.00066157764
      3000   0.00012179843  2.563808e-07   0              0.00010070002 -0.032853804  
      3500   0.00014387161  0              0              0.00011864675  0.020184223  
      4000   0.00017681409  0              0              0.00014581346  0.0017651131 
      4500   0.00019251553  0              0              0.00015876198  0.0061737857 
      5000   0.00021586579  0              0              0.00017801827  0.0040573602 
      5500   0.0002595638   7.028814e-08   0              0.00021412504 -0.023906076  
      6000   0.00027442865  0              0              0.00022631336 -0.025119729  
      6500   0.00028989197  0              0              0.00023906552 -0.0075973777 
      7000   0.00031462893  0              0              0.00025946537  0.0082170499 
      7500   0.00034601217  0              0              0.00028534622 -0.026382027  
      8000   0.00037245883  0              0              0.00030715601 -0.0039402865 
      8500   0.00042462783  1.3582799e-07  0              0.00035031411  0.010012875  
      9000   0.00043540613  0              0              0.00035906683  0.04157802   
      9500   0.00045013918  1.4088348e-06  0              0.00037262558  0.031776308  
     10000   0.00048729808  0              0              0.00040186062 -0.043390587  
     10500   0.00050907326  1.3394972e-08  0              0.00041983138  0.010169468  
     11000   0.00050785873  0              0              0.00041881639 -0.035558981  
     11500   0.00057005826  3.7716841e-07  0              0.00047048771  0.0015388774 
     12000   0.00057383823  3.3059284e-07  0              0.00047355837 -0.048060931  
     12500   0.00056424903 -2.3783373e-13  0              0.00046531984  0.023700006  
     13000   0.00058628242  6.9636778e-07  0              0.00048418651 -0.022337909  
     13500   0.00062030609  2.4905283e-06  0              0.000514039   -0.0077993853 
     14000   0.00065856418 -2.3158101e-08  0              0.00054307566  0.024149329  
     14500   0.00070253705 -8.2189253e-10  0              0.00057936115 -0.019264036  
     15000   0.00072207257  9.7395045e-07  0              0.00059644629 -0.01737003   
     15500   0.00072753479 -6.2859358e-32  0              0.00059997688  0.0021675968 
     16000   0.00071648838  6.2158357e-07  0              0.00059148881 -0.042027956  
     16500   0.00079107769  1.066293e-06   0              0.00065344517 -0.029526184  
     17000   0.00082494972 -1.0129119e-07  0              0.00068021086  0.012713949  
     17500   0.0012554014  -0.00039110465  0              0.00064418853  0.033637023  
     18000   0.0017520412  -0.0012951385   0              0.00014971917 -0.052379805  
     18500   0.0017868229  -0.0021407819   0             -0.00066724078  0.028855285  
     19000   0.0013267761  -0.0023467374   0             -0.0012525836  -0.015158226  
     19500   0.0016135244  -0.0034386235   0             -0.0021079967  -0.057571143  
     20000   0.0020718183  -0.004817091    0             -0.0031085224  -0.082180066  
     20500   0.0015809264  -0.0052551306   0             -0.0039513863   0.0049393512 
     21000   0.0013519056  -0.0056206482   0             -0.0045057708   0.0055180791 
     21500   0.0016988957  -0.0064858513   0             -0.0050848212   0.077538687  
     22000   0.001894184   -0.0078620347   0             -0.006299956    0.028852287  
     22500   0.0028000724  -0.010095427    0             -0.0077862887   0.039953988  
     23000   0.0025009423  -0.011245047    0             -0.009182592    0.076059523  
     23500   0.0033275697  -0.013734311    0             -0.010990161   -0.057798614  
     24000   0.0024837302  -0.014742943    0             -0.012694682   -0.0091045318 
     24500   0.0025993285  -0.016387195    0             -0.014243604    0.015033188  
     25000   0.0020995634  -0.01742529     0             -0.015693841    0.011413647  
     25500   0.0019779161  -0.018077508    0             -0.016446378   -0.062605312  
     26000   0.0027769354  -0.020185426    0             -0.017895368    0.085199875  
     26500   0.002284343   -0.021091825    0             -0.019207993   -0.018444118  
     27000   0.0017840441  -0.021638425    0             -0.020167175   -0.025261478  
     27500   0.0018754915  -0.022198178    0             -0.020651515   -0.038578626  
     28000   0.0028143955  -0.023732452    0             -0.021411502    0.0011797422 
     28500   0.0023032288  -0.025326532    0             -0.023427125    0.051232822  
     29000   0.0027760023  -0.027469048    0             -0.02517976    -0.023184979  
     29500   0.0025771301  -0.02842845     0             -0.026303166    0.03580016   
     30000   0.0026789258  -0.030004565    0             -0.027795332    0.064339717  
     30500   0.0033027603  -0.032683084    0             -0.029959394   -0.044442568  
     31000   0.002984049   -0.034153161    0             -0.031692302   -0.047364321  
     31500   0.0023282974  -0.034768329    0             -0.03284825     0.11265809   
     32000   0.0024938959  -0.036205946    0             -0.034149303   -0.027726053  
     32500   0.002191829   -0.036686609    0             -0.034879071    0.061263079  
     33000   0.0021043428  -0.037199726    0             -0.035464336   -0.015242152  
     33500   0.0034179123  -0.039465718    0             -0.036647064    0.0062793838 
     34000   0.0033170298  -0.040583972    0             -0.037848514    0.023800792  
     34500   0.0034257196  -0.042735137    0             -0.039910045    0.078278801  
     35000   0.0035401867  -0.044204793    0             -0.041285303   -0.072168467  
     35500   0.0046428409  -0.046081993    0             -0.042253177   -0.0091029426 
     36000   0.01599816    -0.046087139    0             -0.03289392     0.016650071  
     36500   0.0086268926  -0.049452775    0             -0.042338426   -0.037573556  
     37000   0.0052911309  -0.051168355    0             -0.046804912    0.068956574  
     37500   0.0035009778  -0.052296144    0             -0.049408989   -0.0035521696 
     38000   0.003429769   -0.054630387    0             -0.051801956    0.01081986   
     38500   0.012068258   -0.056627265    0             -0.046674922    0.0024975163 
     39000   0.0073977684  -0.059609639    0             -0.053508914    0.054705014  
     39500   0.020190848   -0.060888392    0             -0.044237584    0.010948261  
     40000   0.013440147   -0.061463895    0             -0.050380196   -0.1377975    
     40500   0.0091006425  -0.062829191    0             -0.055324155    0.029737046  
     41000   0.0091970498  -0.064752745    0             -0.057168204    0.0079441828 
     41500   0.0053614613  -0.065802322    0             -0.06138088    -0.034451546  
     42000   0.0040989616  -0.068081444    0             -0.064701149   -0.033573104  
     42500   0.0083964758  -0.068933184    0             -0.062008853    0.034601735  
     43000   0.0048893465  -0.069615305    0             -0.065583202    0.012279633  
     43500   0.004384634   -0.071583277    0             -0.067967396    0.13851414   
     44000   0.0042326421  -0.07293722     0             -0.069446682   -0.023622747  
     44500   0.0041958049  -0.074224559    0             -0.0707644     -0.030030021  
     45000   0.0036067169  -0.076405007    0             -0.073430652    0.088423629  
     45500   0.0034558412  -0.078025896    0             -0.075175964   -0.10443225   
     46000   0.0060891915  -0.076210935    0             -0.071189355    0.010466614  
     46500   0.004447756   -0.079006992    0             -0.075339056    0.024422785  
     47000   0.0042132477  -0.081237084    0             -0.077762541    0.036671844  
     47500   0.0040275536  -0.081441109    0             -0.078119702    0.056028167  
     48000   0.0040289681  -0.083460828    0             -0.080138255    0.019402005  
     48500   0.0078226977  -0.085629333    0             -0.07917818    -0.24977312   
     49000   0.0091956636  -0.084527458    0             -0.07694406     0.035447114  
     49500   0.016280179   -0.087030597    0             -0.073604804    0.047393927  
     50000   0.008458358   -0.088506509    0             -0.081531146   -0.041937637  
     50500   0.0068986503  -0.09067837     0             -0.084989253   -0.10377374   
     51000   0.0046855378  -0.092932117    0             -0.08906809    -0.065762014  
     51500   0.0070283218  -0.095144041    0             -0.089347987   -0.008024672  
     52000   0.025882218   -0.092229054    0             -0.070884738    0.030811339  
     52500   0.017116336   -0.096383581    0             -0.082268235   -0.046315852  
     53000   0.010338325   -0.09925977     0             -0.090734053   -0.02332269   
     53500   0.012257653   -0.10065913     0             -0.090550601   -0.080345908  
     54000   0.014572131   -0.10223214     0             -0.090214923   -0.1061785    
     54500   0.018520784   -0.10811785     0             -0.092844295   -0.037157499  
     55000   0.017128233   -0.10489795     0             -0.090772796   -0.0098896541 
     55500   0.023834102   -0.11080783     0             -0.091152536    0.028033227  
     56000   0.014956798   -0.10933337     0             -0.09699893    -0.057301787  
     56500   0.026434216   -0.11559133     0             -0.093791793    0.12549162   
     57000   0.029965015   -0.11525809     0             -0.090546808    0.053069802  
     57500   0.024113515   -0.11370314     0             -0.09381742     0.087731223  
     58000   0.012489682   -0.11781808     0             -0.1075182     -0.090917593  
     58500   0.015963938   -0.11584499     0             -0.10267999    -0.056206977  
     59000   0.0095717702  -0.11810638     0             -0.11021281    -0.041191891  
     59500   0.0069621719  -0.12007514     0             -0.11433364     0.070443955  
     60000   0.020605789   -0.12000926     0             -0.10301626     0.084413318  
     60500   0.016110115   -0.12179361     0             -0.10850807     0.012797833  
     61000   0.031845471   -0.1175067      0             -0.091244667    0.042128902  
     61500   0.01754381    -0.12368298     0             -0.1092151      0.082060978  
     62000   0.020372889   -0.12297324     0             -0.10617231     0.048626805  
     62500   0.013479424   -0.12519908     0             -0.11408298     0.052147808  
     63000   0.048623652   -0.12890156     0             -0.088803043    0.049049824  
     63500   0.030663193   -0.12689019     0             -0.10160314     0.092325338  
     64000   0.01640889    -0.12935339     0             -0.11582146     0.033044714  
     64500   0.022661231   -0.13115966     0             -0.1124716      0.046329502  
     65000   0.05183143    -0.12730584     0             -0.084561963    0.08998619   
     65500   0.037676617   -0.13092357     0             -0.099852757    0.0266877    
     66000   0.067929216   -0.13174326     0             -0.075724005    0.084236029  
     66500   0.063891319   -0.13039148     0             -0.077702163    0.11671926   
     67000   0.079099364   -0.13139418     0             -0.066163224   -0.089485684  
     67500   0.042269351   -0.13255664     0             -0.097698334   -0.031197056  
     68000   0.039542965   -0.13341809     0             -0.10080815    -0.022092382  
     68500   0.078538048   -0.13824913     0             -0.073481075    0.085225663  
     69000   0.065363409   -0.13816191     0             -0.084258599    0.11818532   
     69500   0.035515289   -0.1361041      0             -0.10681567     0.053417371  
     70000   0.016117053   -0.13844283     0             -0.12515156    -0.0054631933 
     70500   0.024077928   -0.14256792     0             -0.12271155     0.063631284  
     71000   0.017251292   -0.14372823     0             -0.12950158    -0.014960261  
     71500   0.01022244    -0.14732031     0             -0.13889016     0.031207018  
     72000   0.025709798   -0.14485173     0             -0.1236496      0.0075466062 
     72500   0.01595106    -0.14892608     0             -0.1357717     -0.087087312  
     73000   0.018118499   -0.14762547     0             -0.13268367    -0.08017964   
     73500   0.0180715     -0.15274151     0             -0.13783847    -0.11219621   
     74000   0.02749755    -0.14815894     0             -0.1254825      0.1228724    
     74500   0.022388879   -0.1540571      0             -0.13559364     0.023632761  
     75000   0.02651426    -0.1526966      0             -0.13083106    -0.14687548   
     75500   0.032739801   -0.15664632     0             -0.12964675     0.063318695  
     76000   0.045619413   -0.1561803      0             -0.11855929     0.070605921  
     76500   0.040951185   -0.15656207     0             -0.12279082    -0.074120215  
     77000   0.036021384   -0.15790137     0             -0.12819558     0.0151249    
     77500   0.074953137   -0.15863898     0             -0.096827302   -0.16918594   
     78000   0.071564291   -0.15621011     0             -0.097193108   -0.037633764  
     78500   0.049545712   -0.15717384     0             -0.11631493    -0.004340938  
     79000   0.046933848   -0.16003566     0             -0.12133068    -0.12115824   
     79500   0.023144807   -0.16420522     0             -0.14511837     0.038511225  
     80000   0.011950559   -0.16285715     0             -0.15300187     0.043791311  
     80500   0.013004179   -0.16460526     0             -0.15388109     0.1353941    
     81000   0.028025072   -0.16851821     0             -0.14540675    -0.12948135   
     81500   0.027167159   -0.16748094     0             -0.14507697    -0.27138074   
     82000   0.057165397   -0.17009874     0             -0.12295609     0.59927424   
     82500   0.035196283   -0.16693446     0             -0.13790911     0.090015958  
     83000   0.027577044   -0.16720165     0             -0.14445966    -0.055544483  
     83500   0.038349507   -0.16709356     0             -0.13546783    -0.23210609   
     84000   0.056834846   -0.16560314     0             -0.11873309     0.047881354  
     84500   0.030236036   -0.17114481     0             -0.14621002    -0.024859922  
     85000   0.032618768   -0.17526011     0             -0.14836036     0.010465303  
     85500   0.068758726   -0.16816404     0             -0.11146071     0.1045587    
     86000   0.051413336   -0.17221849     0             -0.1298194     -0.1225728    
     86500   0.028581961   -0.17479422     0             -0.1512235     -0.055111043  
     87000   0.015446392   -0.17367985     0             -0.16094166    -0.011285297  
     87500   0.012217491   -0.17912371     0             -0.1690483      0.15231353   
     88000   0.016922947   -0.17747642     0             -0.16352055     0.1420962    
     88500   0.028768305   -0.18047256     0             -0.15674817     0.11170212   
     89000   0.05050311    -0.18368444     0             -0.14203598     0.068854836  
     89500   0.038793231   -0.18110576     0             -0.1491141      0.11589061   
     90000   0.025507005   -0.18333878     0             -0.16230389    -0.089333277  
     90500   0.014650606   -0.18908344     0             -0.17700151     0.0048668758 
     91000   0.022952768   -0.18888739     0             -0.16995891    -0.11608183   
     91500   0.014750634   -0.1881383      0             -0.17597388    -0.017935858  
     92000   0.024329368   -0.18580905     0             -0.16574533     0.028128416  
     92500   0.020007409   -0.19271068     0             -0.17621115     0.027614065  
     93000   0.044186      -0.19264503     0             -0.15620612    -0.13882866   
     93500   0.048398802   -0.18746966     0             -0.14755656     0.062797341  
     94000   0.027542595   -0.18992861     0             -0.16721503    -0.0023273756 
     94500   0.057076116   -0.19190728     0             -0.14483826     0.12356022   
     95000   0.037127189   -0.1889578      0             -0.15834008     0.15097431   
     95500   0.08939178    -0.18259565     0             -0.10887684     0.018845688  
     96000   0.070066649   -0.18862028     0             -0.13083834     0.095803199  
     96500   0.039130307   -0.19294721     0             -0.16067758     0.013274195  
     97000   0.047692647   -0.18944918     0             -0.15011844     0.13484798   
     97500   0.076684558   -0.18739241     0             -0.12415287    -0.030111249  
     98000   0.063956043   -0.19295107     0             -0.14020837    -0.10783409   
     98500   0.073844011   -0.1881487      0             -0.12725168    -0.10363586   
     99000   0.059769575   -0.18910899     0             -0.13981875     0.20449173   
     99500   0.081120699   -0.18839349     0             -0.12149559    -0.29078422   
    100000   0.081885274   -0.18787912     0             -0.1203507     -0.29101033   
    100500   0.055915542   -0.18564856     0             -0.13953663     0.055985059  
    101000   0.080672189   -0.1879508      0             -0.12142278    -0.10660107   
    101500   0.086732316   -0.18516155     0             -0.11363592    -0.04130469   
    102000   0.053410434   -0.18780304     0             -0.143757       0.0019808304 
    102500   0.052438864   -0.1865646      0             -0.14331979     0.097509431  
    103000   0.044315606   -0.18923615     0             -0.15269036    -0.015508644  
    103500   0.046172538   -0.18224918     0             -0.14417203     0.13704775   
    104000   0.028453442   -0.18951467     0             -0.16604994    -0.013523762  
    104500   0.021024935   -0.19135743     0             -0.17401877    -0.14675938   
    105000   0.033947823   -0.19279657     0             -0.16480079    -0.087480307  
    105500   0.057085876   -0.18842392     0             -0.14134685     0.050994287  
    106000   0.096547732   -0.18344252     0             -0.1038224     -0.034674933  
    106500   0.067934403   -0.18705597     0             -0.13103243    -0.26295214   
    107000   0.061095943   -0.18423646     0             -0.13385241     0.026460796  
    107500   0.073918502   -0.18381663     0             -0.12285818     0.17350934   
    108000   0.050383244   -0.18343947     0             -0.14188987     0.016650244  
    108500   0.063069815   -0.18627755     0             -0.1342657      0.13103167   
    109000   0.042023082   -0.1864844      0             -0.15182918    -0.15254789   
    109500   0.028406063   -0.18612737     0             -0.16270171    -0.077093256  
    110000   0.049480834   -0.18875167     0             -0.14794626     0.061894287  
    110500   0.062571688   -0.18440983     0             -0.13280877     0.13511623   
    111000   0.11076075    -0.18162147     0             -0.090280288    0.036320313  
    111500   0.062019939   -0.18032121     0             -0.12917516     0.19970123   
    112000   0.052635237   -0.1837032      0             -0.14029645     0.037767324  
    112500   0.078401942   -0.18153821     0             -0.1168824     -0.1045671    
    113000   0.044429771   -0.18810732     0             -0.15146738     0.16004211   
    113500   0.034533594   -0.18172177     0             -0.15324292     0.09801401   
    114000   0.040970168   -0.19222562     0             -0.15843871    -0.06207823   
    114500   0.070045184   -0.19552477     0             -0.13776053     0.18235975   
    115000   0.1155936     -0.18779603     0             -0.092469332    0.2025401    
    115500   0.11200406    -0.18088999     0             -0.088523483    0.16063398   
    116000   0.10399122    -0.17977019     0             -0.094011639   -0.039830543  
    116500   0.074950272   -0.18673603     0             -0.12492671     0.0065935439 
    117000   0.050543201   -0.188729       0             -0.14704749     0.022598869  
    117500   0.067026583   -0.1876575      0             -0.13238262     0.0031564835 
    118000   0.075914949   -0.18022157     0             -0.11761671     0.20518359   
    118500   0.053684226   -0.19241989     0             -0.14814806    -0.084864605  
    119000   0.04605757    -0.19159714     0             -0.1536148     -0.10170567   
    119500   0.035506913   -0.19015784     0             -0.16087631     0.035396397  
    120000   0.080746494   -0.19297326     0             -0.12638397    -0.15043115   
    120500   0.037542631   -0.19214941     0             -0.16118909    -0.043930173  
    121000   0.068584825   -0.18845968     0             -0.13189976     0.11183601   
    121500   0.056353455   -0.18697994     0             -0.14050687    -0.011553518  
    122000   0.034022979   -0.19262091     0             -0.16456315    -0.18293997   
    122500   0.038861018   -0.19362108     0             -0.16157353    -0.15491155   
    123000   0.045355481   -0.19457142     0             -0.15716806     0.0039804327 
    123500   0.0660471     -0.18976394     0             -0.13529681    -0.027757218  
    124000   0.077420425   -0.19195479     0             -0.12810841     0.10915995   
    124500   0.063967369   -0.1889983      0             -0.13624626    -0.098746729  
    125000   0.04838448    -0.19250334     0             -0.15260206     0.050538307  
    125500   0.045763109   -0.19515572     0             -0.15741621    -0.01902442   
    126000   0.027517734   -0.19775845     0             -0.17506537    -0.093907614  
    126500   0.031859533   -0.20046535     0             -0.17419171    -0.027364481  
    127000   0.041894727   -0.19927721     0             -0.16472784    -0.0045897091 
    127500   0.04392873    -0.19929651     0             -0.16306976    -0.071763244  
    128000   0.054351528   -0.19714102     0             -0.15231889     0.035786999  
    128500   0.050198621   -0.19284227     0             -0.15144493    -0.090158927  
    129000   0.07432774    -0.19333474     0             -0.1320388      0.098081546  
    129500   0.050025303   -0.19398714     0             -0.15273273     0.10924418   
    130000   0.050470026   -0.19833131     0             -0.15671014     0.040419919  
    130500   0.06361002    -0.19797515     0             -0.14551781    -0.095788357  
    131000   0.050463429   -0.19487546     0             -0.15325973     0.13892848   
    131500   0.038049755   -0.19794625     0             -0.16656772     0.13708122   
    132000   0.06107109    -0.19969953     0             -0.14933597     0.0076690252 
    132500   0.038900074   -0.20033503     0             -0.16825526     0.11500544   
    133000   0.081613269   -0.1901397      0             -0.1228356     -0.031210933  
    133500   0.069730591   -0.1878408      0             -0.130336       0.087282855  
    134000   0.061487685   -0.19676374     0             -0.14605663     0.12775508   
    134500   0.059869798   -0.19155829     0             -0.1421854      0.10317654   
    135000   0.068948772   -0.19546212     0             -0.13860206    -0.028369604  
    135500   0.059020489   -0.19494262     0             -0.14627013     0.037032717  
    136000   0.08306869    -0.19302224     0             -0.1245179     -0.0047771843 
    136500   0.056410975   -0.19587525     0             -0.14935475     0.14069501   
    137000   0.058575339   -0.19713712     0             -0.14883173     0.031077299  
    137500   0.093395272   -0.19307225     0             -0.11605187     0.93361987   
    138000   0.095476067   -0.19071697     0             -0.11198062     0.16353081   
    138500   0.056495445   -0.19085568     0             -0.14426552    -0.14880612   
    139000   0.062731235   -0.19395953     0             -0.14222689     0.17663318   
    139500   0.056164407   -0.19587152     0             -0.14955436     0.11375043   
    140000   0.042153748   -0.19714057     0             -0.16237759     0.30389942   
    140500   0.049150913   -0.19775995     0             -0.15722662     0.02439045   
    141000   0.068264316   -0.19648681     0             -0.1401912      0.086165589  
    141500   0.075143517   -0.19137396     0             -0.12940528    -0.05849163   
    142000   0.067916179   -0.1959305      0             -0.13992199     0.14946143   
    142500   0.041420898   -0.19516582     0             -0.16100721     0.0053226821 
    143000   0.085801553   -0.19624379     0             -0.12548573     0.013111858  
    143500   0.1033212     -0.19506978     0             -0.10986378    -0.16968256   
    144000   0.064226472   -0.19351599     0             -0.14055028     0.05914218   
    144500   0.042662919   -0.19551998     0             -0.16033711    -0.1230951    
    145000   0.040990762   -0.19932713     0             -0.16552323    -0.072920282  
    145500   0.055316816   -0.19071002     0             -0.14509184    -0.063753892  
    146000   0.053990886   -0.19509198     0             -0.15056726     0.28819448   
    146500   0.047972922   -0.20007458     0             -0.1605127     -0.055879837  
    147000   0.040889097   -0.20488322     0             -0.17116316    -0.067958061  
    147500   0.033902545   -0.20951318     0             -0.18155474    -0.19772876   
    148000   0.10120409    -0.20268782     0             -0.11922773    -0.051814384  
    148500   0.099889503   -0.19841031     0             -0.11603433     0.030672392  
    149000   0.079822911   -0.19840707     0             -0.13257942     0.12461745   
    149500   0.064137391   -0.19446253     0             -0.14157028    -0.17446379   
    150000   0.082406197   -0.19981768     0             -0.13185967     0.15205832   
    150500   0.1382097     -0.19261904     0             -0.078641504    0.04986083   
    151000   0.092429925   -0.18818102     0             -0.11195674     0.038388154  
    151500   0.095477855   -0.19108141     0             -0.11234358     0.0015270322 
    152000   0.082694838   -0.19365024     0             -0.1254542     -0.43255873   
    152500   0.072646438   -0.19243438     0             -0.13252497     0.17788544   
    153000   0.088676923   -0.19683115     0             -0.12370186    -0.11517355   
    153500   0.1101074     -0.19136279     0             -0.10056041     0.28193836   
    154000   0.074711011   -0.19503376     0             -0.13342175    -0.078800287  
    154500   0.056645606   -0.19947944     0             -0.15276545     0.18377042   
    155000   0.069035689   -0.20042391     0             -0.14349218    -0.047957823  
    155500   0.04786842    -0.19783018     0             -0.15835448     0.049698442  
    156000   0.056146091   -0.20147008     0             -0.15516803    -0.39877073   
    156500   0.044371662   -0.20358669     0             -0.16699467     0.21549319   
    157000   0.0730732     -0.20041881     0             -0.14015745     0.069570457  
    157500   0.077094005   -0.20172321     0             -0.13814602     0.12244399   
    158000   0.071718821   -0.1995102      0             -0.14036577    -0.029672099  
    158500   0.061484393   -0.20464514     0             -0.15394074     0.16127364   
    159000   0.061862875   -0.20456513     0             -0.15354861     0.15041303   
    159500   0.054906197   -0.20695721     0             -0.16167766     0.010439675  
    160000   0.090534368   -0.19744705     0             -0.12278598     0.082996921  
    160500   0.064231244   -0.20281938     0             -0.14984973    -0.055737241  
    161000   0.047696467   -0.20581831     0             -0.16648442     0.1756328    
    161500   0.089303823   -0.20344389     0             -0.12979761    -0.12341053   
    162000   0.077285313   -0.19857677     0             -0.13484181     0.040851794  
    162500   0.068169271   -0.19794295     0             -0.14172572     0.064717391  
    163000   0.089831221   -0.20332015     0             -0.12923894    -0.050683989  
    163500   0.090064331   -0.19625962     0             -0.12198618     0.21296875   
    164000   0.057425072   -0.19574515     0             -0.14838836    -0.095530525  
    164500   0.064703218   -0.19641291     0             -0.14305404     0.12383759   
    165000   0.089108352   -0.19443951     0             -0.12095443    -0.2011793    
    165500   0.083207157   -0.19814471     0             -0.12952618    -0.22465848   
    166000   0.1042824     -0.19132288     0             -0.1053242      0.0046696223 
    166500   0.081690443   -0.19274399     0             -0.12537625    -0.0098274062 
    167000   0.13980597    -0.19108155     0             -0.075787607   -0.024243539  
    167500   0.077830939   -0.19496918     0             -0.13078426     0.12062182   
    168000   0.053514161   -0.19986433     0             -0.15573275     0.077900349  
    168500   0.057246615   -0.19537916     0             -0.14816953    -0.086662954  
    169000   0.078904314   -0.19328905     0             -0.12821894    -0.3429687    
    169500   0.061365787   -0.19232682     0             -0.14172023     0.088968884  
    170000   0.066837534   -0.19769888     0             -0.1425799     -0.023542694  
    170500   0.070173624   -0.19652664     0             -0.13865648     0.12361902   
    171000   0.085717154   -0.19519062     0             -0.12450216    -0.037705967  
    171500   0.096945232   -0.19632588     0             -0.11637796    -0.12589401   
    172000   0.12706105    -0.18765748     0             -0.08287391     0.060213789  
    172500   0.10262124    -0.19512344     0             -0.11049467    -0.048923727  
    173000   0.12939656    -0.19918896     0             -0.092479368    0.050242031  
    173500   0.10509271    -0.19712234     0             -0.11045542     0.33073485   
    174000   0.085023016   -0.19206873     0             -0.12195271    -0.11776862   
    174500   0.097979033   -0.18966518     0             -0.10886471    -0.085429487  
    175000   0.079735408   -0.19349208     0             -0.12773659     0.057518635  
    175500   0.085601898   -0.18743072     0             -0.11683731     0.0073231212 
    176000   0.084081532   -0.19058269     0             -0.12124308    -0.020685398  
    176500   0.064742061   -0.19000504     0             -0.13661414    -0.018072296  
    177000   0.057950244   -0.19547072     0             -0.14768083    -0.093776404  
    177500   0.040848251   -0.20069577     0             -0.1670094     -0.025333714  
    178000   0.050700968   -0.20508406     0             -0.16327244     0.1905694    
    178500   0.065312732   -0.2024249      0             -0.14856338     0.04088439   
    179000   0.041760427   -0.20040551     0             -0.16596689     0.077535006  
    179500   0.051905125   -0.20485837     0             -0.16205371     0.27049393   
    180000   0.065093279   -0.20825129     0             -0.15457074    -0.021525586  
    180500   0.067808331   -0.19536819     0             -0.13944862     0.28428519   
    181000   0.069100384   -0.19562303     0             -0.13863794    -0.26272945   
    181500   0.063034416   -0.19556142     0             -0.14357876    -0.098696962  
    182000   0.070216908   -0.19821101     0             -0.14030515     0.014994348  
    182500   0.05340864    -0.20028937     0             -0.15624481    -0.13061122   
    183000   0.087710337   -0.19837777     0             -0.1260456      0.12116829   
    183500   0.086891826   -0.19502588     0             -0.1233687     -0.12324196   
    184000   0.07419239    -0.20007794     0             -0.13889363     0.14965215   
    184500   0.071266372   -0.20001225     0             -0.14124094    -0.22647837   
    185000   0.058673631   -0.20674146     0             -0.15835502    -0.031433218  
    185500   0.088144734   -0.19135071     0             -0.1186603      0.075877915  
    186000   0.0657913     -0.19667236     0             -0.14241618    -0.029588964  
    186500   0.047296527   -0.19947339     0             -0.16046931    -0.22927818   
    187000   0.093661903   -0.19805298     0             -0.12081272     0.3058558    
    187500   0.12103862    -0.18958674     0             -0.089769695   -0.1558891    
    188000   0.092230044   -0.192267       0             -0.11620755     0.25268345   
    188500   0.084376616   -0.19259116     0             -0.12300821     0.029653374  
    189000   0.074907014   -0.19211937     0             -0.13034572    -0.29746148   
    189500   0.12075148    -0.19010482     0             -0.090524569    0.22564228   
    190000   0.069987585   -0.19252982     0             -0.13481309    -0.24723719   
    190500   0.09343261    -0.19479368     0             -0.11774251     0.14707439   
    191000   0.050478838   -0.19973617     0             -0.15810774     0.089055823  
    191500   0.078762262   -0.19917744     0             -0.13422449     0.26659405   
    192000   0.061680662   -0.2078766      0             -0.15701034     0.038886408  
    192500   0.11286164    -0.19071224     0             -0.097638516    0.28044843   
    193000   0.090671935   -0.19122848     0             -0.11645396     0.14647628   
    193500   0.10593976    -0.19331852     0             -0.10595307    -0.14935882   
    194000   0.07808121    -0.19124633     0             -0.12685502     0.16163868   
    194500   0.1172224     -0.19833927     0             -0.10166935     0.20093882   
    195000   0.10094099    -0.18929379     0             -0.10605068    -0.21756192   
    195500   0.063710899   -0.19792229     0             -0.14538176    -0.049928845  
    196000   0.064898962   -0.19509036     0             -0.14157007     0.1252971    
    196500   0.10064684    -0.19284576     0             -0.10984522     0.034532367  
    197000   0.11536562    -0.18382704     0             -0.088688358    0.064584776  
    197500   0.15572766    -0.18451788     0             -0.056093787    0.33122281   
    198000   0.10129974    -0.18786893     0             -0.10432997    -0.29290578   
    198500   0.090383395   -0.18916344     0             -0.11462687    -0.0051965938 
    199000   0.10941618    -0.18280889     0             -0.092576536    0.22517044   
    199500   0.11042716    -0.18227872     0             -0.091212639   -0.052680088  
    200000   0.068958076   -0.18272344     0             -0.12585571    -0.45559383   
    200500   0.085752444   -0.18911735     0             -0.11839979     0.13595333   
    201000   0.093616271   -0.19073105     0             -0.11352842     0.34703176   
    201500   0.1245015     -0.1810931      0             -0.078420311    0.10947216   
    202000   0.088266469   -0.18623202     0             -0.11344122     0.086196816  
    202500   0.087543672   -0.18933984     0             -0.1171451     -0.14496626   
    203000   0.075256574   -0.18523221     0             -0.12317029    -0.11490489   
    203500   0.084906465   -0.1892986      0             -0.1192787      0.035157836  
    204000   0.10389874    -0.18618751     0             -0.10050522    -0.069472583  
    204500   0.10414401    -0.18257368     0             -0.096689122    0.0054681749 
    205000   0.11254924    -0.18546682     0             -0.092650718    0.11074693   
    205500   0.11730475    -0.18301629     0             -0.086278463   -0.20345419   
    206000   0.10432001    -0.17907123     0             -0.093041543   -0.01561214   
    206500   0.082445213   -0.18047223     0             -0.11248205    -0.0065163853 
    207000   0.084580853   -0.18348368     0             -0.11373229     0.0085996588 
    207500   0.1275102     -0.18049429     0             -0.075340321    0.01864902   
    208000   0.075111466   -0.17404128     0             -0.11209903     0.16854517   
    208500   0.088736475   -0.18374517     0             -0.11056677    -0.24903066   
    209000   0.068918221   -0.18446172     0             -0.12762686     0.18236875   
    209500   0.05851645    -0.18884425     0             -0.14058743    -0.50907184   
    210000   0.094100063   -0.18178393     0             -0.10418233    -0.013462928  
    210500   0.10291282    -0.17905144     0             -0.094182219   -0.087882827  
    211000   0.13087019    -0.17585933     0             -0.067934467    0.09398186   
    211500   0.079232998   -0.17962956     0             -0.1142884     -0.056844335  
    212000   0.11695443    -0.1728753      0             -0.07642637     0.0044005779 
    212500   0.10311056    -0.17668795     0             -0.091655655    0.022691067  
    213000   0.09742303    -0.18080666     0             -0.10046471     0.012103457  
    213500   0.06415296    -0.18357694     0             -0.13067185     0.069188199  
    214000   0.077811926   -0.18328011     0             -0.11911087    -0.089644186  
    214500   0.086450496   -0.18886142     0             -0.1175682     -0.0073965009 
    215000   0.058220824   -0.18370256     0             -0.13568953     0.17235106   
    215500   0.094250729   -0.17796474     0             -0.10023889    -0.11995349   
    216000   0.17447349    -0.17217192     0             -0.028288689    0.043728243  
    216500   0.12829843    -0.17597351     0             -0.070169513   -0.26263525   
    217000   0.072870676   -0.18247156     0             -0.12237723     0.23372359   
    217500   0.12756305    -0.1804928      0             -0.075295248    0.11775947   
    218000   0.1018795     -0.17861132     0             -0.094594243   -0.18892515   
    218500   0.11080455    -0.1773103      0             -0.085932991   -0.34277542   
    219000   0.10938068    -0.17803828     0             -0.0878352      0.32130205   
    219500   0.12087515    -0.17900644     0             -0.079324203    0.13285624   
    220000   0.13298454    -0.18240033     0             -0.072731822   -0.076835394  
    220500   0.10455997    -0.18529598     0             -0.099068401   -0.1818304    
    221000   0.10202084    -0.18921992     0             -0.10508629     0.099043458  
    221500   0.086358366   -0.18607815     0             -0.11486091    -0.24690986   
    222000   0.082024884   -0.18951163     0             -0.12186808     0.052851998  
    222500   0.099084496   -0.19269399     0             -0.11098187    -0.03880657   
    223000   0.078112439   -0.18802518     0             -0.12360811     0.11604206   
    223500   0.12730346    -0.19493675     0             -0.089953277    0.21361396   
    224000   0.12115977    -0.19056514     0             -0.090648185   -0.60501023   
    224500   0.095950593   -0.18851169     0             -0.10938401    -0.084237727  
    225000   0.077454282   -0.19090871     0             -0.1270344      0.0027445198 
    225500   0.075495217   -0.1963175      0             -0.13405878    -0.021705786  
    226000   0.092134071   -0.19101398     0             -0.11503368     0.081388754  
    226500   0.097630055   -0.18960857     0             -0.10909589    -0.088624685  
    227000   0.091615625   -0.18705704     0             -0.11150429    -0.04319777   
    227500   0.052818144   -0.18866889     0             -0.14511129    -0.1254611    
    228000   0.047501589   -0.19517239     0             -0.1559992      0.13818685   
    228500   0.065857836   -0.19190807     0             -0.13759702    -0.17927619   
    229000   0.069549447   -0.18460513     0             -0.12724971    -0.093052328  
    229500   0.072842363   -0.18818169     0             -0.1281107      0.044274564  
    230000   0.08612319    -0.18466038     0             -0.11363708     0.011185847  
    230500   0.080051411   -0.18540713     0             -0.11939104    -0.4145314    
    231000   0.080745181   -0.18752878     0             -0.12094056    -0.32702381   
    231500   0.12484503    -0.18225395     0             -0.079297865    0.059765741  
    232000   0.11086031    -0.18423619     0             -0.092812901    0.12623816   
    232500   0.072499137   -0.18760503     0             -0.12781709     0.23111611   
    233000   0.1309569     -0.18629718     0             -0.078300819    0.15695168   
    233500   0.11126441    -0.18823386     0             -0.09647733     0.19767417   
    234000   0.10856255    -0.19407973     0             -0.10455134     0.25669107   
    234500   0.083068664   -0.18912007     0             -0.12061575     0.051195839  
    235000   0.074525339   -0.19817806     0             -0.13671917     0.25189296   
    235500   0.11259782    -0.19446032     0             -0.10160416    -0.029707978  
    236000   0.10575278    -0.19366875     0             -0.1064575      0.13415298   
    236500   0.083847804   -0.18992887     0             -0.12078202    -0.014661999  
    237000   0.076159458   -0.19464748     0             -0.13184098     0.10251444   
    237500   0.097739148   -0.19575823     0             -0.11515559     0.11227381   
    238000   0.09393951    -0.19205771     0             -0.11458851    -0.046417444  
    238500   0.077940395   -0.19713422     0             -0.13285903    -0.03401803   
    239000   0.12004567    -0.19565033     0             -0.096652136    0.24481068   
    239500   0.098288546   -0.1970815      0             -0.11602578     0.61842128   
    240000   0.098957053   -0.19486699     0             -0.11325998     0.1304918    
    240500   0.12715171    -0.19373717     0             -0.088878833   -0.19938162   
    241000   0.13936601    -0.19291263     0             -0.077981517   -0.35834543   
    241500   0.10745913    -0.18577293     0             -0.097154489    0.07503057   
    242000   0.13703955    -0.18655582     0             -0.073543271    0.22212866   
    242500   0.11280108    -0.18565075     0             -0.092626965   -0.0046489203 
    243000   0.11071017    -0.18905227     0             -0.097752797   -0.035743691  
    243500   0.11960951    -0.19199149     0             -0.093352995   -0.24064348   
    244000   0.0947756     -0.1891363      0             -0.11097761    -0.12080191   
    244500   0.11756773    -0.18338573     0             -0.086431023   -0.44683292   
    245000   0.11112905    -0.19490233     0             -0.10325742    -0.022935562  
    245500   0.0793806     -0.19193425     0             -0.12647136     0.016419833  
    246000   0.070454212   -0.19243596     0             -0.13433442     0.21232358   
    246500   0.076910133   -0.19317516     0             -0.1297496     -0.15819745   
    247000   0.10921794    -0.18332076     0             -0.093251893   -0.051767766  
    247500   0.08986716    -0.18631187     0             -0.11220102     0.0075964918 
    248000   0.098479365   -0.18802043     0             -0.10680735     0.071498692  
    248500   0.081865965   -0.18102241     0             -0.11350992     0.01163434   
    249000   0.088048777   -0.18438773     0             -0.11177646    -0.33384306   
    249500   0.084305742   -0.17951402     0             -0.10998951     0.12518691   
    250000   0.10179176    -0.17168852     0             -0.087743798   -0.31616239   
    250500   0.077610432   -0.1793182      0             -0.11531513     0.17552826   
    251000   0.12083999    -0.18723287     0             -0.087579621   -0.023547366  
    251500   0.11578027    -0.18573582     0             -0.090255186   -0.044396376  
    252000   0.1062539     -0.18086478     0             -0.093240271    0.077237148  
    252500   0.076388213   -0.18949768     0             -0.12650254     0.31370198   
    253000   0.073577224   -0.19669858     0             -0.13602157     0.13350278   
    253500   0.084722211   -0.19167183     0             -0.12180388     0.058691032  
    254000   0.092819539   -0.18718434     0             -0.11063875     0.04576825   
    254500   0.082637537   -0.19557866     0             -0.12742988     0.13486772   
    255000   0.082747086   -0.19065197     0             -0.12241284     0.22166945   
    255500   0.059801469   -0.19324398     0             -0.14392744    -0.35232388   
    256000   0.049738567   -0.19582769     0             -0.15480974    -0.030583159  
    256500   0.05385832    -0.20343472     0             -0.15901932    -0.012627797  
    257000   0.076879059   -0.19816477     0             -0.13476484     0.012427588  
    257500   0.11520342    -0.19260683     0             -0.097601905   -0.075611342  
    258000   0.088995943   -0.1961093      0             -0.12271693     0.2391444    
    258500   0.086012989   -0.19438759     0             -0.12345517    -0.33624976   
    259000   0.12868433    -0.19390403     0             -0.087781788    0.053695658  
    259500   0.1269937     -0.18716617     0             -0.082438144    0.080921274  
    260000   0.12721181    -0.18569489     0             -0.080786993    0.20646263   
    260500   0.093170952   -0.18469881     0             -0.10786342    -0.23804975   
    261000   0.095312488   -0.18392827     0             -0.10532682     0.25888146   
    261500   0.089645105   -0.18037796     0             -0.10645024    -0.026989095  
    262000   0.1021796     -0.17949178     0             -0.095227221    0.59532172   
    262500   0.077478334   -0.18141063     0             -0.11751649     0.2158857    
    263000   0.09654633    -0.17624885     0             -0.096629888   -0.38193014   
    263500   0.11854261    -0.17727404     0             -0.079515386   -0.28708709   
    264000   0.13454729    -0.17876491     0             -0.067807656    0.033080709  
    264500   0.1082615     -0.18264374     0             -0.093363619    0.21075873   
    265000   0.08702854    -0.18449025     0             -0.11272033    -0.11060462   
    265500   0.14141334    -0.17467183     0             -0.058052341    0.2442934    
    266000   0.12349953    -0.17005041     0             -0.068203919   -0.014765879  
    266500   0.1045624     -0.17240346     0             -0.086173879   -0.21664674   
    267000   0.089287286   -0.18125814     0             -0.1076255      0.10338543   
    267500   0.099218306   -0.17688183     0             -0.095059368   -0.047990943  
    268000   0.10362396    -0.17614812     0             -0.090692442    0.0049583961 
    268500   0.085063691   -0.17983252     0             -0.10968296    -0.04938822   
    269000   0.069972915   -0.17710116     0             -0.11939653    -0.13056635   
    269500   0.047206897   -0.18549287     0             -0.14656271    -0.1467568    
    270000   0.072202348   -0.18654037     0             -0.12699718    -0.046086315  
    270500   0.087723294   -0.18683291     0             -0.11449005    -0.097237272  
    271000   0.055385042   -0.1881253      0             -0.14245085     0.0030314413 
    271500   0.057240014   -0.19114545     0             -0.14394127     0.077801002  
    272000   0.084720724   -0.18641679     0             -0.11655006    -0.59050733   
    272500   0.10072719    -0.18236435     0             -0.099297553   -0.10072037   
    273000   0.092404506   -0.17588795     0             -0.099684629    0.33972402   
    273500   0.070637947   -0.17975858     0             -0.12150551     0.24101351   
    274000   0.11066507    -0.17751242     0             -0.086250145    0.18413403   
    274500   0.11678241    -0.17426706     0             -0.077959987   -0.34040182   
    275000   0.11963562    -0.17955422     0             -0.080894189    0.050521775  
    275500   0.11084594    -0.18612127     0             -0.094709826    0.29139037   
    276000   0.12785223    -0.17792419     0             -0.072488159    0.24062387   
    276500   0.13569665    -0.17280836     0             -0.060903258   -0.12602858   
    277000   0.1230243     -0.17451902     0             -0.073064443   -0.01220057   
    277500   0.10459545    -0.18640247     0             -0.10014563     0.030411388  
    278000   0.07136832    -0.18126333     0             -0.12240794     0.057473736  
    278500   0.11808427    -0.18205043     0             -0.084669746    0.03826589   
    279000   0.10445833    -0.17989139     0             -0.093747626   -0.053045061  
    279500   0.14259284    -0.17260983     0             -0.055017642   -0.026935966  
    280000   0.14956763    -0.17056314     0             -0.047219045   -0.4300083    
    280500   0.12093144    -0.17864744     0             -0.07891879    -0.019279895  
    281000   0.09068441    -0.18047014     0             -0.10568533    -0.32933022   
    281500   0.079816101   -0.18504265     0             -0.11922062    -0.043612557  
    282000   0.079989519   -0.18461307     0             -0.11864803    -0.039353665  
    282500   0.080120604   -0.18629036     0             -0.12021722     0.062837683  
    283000   0.082758443   -0.18534613     0             -0.11709764     0.35095559   
    283500   0.094184862   -0.18416834     0             -0.10649681     0.076071061  
    284000   0.08470542    -0.18635648     0             -0.11650237    -0.079648826  
    284500   0.09079596    -0.19375435     0             -0.11887755    -0.14852529   
    285000   0.096966028   -0.19426331     0             -0.11429823     0.19563343   
    285500   0.090673852   -0.19719098     0             -0.12241488    -0.39675531   
    286000   0.12255237    -0.19872693     0             -0.097661539    0.1675897    
    286500   0.12048664    -0.19618223     0             -0.096820385    0.14107545   
    287000   0.14769917    -0.18539835     0             -0.06359512     0.17301711   
    287500   0.12247804    -0.18550574     0             -0.084501644   -0.10802883   
    288000   0.12433444    -0.17700964     0             -0.074474634    0.072912077  
    288500   0.11421014    -0.18120659     0             -0.087020796    0.041243444  
    289000   0.095375194   -0.18526324     0             -0.10661008     0.004813529  
    289500   0.087849949   -0.18628636     0             -0.11383905    -0.085039389  
    290000   0.066907577   -0.19199964     0             -0.1368229      0.15847963   
    290500   0.069806218   -0.1941603      0             -0.13659313    -0.24438501   
    291000   0.066721947   -0.19259104     0             -0.13756738    -0.038793186  
    291500   0.079088931   -0.19446203     0             -0.12923968     0.068192508  
    292000   0.10993632    -0.18764487     0             -0.096983569   -0.5007451    
    292500   0.11515982    -0.18675113     0             -0.091782157    0.045530744  
    293000   0.10369989    -0.1834399      0             -0.097921607    0.040411927  
    293500   0.085403946   -0.18547556     0             -0.1150454      0.21632315   
    294000   0.086259658   -0.18367918     0             -0.11254333    -0.051577645  
    294500   0.1306805     -0.17629669     0             -0.068528257    0.032397561  
    295000   0.12632436    -0.17415111     0             -0.069975073   -0.16007476   
    295500   0.12159501    -0.17799154     0             -0.07771566    -0.055406263  
    296000   0.12711696    -0.18093726     0             -0.076107581   -0.18933508   
    296500   0.12912369    -0.18152248     0             -0.075037915    0.23652966   
    297000   0.087797655   -0.18213852     0             -0.10973433    -0.33564344   
    297500   0.11722111    -0.17994042     0             -0.083271566    0.27970566   
    298000   0.12480136    -0.17895844     0             -0.076038373   -0.10663552   
    298500   0.17419126    -0.17759805     0             -0.033947561   -0.20593096   
    299000   0.11024804    -0.18050273     0             -0.089584367    0.063158239  
    299500   0.089156517   -0.1864853      0             -0.1129605      0.014017772  
    300000   0.077644303   -0.19110483     0             -0.12707382    -0.035202722  
    300500   0.079899288   -0.19369644     0             -0.12780581     0.096061624  
    301000   0.078348701   -0.19511361     0             -0.13050171     0.27037495   
    301500   0.091738125   -0.19149918     0             -0.1158454      0.030153682  
    302000   0.084887755   -0.18807357     0             -0.1180691     -0.1426128    
    302500   0.078526341   -0.19363044     0             -0.12887204     0.10094471   
    303000   0.093877238   -0.18819243     0             -0.11077459    -0.023356667  
    303500   0.07672376    -0.19236264     0             -0.12909078    -0.073977241  
    304000   0.086535703   -0.19193742     0             -0.12057394    -0.073809944  
    304500   0.1038769     -0.19386916     0             -0.10820488     0.24976959   
    305000   0.095738021   -0.19746815     0             -0.11851578    -0.31706263   
    305500   0.14975913    -0.18752015     0             -0.064018137   -0.12031679   
    306000   0.12642965    -0.18277876     0             -0.07851589     0.10764715   
    306500   0.10007954    -0.18721472     0             -0.10468202    -0.22926021   
    307000   0.10485665    -0.18235074     0             -0.095878497   -0.12293591   
    307500   0.12768372    -0.19027138     0             -0.08497432    -0.12202003   
    308000   0.098312775   -0.19101179     0             -0.10993609     0.12589573   
    308500   0.098149507   -0.18734917     0             -0.10640811     0.032979249  
    309000   0.10059515    -0.18628904     0             -0.10333113    -0.23794355   
    309500   0.10574672    -0.18880807     0             -0.10160182     0.089818405  
    310000   0.13760873    -0.18539923     0             -0.071917292    0.22004054   
    310500   0.092515226   -0.19622586     0             -0.11993123    -0.18675397   
    311000   0.10646561    -0.1877087      0             -0.099909596    0.021941918  
    311500   0.11062659    -0.18432867     0             -0.093098121    0.33423273   
    312000   0.10043823    -0.19021124     0             -0.10738273     0.19188393   
    312500   0.10766927    -0.1918037      0             -0.10301197     0.22859688   
    313000   0.11722556    -0.18247405     0             -0.085801529    0.27796269   
    313500   0.094812811   -0.18579788     0             -0.1076085     -0.26172318   
    314000   0.080605487   -0.18483195     0             -0.11835894     0.13462842   
    314500   0.084151844   -0.18770281     0             -0.11830523    -0.030346905  
    315000   0.11182729    -0.18555791     0             -0.09333718     0.32863356   
    315500   0.12184904    -0.18371056     0             -0.083225184    0.36397779   
    316000   0.086354079   -0.19312041     0             -0.1219067     -0.020607842  
    316500   0.10730455    -0.19059213     0             -0.10210117     0.072641259  
    317000   0.11138443    -0.18913998     0             -0.097284462    0.16305137   
    317500   0.089570298   -0.18477577     0             -0.11090974    -0.13512918   
    318000   0.070397644   -0.18875789     0             -0.13070299     0.14510395   
    318500   0.070274026   -0.1903279      0             -0.13237494     0.028186868  
    319000   0.10809911    -0.18664759     0             -0.097501379   -0.40806437   
    319500   0.072046206   -0.19524451     0             -0.13583009    -0.096845951  
    320000   0.11682964    -0.18399623     0             -0.087650211    0.62647483   
    320500   0.12781645    -0.1787265      0             -0.073319979    0.47517458   
    321000   0.09632391    -0.18289441     0             -0.10345887    -0.031965782  
    321500   0.13612977    -0.17733092     0             -0.065068643    0.24228718   
    322000   0.12676813    -0.17607393     0             -0.071531925   -0.19138534   
    322500   0.15477911    -0.17847852     0             -0.050836662    0.0033072114 
    323000   0.13305081    -0.18179552     0             -0.072072371   -0.21882833   
    323500   0.13007109    -0.17671708     0             -0.069451218    0.02665646   
    324000   0.10987722    -0.17921215     0             -0.088599595    0.039219961  
    324500   0.12077383    -0.17856432     0             -0.078965635   -0.1295444    
    325000   0.091826699   -0.18174411     0             -0.10601729    -0.12989493   
    325500   0.089763793   -0.18767104     0             -0.11364544     0.20585329   
    326000   0.07872533    -0.18756105     0             -0.12263855     0.17631361   
    326500   0.12507387    -0.19702708     0             -0.093882277   -0.059408948  
    327000   0.097028728   -0.19011652     0             -0.11009974    -0.31825841   
    327500   0.14298405    -0.18396724     0             -0.066052433    0.082041784  
    328000   0.11929644    -0.18337566     0             -0.084995335    0.038254222  
    328500   0.10910545    -0.18932758     0             -0.099351477   -0.13823752   
    329000   0.11707074    -0.17908954     0             -0.082544694   -0.14730336   
    329500   0.096109999   -0.1840368      0             -0.10477766     0.11719912   
    330000   0.12158622    -0.18832584     0             -0.088057201    0.060453356  
    330500   0.10318733    -0.1900793      0             -0.1049837     -0.0077512623 
    331000   0.10467108    -0.19582902     0             -0.10950981     0.18324567   
    331500   0.1034167     -0.19006553     0             -0.10478077    -0.15296612   
    332000   0.077329137   -0.19585547     0             -0.13208437    -0.18471157   
    332500   0.069257677   -0.20002061     0             -0.14290581     0.073800553  
    333000   0.081498612   -0.20292205     0             -0.1357125     -0.67700128   
    333500   0.090630602   -0.1967719      0             -0.12203147     0.68622145   
    334000   0.083699352   -0.19776893     0             -0.12874449    -0.097175994  
    334500   0.093474959   -0.19760381     0             -0.12051772    -0.23986911   
    335000   0.071443988   -0.20177529     0             -0.1428575      0.12514144   
    335500   0.096840572   -0.20817174     0             -0.12831012    -0.28841198   
    336000   0.14662041    -0.19763129     0             -0.076717686    0.30375144   
    336500   0.17443763    -0.19192616     0             -0.048072491    0.44155951   
    337000   0.15500736    -0.18477698     0             -0.056946901   -0.045573067  
    337500   0.098413688   -0.19036303     0             -0.10920411     0.31201528   
    338000   0.15843703    -0.18020368     0             -0.049545249    0.2155293    
    338500   0.17220874    -0.179461       0             -0.037445443   -0.57069317   
    339000   0.10679743    -0.18054124     0             -0.092468491    0.14122528   
    339500   0.14634477    -0.18006279     0             -0.059376493    0.19806979   
    340000   0.095223823   -0.18487503     0             -0.1063467      0.0086701695 
    340500   0.1142993     -0.18534709     0             -0.09108776     0.17263432   
    341000   0.12060877    -0.1800478      0             -0.080585232    0.24302267   
    341500   0.11451872    -0.1872864      0             -0.092846127   -0.12043      
    342000   0.15730604    -0.18369164     0             -0.0539659     -0.10761967   
    342500   0.13299909    -0.1828589      0             -0.073178394    0.0059955878 
    343000   0.11962442    -0.18398732     0             -0.085336523    0.14230736   
    343500   0.1095518     -0.19207299     0             -0.10172879    -0.074665225  
    344000   0.12271024    -0.18620539     0             -0.085009804   -0.59518808   
    344500   0.12970456    -0.18594663     0             -0.078983031   -0.10400656   
    345000   0.15279277    -0.18099649     0             -0.054992714   -0.18734562   
    345500   0.22408809    -0.17256722     0              0.012231741    0.12964192   
    346000   0.13891842    -0.17125191     0             -0.056689914   -0.16187515   
    346500   0.12430493    -0.17142538     0             -0.068914695   -0.035739406  
    347000   0.11558981    -0.17147996     0             -0.076156388    0.0998388    
    347500   0.19643422    -0.16944035     0             -0.0074467278   0.23103455   
    348000   0.12795104    -0.17755726     0             -0.072039745    0.0848934    
    348500   0.10496078    -0.17522996     0             -0.08867184     0.18443939   
    349000   0.12865668    -0.17300682     0             -0.066907381   -0.18124042   
    349500   0.10128564    -0.17498525     0             -0.09145791    -0.1462554    
    350000   0.12459569    -0.17184996     0             -0.069099496   -0.06064268   
    350500   0.13237903    -0.17375902     0             -0.064589863   -0.1683116    
    351000   0.12531981    -0.18006899     0             -0.076721366    0.20300672   
    351500   0.082876917   -0.18016434     0             -0.11181814    -0.044943116  
    352000   0.12352126    -0.18272423     0             -0.08085983    -0.060443452  
    352500   0.19659385    -0.17826477     0             -0.016139514   -0.067861454  
    353000   0.17760418    -0.17025422     0             -0.023789198    0.18763846   
    353500   0.14857906    -0.16992416     0             -0.047395312    0.60251852   
    354000   0.11156674    -0.17399647     0             -0.081990615    0.084121348  
    354500   0.10014484    -0.17372031     0             -0.091133759    0.2679877    
    355000   0.12273549    -0.17755004     0             -0.07633364    -0.15010897   
    355500   0.12057417    -0.17800275     0             -0.078568725    0.23847944   
    356000   0.11626037    -0.17750975     0             -0.08163319     0.00470774   
    356500   0.127932      -0.18096956     0             -0.075467744   -0.3180831    
    357000   0.13616528    -0.17719675     0             -0.064905181   -0.17192045   
    357500   0.11781676    -0.17939961     0             -0.082239537   -0.12901331   
    358000   0.078335687   -0.18490097     0             -0.1202998     -0.10586113   
    358500   0.08787405    -0.18433446     0             -0.11186728     0.12353056   
    359000   0.093523088   -0.17990412     0             -0.10277834     0.020715023  
    359500   0.14036641    -0.17945794     0             -0.063701817    0.15272646   
    360000   0.091723886   -0.17867451     0             -0.10303247     0.1765498    
    360500   0.093738438   -0.1811594      0             -0.10385602     0.024005225  
    361000   0.093357485   -0.17980206     0             -0.10281285    -0.44176216   
    361500   0.089837217   -0.18165792     0             -0.10757177    -0.12880841   
    362000   0.097942147   -0.18166541     0             -0.10089536    -0.18526427   
    362500   0.086675861   -0.17704097     0             -0.10556189    -0.14056543   
    363000   0.11432487    -0.17873769     0             -0.084457286    0.29405388   
    363500   0.089326743   -0.19002783     0             -0.11636265     0.081828486  
    364000   0.10999843    -0.19060252     0             -0.099889995    0.35845154   
    364500   0.11291799    -0.19340042     0             -0.10028022     0.014167362  
    365000   0.086361246   -0.19148641     0             -0.12026679     0.15972323   
    365500   0.1116457     -0.19213996     0             -0.10006898     0.095299909  
    366000   0.11686669    -0.18476132     0             -0.088384739    0.19935889   
    366500   0.10010269    -0.19473367     0             -0.11218188     0.063738567  
    367000   0.10984035    -0.19747626     0             -0.10689411     0.0013711304 
    367500   0.079609573   -0.19834807     0             -0.13269636    -0.16559603   
    368000   0.063360595   -0.20108038     0             -0.14882873     0.29442339   
    368500   0.14221501    -0.1968308      0             -0.079550206    0.5515238    
    369000   0.097263376   -0.20111391     0             -0.12090362    -0.076955774  
    369500   0.11169242    -0.19118946     0             -0.099079948    0.18511854   
    370000   0.083004665   -0.20226001     0             -0.13380846    -0.13548449   
    370500   0.091394878   -0.19827555     0             -0.12290484     0.2976346    
    371000   0.10728941    -0.20614014     0             -0.11766167     0.005594406  
    371500   0.10757506    -0.20758371     0             -0.11886967    -0.062472414  
    372000   0.11437492    -0.20347791     0             -0.10915623     0.065228692  
    372500   0.13478428    -0.204298       0             -0.093145299   -0.41361925   
    373000   0.13885768    -0.19697083     0             -0.08245892    -0.086780126  
    373500   0.10446353    -0.20424022     0             -0.11809218    -0.096921284  
    374000   0.12323793    -0.19525441     0             -0.093623652   -0.07372227   
    374500   0.11270705    -0.19538636     0             -0.10244012     0.24170688   
    375000   0.14722933    -0.1899578      0             -0.068542035   -0.20547144   
    375500   0.10921007    -0.19120075     0             -0.10113837    -0.06717716   
    376000   0.13674113    -0.19540139     0             -0.082634936   -0.57427746   
    376500   0.11483416    -0.18302854     0             -0.088328136    0.06080577   
    377000   0.10510442    -0.19305559     0             -0.10637901     0.071400686  
    377500   0.1990497     -0.19254824     0             -0.028397711    0.10881362   
    378000   0.12686941    -0.18396131     0             -0.07933578     0.092035522  
    378500   0.15416308    -0.18324709     0             -0.056113256    0.0057965232 
    379000   0.14904345    -0.18217344     0             -0.059261622    0.10652861   
    379500   0.10990491    -0.18153374     0             -0.090898347    0.16436456   
    380000   0.11114862    -0.18368886     0             -0.092027809    0.078125485  
    380500   0.10949846    -0.18138804     0             -0.09108783    -0.042710837  
    381000   0.14284334    -0.17727434     0             -0.059475578   -0.029864232  
    381500   0.13314816    -0.17392851     0             -0.064125085   -0.25204099   
    382000   0.11527309    -0.17208447     0             -0.077022095    0.36328611   
    382500   0.10650291    -0.1731073      0             -0.085277426    0.19402336   
    383000   0.089351191   -0.17839262     0             -0.10470728    -0.45939094   
    383500   0.13351391    -0.17914695     0             -0.069041893    0.32613779   
    384000   0.14301729    -0.18082926     0             -0.062887042   -0.471999     
    384500   0.12091154    -0.18181931     0             -0.082107065    0.014804967  
    385000   0.11251483    -0.18134659     0             -0.08855886    -0.32677708   
    385500   0.15558519    -0.16598612     0             -0.037679518    0.22707685   
    386000   0.1117836     -0.18127494     0             -0.08909024    -0.40744164   
    386500   0.12409912    -0.17406749     0             -0.071726535   -0.17114395   
    387000   0.10143012    -0.17703379     0             -0.093387306    0.030232588  
    387500   0.090748542   -0.17751367     0             -0.10267598     0.090371116  
    388000   0.10805196    -0.17976692     0             -0.090659593   -0.034620663  
    388500   0.12234143    -0.18678403     0             -0.085892593   -0.34771692   
    389000   0.15661176    -0.17092226     0             -0.041769081    0.01914632   
    389500   0.14441471    -0.17442173     0             -0.055327095   -0.012903938  
    390000   0.13344048    -0.17356636     0             -0.063521866   -0.0034117711 
    390500   0.14704831    -0.17643877     0             -0.055172282   -0.079013874  
    391000   0.11785305    -0.17667775     0             -0.079487744    0.081992365  
    391500   0.12684779    -0.18147168     0             -0.076863977   -0.04713968   
    392000   0.098841589   -0.17244251     0             -0.090930715    0.051269093  
    392500   0.12466507    -0.18845729     0             -0.085649611   -0.019963851  
    393000   0.16520664    -0.17641582     0             -0.040174688   -0.16092602   
    393500   0.15287228    -0.16897514     0             -0.042905795    0.23161854   
    394000   0.16648891    -0.17027371     0             -0.032975124    0.12031182   
    394500   0.10372355    -0.18096355     0             -0.09542574    -0.087855691  
    395000   0.12903919    -0.17990854     0             -0.073493651    0.007538235  
    395500   0.11013486    -0.17696872     0             -0.086143693    0.077718083  
    396000   0.098497883   -0.18512745     0             -0.1038991     -1.2142863    
    396500   0.12120726    -0.17182882     0             -0.071872705   -0.36038913   
    397000   0.09699258    -0.17510297     0             -0.095115998    0.26252168   
    397500   0.10004152    -0.17496847     0             -0.09246712    -0.010125783  
    398000   0.12968415    -0.17036594     0             -0.063419173    0.0043297985 
    398500   0.081689123   -0.17301255     0             -0.1056459      0.071081201  
    399000   0.084195576   -0.18157182     0             -0.11213816    -0.18606577   
    399500   0.093022951   -0.18155029     0             -0.10483695     0.15513036   
    400000   0.11853571    -0.17068563     0             -0.072932663    0.30480979   
    400500   0.11453192    -0.18046771     0             -0.086016549   -0.22240257   
    401000   0.11363543    -0.17875816     0             -0.085046314   -0.043894407  
    401500   0.11461365    -0.17604284     0             -0.081524273   -0.1773609    
    402000   0.11182012    -0.18297789     0             -0.090763074   -0.30324769   
    402500   0.10335621    -0.19134435     0             -0.10610948    -0.24496464   
    403000   0.12553414    -0.17808104     0             -0.074556668    0.039211284  
    403500   0.11464438    -0.18456848     0             -0.090024581    0.1538769    
    404000   0.10729948    -0.19296142     0             -0.10447465     0.030467535  
    404500   0.1041249     -0.1883763      0             -0.10250751    -0.086859339  
    405000   0.12650407    -0.19128819     0             -0.086963946    0.26919774   
    405500   0.13211888    -0.18866244     0             -0.079707822   -0.068667209  
    406000   0.1324584     -0.18769537     0             -0.078460758    0.0052338892 
    406500   0.13290252    -0.19356848     0             -0.083967619   -0.23689047   
    407000   0.12747243    -0.18793951     0             -0.08281669    -0.040272765  
    407500   0.12159113    -0.18852912     0             -0.088256436    0.48079818   
    408000   0.093229965   -0.18733167     0             -0.11044762     0.28637255   
    408500   0.11597066    -0.19218792     0             -0.096550272    0.13634155   
    409000   0.12250453    -0.19744859     0             -0.096422656    0.17480411   
    409500   0.12532292    -0.18807867     0             -0.084728484    0.36094515   
    410000   0.10526431    -0.19702748     0             -0.11021905    -0.38427484   
    410500   0.091802876   -0.1888549      0             -0.11314772     0.25094448   
    411000   0.12582428    -0.19426794     0             -0.090504292    0.061557968  
    411500   0.11577664    -0.1831918      0             -0.087714151    0.21639488   
    412000   0.095859707   -0.19164928     0             -0.11259655     0.49918029   
    412500   0.10479589    -0.18611604     0             -0.099693907   -0.096883184  
    413000   0.097202421   -0.19102382     0             -0.1108638     -0.21224155   
    413500   0.082411044   -0.19059999     0             -0.12263799     0.37460617   
    414000   0.1158483     -0.18512488     0             -0.089588136    0.011368868  
    414500   0.11815142    -0.19115498     0             -0.09371892    -0.41038097   
    415000   0.09738572    -0.19415943     0             -0.11384825    -0.095086546  
    415500   0.11430805    -0.19203603     0             -0.097769492   -0.019215372  
    416000   0.13169929    -0.19497804     0             -0.086369444   -0.012874408  
    416500   0.13039127    -0.18573736     0             -0.078207457   -0.14554347   
    417000   0.14732002    -0.18640625     0             -0.064915698    0.19965823   
    417500   0.14840745    -0.1817013      0             -0.059313976    0.16856695   
    418000   0.1367209     -0.18688864     0             -0.074138868    0.00083501386
    418500   0.12451315    -0.18348809     0             -0.080805696   -0.25558191   
    419000   0.086289438   -0.19514832     0             -0.12398791    -0.29481688   
    419500   0.093936086   -0.19591869     0             -0.11845232    -0.2185337    
    420000   0.13917207    -0.18708076     0             -0.072309589   -0.42646971   
    420500   0.14161694    -0.17947901     0             -0.06269162    -0.26680376   
    421000   0.1437399     -0.18231028     0             -0.063772147    0.16929206   
    421500   0.1072734     -0.18744226     0             -0.098976997    0.25620887   
    422000   0.15340769    -0.19062657     0             -0.064115694   -0.028478164  
    422500   0.12209923    -0.18688194     0             -0.086190237    0.18096104   
    423000   0.14577768    -0.18860288     0             -0.068384244    0.0679708    
    423500   0.13884197    -0.18308032     0             -0.068581371   -0.0022027728 
    424000   0.14702374    -0.18328958     0             -0.062043363    0.3190375    
    424500   0.12219559    -0.18216111     0             -0.081389948    0.17390579   
    425000   0.11214704    -0.18350165     0             -0.09101723     0.048763909  
    425500   0.16809437    -0.18211531     0             -0.043492741    0.17931316   
    426000   0.1339062     -0.18313607     0             -0.0727075      0.17492884   
    426500   0.13410487    -0.18534275     0             -0.074750344    1.0118703    
    427000   0.14659327    -0.17958436     0             -0.058693133    0.10243328   
    427500   0.11802926    -0.17782288     0             -0.080487563   -0.33429957   
    428000   0.13402044    -0.18013083     0             -0.069608054   -0.19277364   
    428500   0.15501839    -0.17952764     0             -0.051688468    0.12139869   
    429000   0.14214966    -0.17766871     0             -0.060441998   -0.19498903   
    429500   0.20321431    -0.17285935     0             -0.0052743946   0.047693655  
    430000   0.13387574    -0.16775102     0             -0.057347575    0.24069557   
    430500   0.13694751    -0.17604258     0             -0.063105933   -0.013970583  
    431000   0.12945177    -0.17545092     0             -0.068695792   -0.42920781   
    431500   0.10417214    -0.18166883     0             -0.095761079   -0.042200678  
    432000   0.12244784    -0.17612818     0             -0.075148989    0.091116859  
    432500   0.090691238   -0.18325967     0             -0.10846923    -0.2265835    
    433000   0.11145122    -0.18385202     0             -0.091941428    0.32789855   
    433500   0.10595299    -0.18655038     0             -0.099174018    0.097998535  
    434000   0.1357736     -0.18256326     0             -0.070594704   -0.1830475    
    434500   0.16983521    -0.17826242     0             -0.038204242    0.19093426   
    435000   0.11578903    -0.18289512     0             -0.08740726     0.30235459   
    435500   0.12265361    -0.18923419     0             -0.088085308    0.21039616   
    436000   0.098477651   -0.18271912     0             -0.10150745    -0.37867941   
    436500   0.14280366    -0.18007609     0             -0.062310049    0.078621265  
    437000   0.087485039   -0.18504221     0             -0.11289583     0.22276584   
    437500   0.14226684    -0.18877445     0             -0.071451103   -0.44151167   
    438000   0.10269415    -0.18411622     0             -0.099427326    0.26675336   
    438500   0.10382983    -0.17889702     0             -0.093271558    0.089205382  
    439000   0.077103159   -0.18715038     0             -0.12356563    -0.19391293   
    439500   0.065489658   -0.18927639     0             -0.13526897     0.070163774  
    440000   0.065246375   -0.19436354     0             -0.14055674     0.10626225   
    440500   0.1163196     -0.18417521     0             -0.088249804   -0.050197966  
    441000   0.12385472    -0.18689983     0             -0.084760428    0.030659271  
    441500   0.085659835   -0.1889432      0             -0.11830201     0.21502424   
    442000   0.12142053    -0.19129104     0             -0.09115905    -0.11153571   
    442500   0.10502476    -0.18855658     0             -0.10194571    -0.21080562   
    443000   0.14353751    -0.17966042     0             -0.061289191   -0.33363884   
    443500   0.12414091    -0.18410863     0             -0.08173322    -0.10931162   
    444000   0.13309802    -0.17982432     0             -0.070062229   -0.22590309   
    444500   0.1364939     -0.1786541      0             -0.066091531    0.2139186    
    445000   0.14145764    -0.17503721     0             -0.058381193    0.20510795   
    445500   0.10390568    -0.17820659     0             -0.092518581   -0.023275722  
    446000   0.11077864    -0.18347638     0             -0.092120446   -0.59981158   
    446500   0.10541223    -0.19116015     0             -0.10422974    -0.17761222   
    447000   0.11693285    -0.1864316      0             -0.090000463   -0.23751028   
    447500   0.15272976    -0.18472476     0             -0.058772947    0.27210876   
    448000   0.1330163     -0.18462573     0             -0.07493104     0.50178004   
    448500   0.088863458   -0.18192093     0             -0.10863781     0.012730166  
    449000   0.11441205    -0.17865734     0             -0.084305042    0.090592895  
    449500   0.13399286    -0.17801622     0             -0.067516184    0.08936961   
    450000   0.11235454    -0.17770484     0             -0.08504931    -0.19251089   
    450500   0.12401582    -0.17949904     0             -0.077226784    0.496131     
    451000   0.12708026    -0.18697258     0             -0.082173166   -0.21098525   
    451500   0.12128961    -0.18561153     0             -0.085587496   -0.14438261   
    452000   0.10615382    -0.18263135     0             -0.095089365   -0.3992712    
    452500   0.12611103    -0.18311628     0             -0.079116169   -0.089500189  
    453000   0.16630764    -0.182248       0             -0.04509891    -0.01992969   
    453500   0.21756991    -0.18078127     0             -0.0013576599   0.19539368   
    454000   0.13347679    -0.18986205     0             -0.079787611    0.00394303   
    454500   0.11786381    -0.18789144     0             -0.090692567   -0.22950826   
    455000   0.10846815    -0.17824289     0             -0.088792341   -0.044036253  
    455500   0.078531813   -0.18642003     0             -0.12165711     0.069188192  
    456000   0.11351388    -0.18562763     0             -0.092016015   -0.20624778   
    456500   0.13097585    -0.18487728     0             -0.076865288   -0.38073634   
    457000   0.091255001   -0.18252747     0             -0.10727211    -0.010721762  
    457500   0.07499587    -0.18848505     0             -0.12663813     0.03481147   
    458000   0.087101434   -0.19342439     0             -0.12159436    -0.077151053  
    458500   0.10675101    -0.18951562     0             -0.10148115     0.11158684   
    459000   0.094346472   -0.18819865     0             -0.11039385     0.13318761   
    459500   0.1560966     -0.19211188     0             -0.063383534   -0.029276869  
    460000   0.2043275     -0.18100082     0             -0.012497845   -0.062328567  
    460500   0.12556731    -0.17983885     0             -0.076287122   -0.27520844   
    461000   0.096185807   -0.18181414     0             -0.10249249    -0.11491614   
    461500   0.13775756    -0.1778221      0             -0.064217423    0.25228591   
    462000   0.15331106    -0.17631985     0             -0.049888656   -0.38011396   
    462500   0.15456171    -0.17678355     0             -0.049320978   -0.3623899    
    463000   0.10865747    -0.17728003     0             -0.087673359   -0.16665729   
    463500   0.14164522    -0.17607309     0             -0.059262376   -0.054349024  
    464000   0.12651911    -0.17872763     0             -0.074390982    0.28093085   
    464500   0.16712501    -0.17669413     0             -0.038870972   -0.010731907  
    465000   0.14224392    -0.17251422     0             -0.055209776    0.026206348  
    465500   0.095240714   -0.17043802     0             -0.091895761    0.42581636   
    466000   0.095372231   -0.18184634     0             -0.10319562     0.15313264   
    466500   0.10116772    -0.17321719     0             -0.089787099   -0.34861537   
    467000   0.082082763   -0.17518187     0             -0.10749059     0.025804378  
    467500   0.093978513   -0.17744449     0             -0.099943134    0.061539007  
    468000   0.11236774    -0.17852776     0             -0.085861341   -0.28882937   
    468500   0.085895046   -0.18470681     0             -0.11387165    -0.18246996   
    469000   0.11501477    -0.18385828     0             -0.08900893     0.10395176   
    469500   0.10763689    -0.18632967     0             -0.097564649   -0.078316357  
    470000   0.1378248     -0.18355936     0             -0.069899237   -0.02006561   
    470500   0.10825662    -0.18728896     0             -0.098012864   -0.13356295   
    471000   0.092444327   -0.18906899     0             -0.11283283     0.068597281  
    471500   0.0908412     -0.18715358     0             -0.11223947     0.090495886  
    472000   0.12631775    -0.18866703     0             -0.084496435    0.26404995   
    472500   0.13543676    -0.18089833     0             -0.069207556    0.1758398    
    473000   0.13676015    -0.18432494     0             -0.071542801   -0.3956296    
    473500   0.12902957    -0.1844047      0             -0.077997745    0.16970923   
    474000   0.12510202    -0.17969523     0             -0.076527208   -0.20291864   
    474500   0.12493711    -0.18043776     0             -0.077405746    0.013073298  
    475000   0.16263063    -0.17126534     0             -0.037148567    0.089915439  
    475500   0.098761208   -0.17915298     0             -0.097707474   -0.11115146   
    476000   0.10584426    -0.1818065      0             -0.094519808    0.042297955  
    476500   0.099740247   -0.18279277     0             -0.10053988    -0.3763604    
    477000   0.16300146    -0.18315154     0             -0.048728956    0.30008101   
    477500   0.10684666    -0.18280092     0             -0.094687571    0.070429492  
    478000   0.095755397   -0.18481382     0             -0.10584711     0.29327344   
    478500   0.11828336    -0.18003289     0             -0.082488031   -0.085134668  
    479000   0.11295643    -0.18318804     0             -0.090036138   -0.255581     
    479500   0.12771246    -0.1747032      0             -0.069382432   -0.12191955   
    480000   0.11356393    -0.18048129     0             -0.086828409   -0.22968696   
    480500   0.14991949    -0.16891512     0             -0.045280856   -0.10531383   
    481000   0.10357965    -0.16956064     0             -0.084141495   -0.18212278   
    481500   0.11848403    -0.17293123     0             -0.075220883    0.53250253   
    482000   0.12316112    -0.16982659     0             -0.068259187   -0.14919449   
    482500   0.11745863    -0.16558682     0             -0.068722088    0.3964315    
    483000   0.099754457   -0.16775645     0             -0.085491839   -0.12135756   
    483500   0.14810997    -0.16722984     0             -0.045087831    0.24524478   
    484000   0.1261731     -0.16277717     0             -0.058725869    0.090028149  
    484500   0.11959992    -0.17250454     0             -0.073873948   -0.20558887   
    485000   0.12538033    -0.17360641     0             -0.070208875   -0.45043494   
    485500   0.13836755    -0.1695662      0             -0.055458483    0.01316922   
    486000   0.11524369    -0.17315952     0             -0.078121385   -0.56572699   
    486500   0.13234549    -0.17205831     0             -0.062916818   -0.19783897   
    487000   0.14656328    -0.16683739     0             -0.045970902    0.18611104   
    487500   0.1504428     -0.16513604     0             -0.041070218    0.5437087    
    488000   0.13659221    -0.17061595     0             -0.057972309   -0.056951879  
    488500   0.11395256    -0.17521484     0             -0.081241458    0.16443395   
    489000   0.10580695    -0.1754882      0             -0.08823227     0.19899238   
    489500   0.1144402     -0.17802582     0             -0.083650296    0.54180845   
    490000   0.11670253    -0.16983369     0             -0.073592494   -0.06512003   
    490500   0.14229301    -0.17875914     0             -0.061414213    0.028057131  
    491000   0.15507811    -0.16946045     0             -0.041572016   -0.016124539  
    491500   0.18277645    -0.17438799     0             -0.023657544   -0.16638425   
    492000   0.16474073    -0.17147266     0             -0.035615749    0.083770568  
    492500   0.13636993    -0.17839759     0             -0.065937256    0.38417857   
    493000   0.11357949    -0.18034839     0             -0.086682678   -0.30902795   
    493500   0.1285802     -0.18615711     0             -0.080120745    0.17171897   
    494000   0.095528156   -0.18533486     0             -0.10655556    -0.43053415   
    494500   0.10330016    -0.18882532     0             -0.10363666    -0.12794578   
    495000   0.096861632   -0.19302176     0             -0.11314277    -0.11789601   
    495500   0.10991615    -0.19287387     0             -0.10222921     0.225373     
    496000   0.12654064    -0.18697365     0             -0.082619241    0.18214451   
    496500   0.093198523   -0.18683023     0             -0.1099721     -0.10935316   
    497000   0.10423901    -0.1875193      0             -0.10155641    -0.14806725   
    497500   0.09062085    -0.19061387     0             -0.11588148     0.37612784   
    498000   0.11923781    -0.18790315     0             -0.089571175   -0.084657162  
    498500   0.12509842    -0.18611551     0             -0.082950462    0.01409029   
    499000   0.10464323    -0.18491094     0             -0.098614697    0.06563121   
    499500   0.108078      -0.1907577      0             -0.1016289      0.23269433   
    500000   0.092492257   -0.19218162     0             -0.11590594     0.007619252  
    500500   0.096574539   -0.19866245     0             -0.11902022    -0.0091731925 
    501000   0.086951269   -0.19835414     0             -0.12664795     0.10888049   
    501500   0.080786666   -0.19368007     0             -0.12705764    -0.14973942   
    502000   0.11204524    -0.1989494      0             -0.10654893     0.15889408   
    502500   0.099925195   -0.19083276     0             -0.10842734    -0.12234339   
    503000   0.098828313   -0.19298592     0             -0.11148507    -0.14971057   
    503500   0.11734411    -0.19086965     0             -0.094099364    0.25454072   
    504000   0.1195385     -0.19116157     0             -0.092581632   -0.074962857  
    504500   0.14152173    -0.19325058     0             -0.076541699    0.080089164  
    505000   0.11216656    -0.1963974      0             -0.10389688    -0.35026955   
    505500   0.12290945    -0.19419743     0             -0.092837563    0.091132416  
    506000   0.12219164    -0.19380011     0             -0.093032197    0.21187095   
    506500   0.136412      -0.19547349     0             -0.082978468   -0.13162003   
    507000   0.12772342    -0.19059159     0             -0.085261783   -0.047375371  
    507500   0.11727308    -0.19219353     0             -0.095481814    0.54430667   
    508000   0.14712456    -0.19998452     0             -0.078655159   -0.12168218   
    508500   0.15252569    -0.1851417      0             -0.059358174   -0.29920223   
    509000   0.14424545    -0.18867978     0             -0.069724735    0.22464162   
    509500   0.14756868    -0.19202715     0             -0.07033153    -0.15189608   
    510000   0.14872162    -0.18492897     0             -0.062282548   -0.29616296   
    510500   0.12811441    -0.18611974     0             -0.080467492    0.34958884   
    511000   0.13924692    -0.17808686     0             -0.063253962   -0.38264572   
    511500   0.13341037    -0.17764944     0             -0.067629772    0.25579743   
    512000   0.15529628    -0.17810407     0             -0.050035729   -0.020279048  
    512500   0.10071973    -0.18240894     0             -0.099348292   -0.24804767   
    513000   0.10569066    -0.17886518     0             -0.091705153   -0.64655357   
    513500   0.14013481    -0.18173515     0             -0.066170029   -0.026613463  
    514000   0.1162338     -0.1853451      0             -0.08949045    -0.51210749   
    514500   0.11318839    -0.18409735     0             -0.090754163    0.18255424   
    515000   0.10679112    -0.18781614     0             -0.099748596   -0.20692349   
    515500   0.11853021    -0.187421       0             -0.089672567    0.40591701   
    516000   0.13001887    -0.18069976     0             -0.073476959   -0.033948106  
    516500   0.1509895     -0.18246083     0             -0.057944164    0.23114099   
    517000   0.12874271    -0.17798658     0             -0.071816195    0.2390299    
    517500   0.13695158    -0.18012037     0             -0.067180369   -0.091704167  
    518000   0.10507894    -0.18136502     0             -0.094709459   -0.067681914  
    518500   0.11870356    -0.18656079     0             -0.088669399   -0.31945859   
    519000   0.14854796    -0.18413303     0             -0.061629823    0.038855809  
    519500   0.17862441    -0.17822125     0             -0.030914875    0.0062614124 
    520000   0.13911456    -0.18222023     0             -0.067496476    0.027093914  
    520500   0.1248885     -0.18763293     0             -0.084640991    0.47191998   
    521000   0.134061      -0.17375062     0             -0.063194396    0.13508656   
    521500   0.16382821    -0.18474817     0             -0.049643788   -0.018490176  
    522000   0.13789098    -0.18030744     0             -0.066592746   -0.033073683  
    522500   0.089899317   -0.18654635     0             -0.11240898     0.22226043   
    523000   0.16376522    -0.1827579      0             -0.047705469   -0.10626597   
    523500   0.22157937    -0.18030496     0              0.0024251373  -0.13130534   
    524000   0.1444017     -0.17154808     0             -0.05246418    -0.026536689  
    524500   0.1555113     -0.17478843     0             -0.046542757   -0.24758864   
    525000   0.14104287    -0.17253763     0             -0.056223661   -0.49754031   
    525500   0.17436901    -0.17426184     0             -0.030464764    0.34373492   
    526000   0.096483666   -0.18031665     0             -0.10074936     0.38335363   
    526500   0.10244703    -0.18344315     0             -0.098958052    0.020652694  
    527000   0.11122988    -0.18973731     0             -0.09800925     0.020444618  
    527500   0.12094676    -0.1864641      0             -0.086722803    0.064204998  
    528000   0.098062619   -0.18780467     0             -0.10693527     0.26228251   
    528500   0.14587318    -0.18456588     0             -0.064268493   -0.044079725  
    529000   0.13844341    -0.18476728     0             -0.070597007   -0.51473681   
    529500   0.1744798     -0.18097141     0             -0.037082971   -0.015490737  
    530000   0.14529226    -0.18396659     0             -0.064148276   -0.18012      
    530500   0.13957711    -0.18109479     0             -0.065989587    0.3268349    
    531000   0.14309677    -0.18372122     0             -0.065713449    0.24301204   
    531500   0.21204673    -0.18033649     0             -0.0054676897   0.19193678   
    532000   0.15175669    -0.18357227     0             -0.058422922    0.51084567   
    532500   0.10651259    -0.19105561     0             -0.10321775    -0.036541363  
    533000   0.13146235    -0.18597149     0             -0.077558295   -0.10833985   
    533500   0.10440051    -0.17904209     0             -0.09294601     0.13564419   
    534000   0.0968992     -0.187444       0             -0.10753404     0.10700674   
    534500   0.13660045    -0.17693382     0             -0.064283382    0.40634962   
    535000   0.11040605    -0.18821517     0             -0.097166498   -0.49168944   
    535500   0.16071       -0.18590571     0             -0.053372824    0.27559637   
    536000   0.11937864    -0.1782177      0             -0.079769586   -0.22230801   
    536500   0.12454411    -0.18190667     0             -0.079198748    0.082141593  
    537000   0.089236468   -0.18997977     0             -0.11638904    -0.28678003   
    537500   0.12828765    -0.18991242     0             -0.084117306    0.010803276  
    538000   0.089065536   -0.18753355     0             -0.11408378     0.1437633    
    538500   0.12025366    -0.19403695     0             -0.094867234   -0.080621886  
    539000   0.14691764    -0.18948627     0             -0.068327549    0.19517768   
    539500   0.1393684     -0.19290842     0             -0.077975332    0.25702881   
    540000   0.13260428    -0.19533523     0             -0.085980318    0.22019233   
    540500   0.12026294    -0.19134543     0             -0.092168065    0.26147247   
    541000   0.16345551    -0.188361       0             -0.053563975   -0.24045272   
    541500   0.15317444    -0.18938182     0             -0.063063293    0.013577104  
    542000   0.14452527    -0.19358498     0             -0.074399172   -0.67306414   
    542500   0.15150821    -0.1852972      0             -0.06035276    -0.28122242   
    543000   0.15338493    -0.18643323     0             -0.059941116    0.0029387003 
    543500   0.14060184    -0.18343044     0             -0.067480174   -0.071386596  
    544000   0.1486139     -0.18678496     0             -0.064227381   -0.56901522   
    544500   0.15488016    -0.18365587     0             -0.055930684    0.048263814  
    545000   0.1694726     -0.17980893     0             -0.040049777   -0.90294363   
    545500   0.15657243    -0.17213925     0             -0.043018504   -0.191498     
    546000   0.16415762    -0.17277462     0             -0.037398588   -0.1052313    
    546500   0.1338796     -0.17050747     0             -0.060100838   -0.28255743   
    547000   0.13022994    -0.17511337     0             -0.067716504   -0.15983212   
    547500   0.13458457    -0.1784596      0             -0.0674716      0.13154164   
    548000   0.15099916    -0.17117698     0             -0.046652351    0.046927717  
    548500   0.1121396     -0.1815588      0             -0.089080515   -0.62236426   
    549000   0.1312199     -0.17912796     0             -0.070914706   -0.067433448  
    549500   0.13574153    -0.17638812     0             -0.064446006    0.58352008   
    550000   0.17561855    -0.16773621     0             -0.022908672    0.030494641  
    550500   0.17903563    -0.1734788      0             -0.025833294   -0.42446086   
    551000   0.14470935    -0.17592291     0             -0.056585304   -0.0015845406 
    551500   0.13009198    -0.16971469     0             -0.062431601   -0.059677373  
    552000   0.13751793    -0.18025821     0             -0.06685115     0.37712086   
    552500   0.17951128    -0.16854278     0             -0.020505029    0.098964057  
    553000   0.12623524    -0.16919364     0             -0.065091091   -0.28137865   
    553500   0.12373201    -0.17303167     0             -0.070993459    0.2458528    
    554000   0.10903716    -0.17678455     0             -0.086864763    0.14399679   
    554500   0.10944375    -0.17521951     0             -0.084964418   -0.29652354   
    555000   0.12786066    -0.17321515     0             -0.067772161    0.33014928   
    555500   0.10279019    -0.18038876     0             -0.09562067     0.049151573  
    556000   0.089200018   -0.18663487     0             -0.1130742      0.174599     
    556500   0.095335783   -0.18375901     0             -0.10513835     0.3328271    
    557000   0.084760015   -0.18814246     0             -0.11824332    -0.2936878    
    557500   0.11244118    -0.19028651     0             -0.097559525    0.05533889   
    558000   0.090313306   -0.18980463     0             -0.11532586     0.069778378  
    558500   0.12646522    -0.19542253     0             -0.091130319    0.15408714   
    559000   0.13561299    -0.18363177     0             -0.071795666   -0.30042805   
    559500   0.14925353    -0.18051276     0             -0.057427699    0.075036815  
    560000   0.17475761    -0.18763968     0             -0.043522141   -0.13069612   
    560500   0.17861707    -0.18145774     0             -0.034157416    0.20549635   
    561000   0.16309104    -0.18202503     0             -0.047528566   -0.21472848   
    561500   0.17053509    -0.18084635     0             -0.040210996    0.12674598   
    562000   0.15402756    -0.18745047     0             -0.060428402   -0.19768668   
    562500   0.12737502    -0.18350189     0             -0.078459396    0.03140662   
    563000   0.12284126    -0.18750591     0             -0.08620228    -0.16049422   
    563500   0.16686652    -0.18443754     0             -0.046827554    0.073089078  
    564000   0.19119032    -0.17997697     0             -0.022307852   -0.3361915    
    564500   0.12287853    -0.18212041     0             -0.080786037   -0.54847527   
    565000   0.13747061    -0.17802895     0             -0.064660917   -0.66198421   
    565500   0.15126102    -0.18256032     0             -0.057819729   -0.00030157041
    566000   0.12342214    -0.18141878     0             -0.079636108   -0.18474561   
    566500   0.11549333    -0.18331787     0             -0.088073865    0.053804094  
    567000   0.11737028    -0.18439514     0             -0.087603263   -0.13279075   
    567500   0.091058334   -0.18784307     0             -0.11274989    -0.27304954   
    568000   0.068829284   -0.19275925     0             -0.13599773     0.41345143   
    568500   0.10676606    -0.19382727     0             -0.10578039    -0.20245112   
    569000   0.11942809    -0.19528967     0             -0.096800781    0.44310002   
    569500   0.12293068    -0.19465069     0             -0.093273312    0.20659415   
    570000   0.10984       -0.19719385     0             -0.10661198     0.044658046  
    570500   0.14243104    -0.18722399     0             -0.069765235    0.065549123  
    571000   0.12672793    -0.1935824      0             -0.089073543    0.33368726   
    571500   0.12007356    -0.19592139     0             -0.096900201   -0.11341498   
    572000   0.1343003     -0.19018721     0             -0.079433639   -0.24893745   
    572500   0.12045636    -0.19288279     0             -0.093545918   -0.07151843   
    573000   0.10610766    -0.19313137     0             -0.10562746     0.18483671   
    573500   0.18613716    -0.191247       0             -0.037745067    0.46471201   
    574000   0.18750364    -0.19733983     0             -0.042711005   -0.16773553   
    574500   0.13985115    -0.19088478     0             -0.07555358    -0.33085709   
    575000   0.16165407    -0.18696643     0             -0.053655005    0.37487064   
    575500   0.17374809    -0.1871198      0             -0.043834779   -0.43200371   
    576000   0.14648249    -0.1873841      0             -0.066584231   -0.11109496   
    576500   0.14633204    -0.19183913     0             -0.071163328    0.10115321   
    577000   0.10709526    -0.19702143     0             -0.10870306    -0.10358297   
    577500   0.11783368    -0.19495293     0             -0.09777891    -0.062947998  
    578000   0.14882825    -0.19333732     0             -0.070602973    0.15374447   
    578500   0.14115276    -0.18411984     0             -0.067715246   -0.070134374  
    579000   0.17892589    -0.18493283     0             -0.037377827   -0.073584064  
    579500   0.1822587     -0.19213469     0             -0.041831213   -0.19922773   
    580000   0.14308152    -0.18742453     0             -0.069429336   -0.24767205   
    580500   0.15160774    -0.18740179     0             -0.06237528     0.13764707   
    581000   0.13306567    -0.18854899     0             -0.078813586   -0.26041994   
    581500   0.10829989    -0.18576705     0             -0.096455261   -0.0095353375 
    582000   0.10884913    -0.19120844     0             -0.10144372    -0.15411776   
    582500   0.14043949    -0.17817443     0             -0.062358046   -0.12606943   
    583000   0.11253372    -0.18310797     0             -0.090304665    0.1076558    
    583500   0.1428653     -0.19034641     0             -0.072529539   -0.10207625   
    584000   0.17072555    -0.17840311     0             -0.037610688   -0.13656141   
    584500   0.14778406    -0.1793977      0             -0.057524459    0.066095266  
    585000   0.16647483    -0.18582915     0             -0.048542183    0.065041527  
    585500   0.14846253    -0.18305033     0             -0.060617575   -0.025915057  
    586000   0.12964907    -0.17748633     0             -0.070568489   -0.19844109   
    586500   0.12646212    -0.17823102     0             -0.073941376   -0.0147068    
    587000   0.10962593    -0.18220475     0             -0.091799423    0.38796944   
    587500   0.10120778    -0.18434935     0             -0.10088622    -0.12568974   
    588000   0.099596166   -0.18732012     0             -0.10518605    -0.14122582   
    588500   0.12169497    -0.1927879      0             -0.092429586   -0.0082292682 
    589000   0.13419892    -0.1876307      0             -0.076960743    0.08441699   
    589500   0.13482333    -0.19177831     0             -0.080593409   -0.22484668   
    590000   0.16929971    -0.18503981     0             -0.04542324    -0.39126376   
    590500   0.15040378    -0.18115793     0             -0.057124287    0.062265588  
    591000   0.1452073     -0.18468335     0             -0.064935094   -0.6017956    
    591500   0.18123227    -0.17518439     0             -0.025727387   -0.59987449   
    592000   0.15837074    -0.17278162     0             -0.042177855    0.45062931   
    592500   0.17363363    -0.17245479     0             -0.029264166    0.22854719   
    593000   0.13961557    -0.17640814     0             -0.061271222    0.25178066   
    593500   0.11184252    -0.18106096     0             -0.08882767     0.17437283   
    594000   0.12945971    -0.18384904     0             -0.07708737     0.40380613   
    594500   0.11234348    -0.18197597     0             -0.08932956     0.31182451   
    595000   0.1491824     -0.17733364     0             -0.054307233    0.1689213    
    595500   0.15886086    -0.18000966     0             -0.049001702    0.15886856   
    596000   0.12664247    -0.18237994     0             -0.077941559   -0.14584869   
    596500   0.10114408    -0.1855114      0             -0.1021008      0.0069477691 
    597000   0.12660075    -0.18707362     0             -0.082669647    0.019552619  
    597500   0.1739913     -0.1754128      0             -0.031927215   -0.093076952  
    598000   0.15400932    -0.17684728     0             -0.049840257   -0.52543667   
    598500   0.12054248    -0.18423569     0             -0.084827799   -0.009752104  
    599000   0.13956847    -0.18396095     0             -0.068862873    0.13739307   
    599500   0.11800048    -0.18034526     0             -0.08303368    -0.24201502   
    600000   0.14535274    -0.18294948     0             -0.063081289    0.25969044   
    600500   0.13950994    -0.17497983     0             -0.059930023   -0.30696601   
    601000   0.1168637     -0.17666828     0             -0.08029417     0.11038008   
    601500   0.1196726     -0.18035695     0             -0.081666422    0.005587601  
    602000   0.11250898    -0.17672952     0             -0.083946628   -0.48641366   
    602500   0.14930736    -0.17760258     0             -0.054473128   -0.014079694  
    603000   0.10556658    -0.17785872     0             -0.090801012    0.15605206   
    603500   0.11731482    -0.17222143     0             -0.075475296    0.049661029  
    604000   0.1157277     -0.18708153     0             -0.091644247   -0.5324539    
    604500   0.12261146    -0.18278972     0             -0.081675601    0.10232691   
    605000   0.12983053    -0.18003481     0             -0.072967326   -0.050261432  
    605500   0.11884615    -0.18129828     0             -0.083289301   -0.27524806   
    606000   0.17260274    -0.17974554     0             -0.03740505     0.42089406   
    606500   0.15482851    -0.18647964     0             -0.05879705     0.12080542   
    607000   0.1657892     -0.18207233     0             -0.045350781    0.31130927   
    607500   0.14505113    -0.17515234     0             -0.055532871    0.059191874  
    608000   0.1372671     -0.18635335     0             -0.073153147    0.23152265   
    608500   0.11543522    -0.18143141     0             -0.086235332    0.13505024   
    609000   0.12585186    -0.18171425     0             -0.077927861   -0.094341078  
    609500   0.15398921    -0.18306819     0             -0.056077743   -0.081825882  
    610000   0.14857591    -0.17987904     0             -0.057352788   -0.58921129   
    610500   0.13173385    -0.17568455     0             -0.067047456   -0.21394356   
    611000   0.12315509    -0.17889278     0             -0.07733034     0.32674245   
    611500   0.097647671   -0.18627066     0             -0.10574345     0.015289729  
    612000   0.13525324    -0.18987758     0             -0.078338154    0.24944765   
    612500   0.15074295    -0.1864828      0             -0.062169454   -0.76496601   
    613000   0.15532868    -0.18211729     0             -0.054022221   -0.2414569    
    613500   0.16274433    -0.18445821     0             -0.050247675   -0.095827183  
    614000   0.14404465    -0.18754211     0             -0.068752658    0.077759709  
    614500   0.14019791    -0.18167196     0             -0.066054807    0.2365455    
    615000   0.15431298    -0.18168986     0             -0.054432415    0.55448715   
    615500   0.14767818    -0.17867534     0             -0.056889417   -0.3172994    
    616000   0.13779188    -0.17211077     0             -0.058477797    0.083854895  
    616500   0.11484174    -0.17514501     0             -0.080438356   -0.17240458   
    617000   0.10768243    -0.17606353     0             -0.087260947   -0.15136677   
    617500   0.15012503    -0.17766203     0             -0.053858262    0.25118654   
    618000   0.12550645    -0.17601511     0             -0.072513578    0.16852112   
    618500   0.11467413    -0.1769106      0             -0.082342165    0.54317066   
    619000   0.12338264    -0.17960995     0             -0.077859863    0.26253413   
    619500   0.11611324    -0.18518412     0             -0.089428888   -0.32445965   
    620000   0.098838994   -0.1854725      0             -0.10396284     0.07828247   
    620500   0.11533153    -0.18321312     0             -0.08810255    -0.35629553   
    621000   0.14075268    -0.18371354     0             -0.067638877   -0.33788732   
    621500   0.12106504    -0.18681008     0             -0.086971239   -0.088309499  
    622000   0.14107986    -0.18883667     0             -0.072492197   -0.47809721   
    622500   0.10371743    -0.18666605     0             -0.10113329     0.32130759   
    623000   0.1263887     -0.18346462     0             -0.079235518    0.009587712  
    623500   0.1236146     -0.19150581     0             -0.089564428   -0.1640134    
    624000   0.13373364    -0.18481391     0             -0.074527653   -0.60175834   
    624500   0.15513572    -0.18359413     0             -0.055658195    0.11479859   
    625000   0.12821715    -0.18225634     0             -0.076519365   -0.46635497   
    625500   0.1241836     -0.18454662     0             -0.082136       0.055210481  
    626000   0.12323831    -0.18028514     0             -0.078654072   -0.12947037   
    626500   0.14866083    -0.17735577     0             -0.05475949    -0.09792585   
    627000   0.13194781    -0.17954967     0             -0.070736136   -0.41392224   
    627500   0.16260454    -0.17599587     0             -0.041900612   -0.28457417   
    628000   0.12299612    -0.18343244     0             -0.082001102   -0.21389128   
    628500   0.104793      -0.17903521     0             -0.092615458    0.32910293   
    629000   0.099952289   -0.18445542     0             -0.10202766     0.11965708   
    629500   0.14551086    -0.18474721     0             -0.064748618    0.027433984  
    630000   0.13653042    -0.18391835     0             -0.07132566    -0.19395291   
    630500   0.14284957    -0.18350564     0             -0.065701729    0.25085324   
    631000   0.12158935    -0.18434938     0             -0.084078163   -0.058976074  
    631500   0.11729083    -0.18121312     0             -0.084486764   -1.0093875    
    632000   0.16480125    -0.17975067     0             -0.043843852    0.31150664   
    632500   0.17993179    -0.17230712     0             -0.023922578   -0.18001362   
    633000   0.16722026    -0.17383082     0             -0.035929121   -0.092101594  
    633500   0.15777627    -0.16595497     0             -0.035841445   -0.035741793  
    634000   0.17961786    -0.17189021     0             -0.023764567    0.25450352   
    634500   0.19275516    -0.16739289     0             -0.0084332915  -0.12772807   
    635000   0.19305142    -0.16995077     0             -0.010746852    0.21399357   
    635500   0.16369548    -0.16949116     0             -0.03449623    -0.532092     
    636000   0.1502187     -0.16593045     0             -0.042049436    0.15478993   
    636500   0.15311013    -0.16378261     0             -0.037517118    0.10277857   
    637000   0.10788369    -0.17015745     0             -0.081188893    0.27721783   
    637500   0.10943368    -0.17596418     0             -0.085717392    0.18075638   
    638000   0.1016149     -0.1763801      0             -0.092581238    0.0075312493 
    638500   0.14851097    -0.17611573     0             -0.05364303    -0.12799871   
    639000   0.16628801    -0.1722364      0             -0.035103485    0.078740945  
    639500   0.20731074    -0.17343778     0             -0.0024746099  -0.097837184  
    640000   0.15489566    -0.1698861      0             -0.042148138   -0.33257617   
    640500   0.15327135    -0.17111185     0             -0.044713406   -0.22551864   
    641000   0.16962103    -0.1724793      0             -0.032597748    0.020683892  
    641500   0.20174699    -0.16662453     0             -0.00024962391  0.36433596   
    642000   0.13867419    -0.16485487     0             -0.050494278    0.061748987  
    642500   0.14174961    -0.16477674     0             -0.047879946    0.39651231   
    643000   0.14777241    -0.16866555     0             -0.046801918   -0.32892922   
    643500   0.12666588    -0.17474756     0             -0.070289878   -0.22864745   
    644000   0.085310137   -0.17711686     0             -0.10676406     0.62536746   
    644500   0.12982974    -0.1808073      0             -0.073740474   -0.2399449    
    645000   0.17018549    -0.17834026     0             -0.03799321     0.3691777    
    645500   0.1211665     -0.17748801     0             -0.077565511    0.46872669   
    646000   0.097256685   -0.18325001     0             -0.10304523    -0.17655612   
    646500   0.12011473    -0.17648398     0             -0.077428845   -0.57869315   
    647000   0.093408476   -0.18550934     0             -0.10847807     0.24398751   
    647500   0.11039768    -0.18563069     0             -0.094588921    0.099798441  
    648000   0.12562635    -0.18660725     0             -0.083006836   -0.26664056   
    648500   0.11844993    -0.18961414     0             -0.09193192     0.34869238   
    649000   0.11492943    -0.19070354     0             -0.095924572   -0.53714029   
    649500   0.14786554    -0.19264689     0             -0.07070646    -0.67004768   
    650000   0.12652513    -0.18868239     0             -0.084340778    0.02613885   
    650500   0.11108845    -0.19340476     0             -0.10179333    -0.026548408  
    651000   0.11938541    -0.18752541     0             -0.089071717    0.096906382  
    651500   0.12449609    -0.19681362     0             -0.094145301   -0.22141127   
    652000   0.11661936    -0.19566331     0             -0.0994907      0.11093876   
    652500   0.14056473    -0.19731637     0             -0.081396702    0.0015673922 
    653000   0.1111452     -0.19203494     0             -0.10037671     0.30981916   
    653500   0.10994425    -0.19201774     0             -0.1013499      0.038999028  
    654000   0.084966169   -0.19750109     0             -0.12743195    -0.254355     
    654500   0.11096643    -0.19797154     0             -0.10646074    -0.064031046  
    655000   0.1012524     -0.19648134     0             -0.11298142    -0.13716136   
    655500   0.083419616   -0.20310255     0             -0.1343088     -0.36442729   
    656000   0.12986753    -0.20614492     0             -0.099046921   -0.42356079   
    656500   0.15235551    -0.19928495     0             -0.073641767    0.11608662   
    657000   0.14576561    -0.19850402     0             -0.078295334    0.034240888  
    657500   0.13297701    -0.19478469     0             -0.085122399    0.18305695   
    658000   0.13672328    -0.18423026     0             -0.071478525    0.33527667   
    658500   0.15481108    -0.1934667      0             -0.065798484    0.15468748   
    659000   0.1839071     -0.18767392     0             -0.036011062   -0.53880413   
    659500   0.15709493    -0.18317062     0             -0.053618983   -0.083885233  
    660000   0.19200051    -0.18167846     0             -0.023341199   -0.19521742   
    660500   0.19983639    -0.18541302     0             -0.020613732    0.28168483   
    661000   0.12999951    -0.18829101     0             -0.081084176   -0.10459165   
    661500   0.12379972    -0.18355716     0             -0.081463116   -0.16872325   
    662000   0.10777015    -0.18647981     0             -0.097604889    0.14746309   
    662500   0.11090089    -0.19257475     0             -0.101118       0.34443613   
    663000   0.11819648    -0.18523412     0             -0.087760905    0.51373123   
    663500   0.13756749    -0.19317078     0             -0.079722852   -0.171102     
    664000   0.16974925    -0.18639105     0             -0.046403753    0.29871877   
    664500   0.16393738    -0.17921246     0             -0.044018048    0.0065700076 
    665000   0.14463543    -0.17988097     0             -0.060604317   -0.42972943   
    665500   0.17852659    -0.18164897     0             -0.034423263    0.20540463   
    666000   0.22930686    -0.17999265     0              0.0091100748   0.0057862137 
    666500   0.18712535    -0.1708157      0             -0.016498837    0.10219476   
    667000   0.14974396    -0.17711899     0             -0.053629481   -0.20024327   
    667500   0.15243479    -0.17713743     0             -0.051428877    0.12472526   
    668000   0.16865051    -0.17931281     0             -0.040231613   -0.33329583   
    668500   0.15261875    -0.18144739     0             -0.05558712    -0.13357389   
    669000   0.19596218    -0.17491441     0             -0.013310068    0.010714429  
    669500   0.11520221    -0.1812851      0             -0.086281174   -0.0083318105 
    670000   0.16298172    -0.18213598     0             -0.047729679    0.17227754   
    670500   0.14662124    -0.18724015     0             -0.066325855    0.03507166   
    671000   0.1150279     -0.18405584     0             -0.08919566    -0.075293755  
    671500   0.099554309   -0.19057976     0             -0.1084802     -0.11989974   
    672000   0.16865274    -0.18021143     0             -0.041128401   -0.90641057   
    672500   0.14804635    -0.18545319     0             -0.063363649   -0.10427845   
    673000   0.13708413    -0.18292151     0             -0.069872191   -0.031760866  
    673500   0.13597946    -0.17431144     0             -0.062173114   -0.58956462   
    674000   0.15402591    -0.17878033     0             -0.051759615    0.071480385  
    674500   0.14011987    -0.17794207     0             -0.062389267   -0.37089726   
    675000   0.12788647    -0.17763582     0             -0.072171548    0.30474322   
    675500   0.11922716    -0.18101008     0             -0.082686891    0.45665997   
    676000   0.13147447    -0.18076618     0             -0.07234299     0.20960489   
    676500   0.15662485    -0.1733146      0             -0.04415062    -0.48085171   
    677000   0.12983538    -0.17634115     0             -0.06926967     0.21108859   
    677500   0.16529907    -0.17377103     0             -0.037453677   -0.10035301   
    678000   0.12534272    -0.17925744     0             -0.075890928   -0.64122015   
    678500   0.17422109    -0.17699043     0             -0.033315339    0.049815162  
    679000   0.14919798    -0.16811022     0             -0.045070961    0.27512165   
    679500   0.16639548    -0.16979334     0             -0.0325718     -0.19086391   
    680000   0.18734422    -0.17256248     0             -0.018065121    0.17722891   
    680500   0.12193362    -0.17219049     0             -0.07163536     0.058223381  
    681000   0.11852848    -0.1766743      0             -0.078927292   -0.040678345  
    681500   0.099761318   -0.18868491     0             -0.10641464     0.076431589  
    682000   0.11866457    -0.18611343     0             -0.088254193   -0.2618901    
    682500   0.10285084    -0.18834277     0             -0.10352466    -0.37205963   
    683000   0.15834433    -0.18265375     0             -0.052071762    0.34822519   
    683500   0.12204905    -0.18248721     0             -0.081836897   -0.2488787    
    684000   0.11437165    -0.1777619      0             -0.083442917    0.094875284  
    684500   0.12369156    -0.18229788     0             -0.080293029   -0.015455138  
    685000   0.14398127    -0.1829608      0             -0.064223614   -0.21136106   
    685500   0.14115416    -0.18614932     0             -0.069743567    0.24847003   
    686000   0.12534349    -0.19086361     0             -0.087496468    0.12333793   
    686500   0.14672952    -0.18391123     0             -0.062907643   -0.28424012   
    687000   0.098110189   -0.18829847     0             -0.10738984    -0.3097317    
    687500   0.096816304   -0.19349253     0             -0.11365093    -0.45104487   
    688000   0.15824407    -0.19089007     0             -0.060390763    0.19402823   
    688500   0.13871853    -0.18662532     0             -0.072228163   -0.041538492  
    689000   0.12737649    -0.18626696     0             -0.081223248    0.093200038  
    689500   0.10693147    -0.1876749      0             -0.099491617    0.082509584  
    690000   0.1169622     -0.18247368     0             -0.086018342   -0.36707095   
    690500   0.12341632    -0.18697464     0             -0.085196779    0.11310359   
    691000   0.12028958    -0.19361612     0             -0.094416781   -0.1739882    
    691500   0.1021782     -0.19450245     0             -0.11023905    -0.10807614   
    692000   0.09135184    -0.195985       0             -0.12064978    -0.17717592   
    692500   0.14550811    -0.19216501     0             -0.072168684   -0.31216977   
    693000   0.17377739    -0.19513454     0             -0.051825358   -0.47994601   
    693500   0.17522345    -0.18681062     0             -0.04230891     0.24124115   
    694000   0.13659868    -0.18390348     0             -0.071254502   -0.050160886  
    694500   0.10808321    -0.1956304      0             -0.10649731    -0.22325458   
    695000   0.15163759    -0.19130581     0             -0.066254683   -0.13206389   
    695500   0.15092968    -0.18885287     0             -0.064385535    0.56638829   
    696000   0.17908909    -0.19232858     0             -0.044638986    0.49763066   
    696500   0.16964       -0.1915915      0             -0.051694306   -0.35627908   
    697000   0.10555588    -0.19026408     0             -0.1032152     -0.17424972   
    697500   0.12496897    -0.19481752     0             -0.091759221    0.057667686  
    698000   0.1646899     -0.18406022     0             -0.048245226   -0.27399393   
    698500   0.18033118    -0.18343508     0             -0.034721178   -0.13231505   
    699000   0.14488953    -0.18225035     0             -0.062764152   -0.48075251   
    699500   0.13210623    -0.17849904     0             -0.069554851    0.10125704   
    700000   0.1284709     -0.19068625     0             -0.084740019   -0.36205883   
    700500   0.11737432    -0.19127329     0             -0.094478086   -0.025274637  
    701000   0.13207058    -0.18577774     0             -0.076862957   -0.1172297    
    701500   0.12418346    -0.19600571     0             -0.09359521     0.26333424   
    702000   0.12358217    -0.1915873      0             -0.089672657    0.52324708   
    702500   0.13991271    -0.19271948     0             -0.077337524   -0.25395178   
    703000   0.12586743    -0.1931196      0             -0.089320378    0.066579546  
    703500   0.16063215    -0.18679793     0             -0.054329245   -0.40199138   
    704000   0.16034359    -0.18550233     0             -0.053271608    0.13396572   
    704500   0.14501127    -0.18257499     0             -0.06298839    -0.18960852   
    705000   0.14894901    -0.1843382      0             -0.061504268   -0.3343919    
    705500   0.12687022    -0.18497801     0             -0.080351815    0.1057083    
    706000   0.18531202    -0.18314785     0             -0.03032639    -0.52883077   
    706500   0.13649715    -0.18708554     0             -0.074520294   -0.36752118   
    707000   0.14938734    -0.18986595     0             -0.066670536    0.14923136   
    707500   0.12004514    -0.1927388      0             -0.093741051    0.098684516  
    708000   0.16298253    -0.18323574     0             -0.048828768   -0.012730872  
    708500   0.18283373    -0.17605894     0             -0.025281253   -0.3410864    
    709000   0.19444233    -0.17855514     0             -0.018204185    0.034033711  
    709500   0.18547285    -0.18660999     0             -0.033655895    0.42930497   
    710000   0.19407966    -0.18246904     0             -0.022417158   -0.019478436  
    710500   0.15214858    -0.18089823     0             -0.055425695    0.10287575   
    711000   0.098265637   -0.18236164     0             -0.10132482    -0.037249597  
    711500   0.082695816   -0.18783839     0             -0.11964154     0.21604623   
    712000   0.1377408     -0.18899491     0             -0.075404065    0.098255175  
    712500   0.18292193    -0.1782949      0             -0.027444475   -0.56278572   
    713000   0.17622005    -0.17955596     0             -0.034232388    0.16173835   
    713500   0.15022487    -0.17559074     0             -0.051704644   -0.01408112   
    714000   0.15316346    -0.17821896     0             -0.051909484   -0.25164959   
    714500   0.1816295     -0.17249689     0             -0.022712296    0.011127883  
    715000   0.16986182    -0.1679558      0             -0.027875674    0.59489862   
    715500   0.14544461    -0.1703255      0             -0.050381533    0.025150225  
    716000   0.15140734    -0.1827174      0             -0.057856148    0.07319517   
    716500   0.16286121    -0.17168636     0             -0.037379438   -0.21720392   
    717000   0.13141352    -0.17620252     0             -0.067829596   -0.0013683505 
    717500   0.15951096    -0.17523934     0             -0.043695266   -0.14061331   
    718000   0.13277687    -0.18233338     0             -0.072836139    0.065116401  
    718500   0.12307186    -0.18084698     0             -0.079353177   -0.41819659   
    719000   0.10256731    -0.18434745     0             -0.099763164   -0.2854076    
    719500   0.14033879    -0.18239935     0             -0.066666011    0.076685874  
    720000   0.15951776    -0.18110196     0             -0.049552282   -0.072677549  
    720500   0.14355421    -0.18987607     0             -0.071491071   -0.09697413   
    721000   0.13607015    -0.18546743     0             -0.073254314    0.098135228  
    721500   0.12508468    -0.19334553     0             -0.090191818   -0.069022238  
    722000   0.15783929    -0.1779194      0             -0.047753902    0.13395807   
    722500   0.17327196    -0.18849839     0             -0.045606018   -0.32793473   
    723000   0.16818146    -0.18499387     0             -0.046299485    0.37878373   
    723500   0.10350403    -0.19238989     0             -0.10703311    -0.15492264   
    724000   0.14129461    -0.19592526     0             -0.079403686    0.090807016  
    724500   0.13895526    -0.18710293     0             -0.072510557   -0.14234593   
    725000   0.16349629    -0.19146615     0             -0.056635493   -0.078213679  
    725500   0.19703814    -0.18048707     0             -0.017995424    0.36180173   
    726000   0.16923871    -0.18614508     0             -0.046578816    0.41509282   
    726500   0.1574017     -0.18647165     0             -0.056667028   -0.15418787   
    727000   0.18021645    -0.18229585     0             -0.033676563    0.38967778   
    727500   0.15610395    -0.1786828      0             -0.04994839    -0.63507071   
    728000   0.14356128    -0.18004908     0             -0.06165825     0.09916737   
    728500   0.13757515    -0.18341768     0             -0.069963439   -0.35843658   
    729000   0.10496089    -0.18960612     0             -0.10304791    -0.20562255   
    729500   0.13952376    -0.19014159     0             -0.075080381    0.24896694   
    730000   0.15094933    -0.18593304     0             -0.061449503   -0.095653171  
    730500   0.13513287    -0.18729013     0             -0.075849964   -0.74290541   
    731000   0.096308774   -0.18925761     0             -0.10983455    -0.15294341   
    731500   0.12324936    -0.19113025     0             -0.089490067    0.37559952   
    732000   0.12432392    -0.1881189      0             -0.085592556    0.13865684   
    732500   0.14258735    -0.18818985     0             -0.070602185    0.207843     
    733000   0.13083105    -0.19018721     0             -0.082294631   -0.14742458   
    733500   0.16502605    -0.18383416     0             -0.047741949   -0.28099845   
    734000   0.13347848    -0.18839197     0             -0.07831613    -0.13590392   
    734500   0.12966164    -0.186131       0             -0.079202796   -0.39115352   
    735000   0.12406675    -0.18329697     0             -0.080982711   -0.29941622   
    735500   0.12903317    -0.18632014     0             -0.079910224   -0.029306524  
    736000   0.155207      -0.18336365     0             -0.055368933   -0.066666738  
    736500   0.11365111    -0.18699484     0             -0.093270067   -0.11212886   
    737000   0.11538408    -0.18951123     0             -0.094357326   -0.047277083  
    737500   0.13181811    -0.18307913     0             -0.074372552   -0.45007053   
    738000   0.16309591    -0.1800685      0             -0.045568029    0.27324955   
    738500   0.12732804    -0.1709741      0             -0.065970353    0.19013226   
    739000   0.12925199    -0.18491084     0             -0.078320471    0.66957328   
    739500   0.15349228    -0.17778434     0             -0.051203701   -0.09144206   
    740000   0.14233653    -0.17765665     0             -0.060275832    0.23161558   
    740500   0.16263507    -0.17400948     0             -0.039889042    0.1207338    
    741000   0.12115519    -0.18361837     0             -0.083705191   -0.15483916   
    741500   0.14694473    -0.18116081     0             -0.059979743    0.10331677   
    742000   0.17704527    -0.17453812     0             -0.028534016   -0.16845029   
    742500   0.16244618    -0.174935       0             -0.040970337    0.62031657   
    743000   0.13559546    -0.18139448     0             -0.069572837    0.012886715  
    743500   0.12070269    -0.17934908     0             -0.079809057   -0.32823796   
    744000   0.15605168    -0.18722311     0             -0.058531803    0.18192468   
    744500   0.1676811     -0.17543235     0             -0.037150601   -0.0093432619 
    745000   0.1579872     -0.16976537     0             -0.039477897   -0.38512533   
    745500   0.15262453    -0.17526038     0             -0.049395347    0.11734055   
    746000   0.14962815    -0.18176508     0             -0.058371073   -0.0096550971 
    746500   0.17810233    -0.18338124     0             -0.0365054     -0.069143531  
    747000   0.17341114    -0.17310623     0             -0.030099083    0.5084544    
    747500   0.16083975    -0.17755164     0             -0.044911751   -0.53378149   
    748000   0.13242028    -0.18035352     0             -0.071150348    0.17414277   
    748500   0.1358368     -0.17835089     0             -0.066330209    0.18494407   
    749000   0.11416332    -0.18975815     0             -0.095610963   -0.010819124  
    749500   0.11690326    -0.18637421     0             -0.089967479   -0.055346083  
    750000   0.14542027    -0.18168749     0             -0.061763607   -0.13848913   
    750500   0.15177631    -0.18683553     0             -0.061670004   -0.25702481   
    751000   0.18184497    -0.1775902      0             -0.02762792     0.14209287   
    751500   0.15621794    -0.18029847     0             -0.051470057    0.34398658   
    752000   0.13069587    -0.18222083     0             -0.074439734   -0.73794599   
    752500   0.095887552   -0.18886245     0             -0.10978676    -0.34016832   
    753000   0.15110657    -0.18270688     0             -0.058093667   -0.27188581   
    753500   0.13721644    -0.18389283     0             -0.070734401    0.25097453   
    754000   0.16791863    -0.18488329     0             -0.046405659   -0.48049135   
    754500   0.13452967    -0.18102584     0             -0.070083116    0.051413155  
    755000   0.14159826    -0.1797312      0             -0.062959209    0.073394301  
    755500   0.15621541    -0.19053703     0             -0.061710709    0.6854681    
    756000   0.23481209    -0.17420254     0              0.019440193   -0.1289798    
    756500   0.17195044    -0.17426482     0             -0.032462271    0.49411232   
    757000   0.1955237     -0.18347396     0             -0.022231225   -0.22037787   
    757500   0.16576002    -0.17255362     0             -0.035856125   -0.060432822  
    758000   0.17698522    -0.17149679     0             -0.025542195    0.50413339   
    758500   0.19118795    -0.17370367     0             -0.0160365     -0.49005698   
    759000   0.16813903    -0.16067065     0             -0.022011264   -0.4500031    
    759500   0.14886547    -0.16409263     0             -0.041327588   -0.42422525   
    760000   0.11588011    -0.17184862     0             -0.076285648    0.32156202   
    760500   0.10945688    -0.16985853     0             -0.07959261    -0.51377277   
    761000   0.10244793    -0.17073783     0             -0.086251986    0.11048898   
    761500   0.17910208    -0.17949249     0             -0.031792193   -0.079211375  
    762000   0.12968276    -0.17357323     0             -0.066627612    0.41119755   
    762500   0.11563932    -0.18420543     0             -0.088841031   -0.062087798  
    763000   0.1260267     -0.18110141     0             -0.077170841    0.26222993   
    763500   0.17729083    -0.18062066     0             -0.03441404     0.18826935   
    764000   0.14724066    -0.1791069      0             -0.057681783    0.43066254   
    764500   0.16379959    -0.18285156     0             -0.047770778   -0.14854824   
    765000   0.14668521    -0.17695128     0             -0.055984231   -0.1566726    
    765500   0.14980339    -0.17683665     0             -0.053298135   -0.49912399   
    766000   0.15490036    -0.18208683     0             -0.054344986   -0.022883387  
    766500   0.20704414    -0.18842264     0             -0.01767933    -0.46468822   
    767000   0.15634685    -0.1786217      0             -0.049686973    0.09169699   
    767500   0.13957142    -0.18362355     0             -0.068523036   -0.10818729   
    768000   0.13831707    -0.18126024     0             -0.067194154   -0.048338352  
    768500   0.13004688    -0.18693438     0             -0.079688484    0.14330796   
    769000   0.12528147    -0.18357132     0             -0.080255315    0.22903904   
    769500   0.14230394    -0.18417488     0             -0.066820946   -0.035278844  
    770000   0.11843029    -0.1853529      0             -0.087686873    0.13252596   
    770500   0.12535292    -0.19092772     0             -0.087552799    0.12367722   
    771000   0.12818225    -0.18337856     0             -0.077670364    0.38298933   
    771500   0.12905239    -0.18279985     0             -0.076374078   -0.059154918  
    772000   0.13602534    -0.18378181     0             -0.071605654   -0.24351034   
    772500   0.21833156    -0.17851088     0              0.001540836    0.58220926   
    773000   0.17663863    -0.1730566      0             -0.027387842    0.49143761   
    773500   0.13773296    -0.17927789     0             -0.065693507   -0.19400643   
    774000   0.20150892    -0.16673748     0             -0.00055890453 -0.57755808   
    774500   0.19505343    -0.16700624     0             -0.006151321   -0.44846254   
    775000   0.16515822    -0.16736117     0             -0.031159962   -0.1350948    
    775500   0.14157322    -0.16465942     0             -0.047908087    0.11650962   
    776000   0.14992922    -0.17147224     0             -0.047829947   -0.2729474    
    776500   0.12084499    -0.17280946     0             -0.073152094    0.12560199   
    777000   0.11954902    -0.17350596     0             -0.074917344    0.083438076  
    777500   0.096795416   -0.17191618     0             -0.092091805    0.16673608   
    778000   0.10748109    -0.17963327     0             -0.090996729   -0.063164158  
    778500   0.13321391    -0.18059604     0             -0.070738383    0.4046703    
    779000   0.18387867    -0.17153045     0             -0.019891035    0.21763009   
    779500   0.19680591    -0.17234021     0             -0.010040079   -0.61116918   
    780000   0.16188205    -0.169086       0             -0.035586562   -0.25308026   
    780500   0.15025524    -0.1713828      0             -0.047471654    0.12548269   
    781000   0.18322761    -0.16349829     0             -0.012395779    0.75733262   
    781500   0.14190589    -0.17176937     0             -0.054743694    0.32591181   
    782000   0.1505402     -0.17587329     0             -0.051727144    0.15758084   
    782500   0.14311888    -0.17498775     0             -0.056961755   -0.047289101  
    783000   0.1789935     -0.16856528     0             -0.020954525   -0.39033066   
    783500   0.15289713    -0.17006626     0             -0.043976428   -0.033677896  
    784000   0.11391004    -0.17447763     0             -0.080539316   -0.030244191  
    784500   0.1847374     -0.17369352     0             -0.021345935   -0.46147596   
    785000   0.13675381    -0.17659998     0             -0.063823072    0.41149819   
    785500   0.12931905    -0.17724166     0             -0.070595979   -0.0012844682 
    786000   0.11239656    -0.1838982      0             -0.091208012   -0.11861719   
    786500   0.10417594    -0.18321839     0             -0.097307503    0.30563687   
    787000   0.16239105    -0.1788158      0             -0.044896604    0.049751729  
    787500   0.23894668    -0.18080639     0              0.016246025   -0.2331186    
    788000   0.17521534    -0.17636306     0             -0.031868043    0.34453491   
    788500   0.13546322    -0.17200332     0             -0.060290727   -0.23230222   
    789000   0.15031308    -0.18284884     0             -0.058889998   -0.11067277   
    789500   0.16057427    -0.17979521     0             -0.047374255   -0.23105515   
    790000   0.16100292    -0.18603384     0             -0.053259401    0.075672638  
    790500   0.16670021    -0.17726981     0             -0.039796971   -0.15692061   
    791000   0.15580622    -0.17787788     0             -0.049388993   -0.05684386   
    791500   0.11902786    -0.19249884     0             -0.094340008   -0.30490653   
    792000   0.13859905    -0.1860798      0             -0.071781172   -0.20467798   
    792500   0.1573754     -0.18501033     0             -0.055227397   -0.16180386   
    793000   0.17667936    -0.18181479     0             -0.03611243     0.4426964    
    793500   0.14158398    -0.18462353     0             -0.067863319    0.2475729    
    794000   0.14813883    -0.18056169     0             -0.058395884    0.84913995   
    794500   0.15341696    -0.18748787     0             -0.060969341    0.33521355   
    795000   0.17052052    -0.18459104     0             -0.043967701   -0.23839479   
    795500   0.1688914     -0.17967977     0             -0.040399921    0.27304079   
    796000   0.14382249    -0.18051803     0             -0.061911791   -0.036987392  
    796500   0.18685677    -0.17611066     0             -0.022015291    0.19767877   
    797000   0.15309508    -0.17688914     0             -0.050636062   -0.64655682   
    797500   0.15927314    -0.16996061     0             -0.038612662    0.39488788   
    798000   0.15824967    -0.17503028     0             -0.044526354   -0.21022445   
    798500   0.18106942    -0.16162595     0             -0.012303237   -0.64026349   
    799000   0.18497427    -0.16897881     0             -0.01643588     0.32206983   
    799500   0.14829892    -0.16640143     0             -0.044103599   -0.21147643   
    800000   0.11429676    -0.17060317     0             -0.076345942    0.25131496   
    800500   0.12601053    -0.17632734     0             -0.072410098   -0.053971734  
    801000   0.089607143   -0.18141953     0             -0.10752312     0.064650902  
    801500   0.10400561    -0.18155862     0             -0.095788204    0.29922867   
    802000   0.10343612    -0.17949829     0             -0.094197517   -0.23952365   
    802500   0.12483307    -0.18263942     0             -0.079693199    0.27963842   
    803000   0.12654279    -0.19228966     0             -0.087933491   -0.012242403  
    803500   0.096768538   -0.18981307     0             -0.11001086     0.69947969   
    804000   0.11476537    -0.1903556      0             -0.095711914    0.02991318   
    804500   0.098265326   -0.19694173     0             -0.11590516    -0.1846056    
    805000   0.15142404    -0.19182814     0             -0.066953124    0.099988215  
    805500   0.12363938    -0.19084192     0             -0.088880102   -0.28561978   
    806000   0.12492348    -0.192017       0             -0.088996227   -0.15961759   
    806500   0.13792456    -0.19280949     0             -0.079067092    0.018395561  
    807000   0.12565287    -0.19029612     0             -0.086673832   -0.21416954   
    807500   0.1513387     -0.18427492     0             -0.059470273   -0.04527301   
    808000   0.11861882    -0.19225157     0             -0.09443006    -0.36053698   
    808500   0.16495627    -0.19635772     0             -0.06032306    -0.21549756   
    809000   0.20352691    -0.18986414     0             -0.022021394   -0.75812578   
    809500   0.19670562    -0.18483022     0             -0.022612796    0.14961857   
    810000   0.175031      -0.18114216     0             -0.036799161   -0.060172857  
    810500   0.14387175    -0.18892011     0             -0.070273247   -0.064173233  
    811000   0.12944361    -0.18373958     0             -0.076991183    0.65349928   
    811500   0.14249208    -0.18293726     0             -0.065428171    0.22573813   
    812000   0.1608606     -0.1789986      0             -0.046341525   -0.1432406    
    812500   0.1347866     -0.18115455     0             -0.069999939    0.31317741   
    813000   0.13029399    -0.17904882     0             -0.071599144   -0.25804655   
    813500   0.12834902    -0.17617617     0             -0.070330447    0.48994065   
    814000   0.14618688    -0.17891649     0             -0.058360394    0.24946791   
    814500   0.11270989    -0.18576398     0             -0.092815399    0.28021384   
    815000   0.11471787    -0.18378726     0             -0.089182759    0.028955108  
    815500   0.10141929    -0.18827632     0             -0.10463877     0.47889783   
    816000   0.11841631    -0.19016186     0             -0.092507352   -0.15634864   
    816500   0.17662978    -0.18835629     0             -0.042694822   -0.49462882   
    817000   0.15328473    -0.18203401     0             -0.05562453     0.54120123   
    817500   0.12990228    -0.18524657     0             -0.078119919   -0.54080639   
    818000   0.14901517    -0.1840479      0             -0.061159401    0.081612616  
    818500   0.16609351    -0.181774       0             -0.044801497    0.44235202   
    819000   0.14180705    -0.1743427      0             -0.057398532    0.53091994   
    819500   0.15493471    -0.18553538     0             -0.057765214   -0.038849703  
    820000   0.19143672    -0.17327232     0             -0.0154         0.27746667   
    820500   0.1677786     -0.17527461     0             -0.036912456   -0.098433848  
    821000   0.13758338    -0.18582674     0             -0.072365705    0.20088882   
    821500   0.15420529    -0.18699093     0             -0.059822295   -0.25752543   
    822000   0.18485291    -0.1777307      0             -0.025287857    0.23393771   
    822500   0.1929903     -0.17616013     0             -0.017006614    0.0082377474 
    823000   0.17509908    -0.16745769     0             -0.023058547   -0.31427573   
    823500   0.13735971    -0.17413984     0             -0.060863264   -0.063883073  
    824000   0.10950598    -0.182708       0             -0.092401585    0.17535506   
    824500   0.12911404    -0.18120096     0             -0.07472435    -0.19344839   
    825000   0.13216303    -0.18320918     0             -0.074218151    0.55040535   
    825500   0.14495933    -0.18344386     0             -0.063900105    0.10732027   
    826000   0.12455693    -0.18064639     0             -0.0779279     -0.34551223   
    826500   0.17643146    -0.17500602     0             -0.029508101    0.1984918    
    827000   0.14240774    -0.17280297     0             -0.055363425    0.20379389   
    827500   0.14792914    -0.17556103     0             -0.053568154    0.0029385496 
    828000   0.1450725     -0.17536602     0             -0.055728925    0.086089316  
    828500   0.13587533    -0.17526712     0             -0.063214661   -0.45717469   
    829000   0.12861258    -0.1810598      0             -0.074996726    0.12195377   
    829500   0.14133768    -0.17733208     0             -0.060774989    0.28730115   
    830000   0.12837272    -0.18392858     0             -0.078063313   -0.06766698   
    830500   0.16864619    -0.17980286     0             -0.040725232    0.15468558   
    831000   0.15439166    -0.1759014      0             -0.048579073    0.31565055   
    831500   0.11799742    -0.17787081     0             -0.08056175    -0.036249404  
    832000   0.13882272    -0.18533007     0             -0.070846992   -0.34815347   
    832500   0.16056482    -0.18309233     0             -0.050679167   -0.49472736   
    833000   0.1621368     -0.18181082     0             -0.048101294    0.10184262   
    833500   0.1486906     -0.18624274     0             -0.063621907   -0.044385373  
    834000   0.13718629    -0.18276429     0             -0.069630732   -0.57862448   
    834500   0.1350585     -0.18950977     0             -0.078130934   -0.51089067   
    835000   0.1381217     -0.19549444     0             -0.081589475   -0.21417733   
    835500   0.13519616    -0.18823087     0             -0.076738504    0.23930377   
    836000   0.16272956    -0.1901791      0             -0.055980741    0.21487943   
    836500   0.17487161    -0.18240447     0             -0.038192914   -0.13255384   
    837000   0.16124649    -0.18486468     0             -0.05188937    -0.071800573  
    837500   0.14939965    -0.1897379      0             -0.066532338    0.029345847  
    838000   0.15073859    -0.1850859      0             -0.060776152   -0.085868747  
    838500   0.14516056    -0.18048497     0             -0.060775258    0.29874959   
    839000   0.1223272     -0.18354869     0             -0.082668987   -0.017204074  
    839500   0.14991648    -0.18990296     0             -0.066271175   -0.22004527   
    840000   0.16848513    -0.17631029     0             -0.037365482    0.29047313   
    840500   0.14720954    -0.1753981      0             -0.053998653    0.39100619   
    841000   0.17075156    -0.18120615     0             -0.040392285   -0.030252472  
    841500   0.15599034    -0.17874112     0             -0.050100404    0.30145084   
    842000   0.14768221    -0.18956633     0             -0.067777085   -0.41679507   
    842500   0.16472385    -0.18671205     0             -0.050869061   -0.79095181   
    843000   0.15094616    -0.18365812     0             -0.059177192    0.033704379  
    843500   0.18855996    -0.18366024     0             -0.028160295    0.43922273   
    844000   0.14441422    -0.18993226     0             -0.070838032   -0.013546115  
    844500   0.17208589    -0.18446509     0             -0.042550841    0.23907712   
    845000   0.12761898    -0.18680896     0             -0.081565281   -0.025449497  
    845500   0.098401791   -0.18683415     0             -0.10568504     0.22345456   
    846000   0.1183442     -0.19203429     0             -0.094439257    0.047870794  
    846500   0.14845568    -0.1834981      0             -0.061070994    0.40083449   
    847000   0.10834893    -0.18838345     0             -0.099031223   -0.18650566   
    847500   0.12119095    -0.1859448      0             -0.086002131   -0.14995237   
    848000   0.11077384    -0.18954915     0             -0.098197168    0.38526551   
    848500   0.097771825   -0.18634224     0             -0.10571265    -0.16201606   
    849000   0.13042706    -0.19177669     0             -0.084217271    0.3253939    
    849500   0.13862916    -0.18998388     0             -0.07566042    -0.092835532  
    850000   0.14915005    -0.18556196     0             -0.062562236    0.074200947  
    850500   0.16642028    -0.18639937     0             -0.049157382   -0.089853038  
    851000   0.15946652    -0.18725543     0             -0.05574801     0.14962646   
    851500   0.15876362    -0.17514674     0             -0.044218983   -0.10935233   
    852000   0.11197049    -0.17836546     0             -0.086026637    0.36667959   
    852500   0.15085207    -0.17617405     0             -0.051770717    0.1883486    
    853000   0.16501259    -0.17670774     0             -0.04062663    -0.016041963  
    853500   0.18519506    -0.17271914     0             -0.019994135   -0.24590203   
    854000   0.19544097    -0.17584385     0             -0.014669339    0.0326967    
    854500   0.21315535    -0.1664297      0              0.0093533456   0.035213816  
    855000   0.15910652    -0.17812879     0             -0.046918245    0.050127021  
    855500   0.16482758    -0.173776       0             -0.037847467   -0.076879081  
    856000   0.13031655    -0.17389548     0             -0.066427191    0.20223379   
    856500   0.14036264    -0.17699058     0             -0.061237577    0.40964142   
    857000   0.18200696    -0.1712542      0             -0.021158322   -0.013917259  
    857500   0.15497366    -0.17790236     0             -0.050100067   -0.12467496   
    858000   0.15831959    -0.17939933     0             -0.04883775    -0.12207975   
    858500   0.16070298    -0.18362627     0             -0.051099177   -0.15367002   
    859000   0.20915431    -0.17105179     0              0.0014317177   0.40691985   
    859500   0.1660993     -0.17080554     0             -0.033828258   -0.30738113   
    860000   0.16951616    -0.17694791     0             -0.037152839    0.076954063  
    860500   0.13122171    -0.17320171     0             -0.064986964   -0.22566564   
    861000   0.13867889    -0.17703475     0             -0.062670283    0.15732603   
    861500   0.11004172    -0.17713929     0             -0.08639107     0.061657032  
    862000   0.16709062    -0.17172112     0             -0.033926323    0.33799727   
    862500   0.14948809    -0.16937458     0             -0.046096074    0.11232618   
    863000   0.17071066    -0.1647448      0             -0.023964659   -0.37031535   
    863500   0.15838499    -0.172223       0             -0.041607484    0.1797862    
    864000   0.13637082    -0.16992481     0             -0.057463739    0.14497343   
    864500   0.16670009    -0.17843395     0             -0.040961205    0.048402373  
    865000   0.16559583    -0.17814617     0             -0.041584088   -0.15382037   
    865500   0.16052297    -0.17892896     0             -0.046550315    0.29191162   
    866000   0.15323436    -0.17775778     0             -0.051389843    0.089620043  
    866500   0.13060914    -0.17573962     0             -0.068030042    0.37012619   
    867000   0.13428646    -0.17933478     0             -0.068592623   -0.27014313   
    867500   0.11800497    -0.17633042     0             -0.079015137   -0.1312077    
    868000   0.140211      -0.18138155     0             -0.065753604    0.059876909  
    868500   0.1614701     -0.17777602     0             -0.044616302   -0.03321709   
    869000   0.15670417    -0.17032191     0             -0.041092511   -0.1030957    
    869500   0.16066731    -0.16869705     0             -0.036199372    0.34166294   
    870000   0.12403295    -0.1759679      0             -0.07368152     0.42770445   
    870500   0.13514432    -0.17823557     0             -0.066785957    0.10294912   
    871000   0.14844526    -0.17944144     0             -0.057022925    0.073728092  
    871500   0.13554654    -0.18417022     0             -0.072388911   -0.50894988   
    872000   0.16688587    -0.18429089     0             -0.04666494    -0.25676498   
    872500   0.14116603    -0.18692456     0             -0.070509021    0.076767433  
    873000   0.1612982     -0.18479716     0             -0.051779199   -0.34102805   
    873500   0.13972974    -0.19030495     0             -0.07507388    -0.41527642   
    874000   0.18369325    -0.18474506     0             -0.033258548    0.22040749   
    874500   0.19289891    -0.18379082     0             -0.024712674    0.076403625  
    875000   0.17232613    -0.18467784     0             -0.042565464    0.004730931  
    875500   0.16235763    -0.18113996     0             -0.047248319    0.28855603   
    876000   0.12763597    -0.1813259      0             -0.076068212    0.11743019   
    876500   0.1530732     -0.17568776     0             -0.049452721   -0.02824225   
    877000   0.20350367    -0.1767677      0             -0.008944122    0.19177024   
    877500   0.19316111    -0.17683013     0             -0.017535759    0.40305656   
    878000   0.14263264    -0.17729903     0             -0.059674021    0.15561701   
    878500   0.18280412    -0.17595317     0             -0.025199907   -0.26947399   
    879000   0.17313048    -0.17630098     0             -0.033525287    0.014716316  
    879500   0.14241653    -0.1707073      0             -0.053260514   -0.75174469   
    880000   0.14656897    -0.18197976     0             -0.061108571    0.64647338   
    880500   0.18053014    -0.17432065     0             -0.02544267     1.0478655    
    881000   0.14571756    -0.17049839     0             -0.050329338   -0.67719366   
    881500   0.15522176    -0.18165784     0             -0.053650947   -0.56121406   
    882000   0.15199078    -0.17938505     0             -0.054042661   -0.61666307   
    882500   0.20010122    -0.17391951     0             -0.008901819   -0.042245844  
    883000   0.16129851    -0.17525485     0             -0.04223664     0.33500123   
    883500   0.14654552    -0.17749693     0             -0.056645081    0.085119612  
    884000   0.13367082    -0.17311235     0             -0.062877893   -0.24816226   
    884500   0.12907913    -0.17099133     0             -0.064543504    0.43869042   
    885000   0.17962713    -0.17623595     0             -0.02810266     0.53576122   
    885500   0.13223584    -0.18106978     0             -0.072018708   -0.49778479   
    886000   0.14904597    -0.17815569     0             -0.055241792    0.13704318   
    886500   0.13021311    -0.1810704      0             -0.073687425   -0.3150926    
    887000   0.12324071    -0.1784265      0             -0.076793456    0.27938475   
    887500   0.14292073    -0.17755839     0             -0.059695802    0.45664117   
    888000   0.16111446    -0.17027785     0             -0.037411426   -0.39728637   
    888500   0.16980369    -0.17305506     0             -0.033022879    0.13909546   
    889000   0.16563974    -0.17018062     0             -0.033582316   -0.14651229   
    889500   0.15959772    -0.17753332     0             -0.045917697    0.12599856   
    890000   0.15649946    -0.17566382     0             -0.046603251   -0.11762257   
    890500   0.13312876    -0.18883366     0             -0.079046221    0.45610068   
    891000   0.14639231    -0.18825165     0             -0.067526147    0.16659994   
    891500   0.17013947    -0.18064435     0             -0.04033526     0.09724316   
    892000   0.14028192    -0.17956743     0             -0.063880989    0.12283156   
    892500   0.11025361    -0.18540322     0             -0.094480268   -0.3006289    
    893000   0.11364481    -0.1869501      0             -0.093230515    0.29079702   
    893500   0.13885575    -0.18179631     0             -0.067285997    0.055475958  
    894000   0.12977392    -0.18563794     0             -0.078617144   -0.38022828   
    894500   0.14376267    -0.17824772     0             -0.059690814   -0.45685037   
    895000   0.16557104    -0.17622112     0             -0.039679478   -0.068420581  
    895500   0.14275936    -0.18132144     0             -0.063591932   -0.011230392  
    896000   0.12268101    -0.1845124      0             -0.083340924    0.23136988   
    896500   0.14888498    -0.17915668     0             -0.056375547    0.064305204  
    897000   0.1387611     -0.17626839     0             -0.061836125   -0.46033882   
    897500   0.10875311    -0.18511402     0             -0.095428471   -0.23424183   
    898000   0.119669      -0.18365942     0             -0.084971852   -0.097686082  
    898500   0.13859716    -0.18285491     0             -0.068557848    0.067111304  
    899000   0.11541761    -0.1843554      0             -0.089173843    0.32486793   
    899500   0.11713353    -0.18806223     0             -0.091465597    0.29814723   
    900000   0.12545423    -0.18905502     0             -0.085596547   -0.32985281   
    900500   0.13918985    -0.18858363     0             -0.07379779    -0.048112988  
    901000   0.14235926    -0.18325176     0             -0.065852197    0.6266433    
    901500   0.17713982    -0.18243563     0             -0.036353547   -0.15499635   
    902000   0.19621175    -0.18100584     0             -0.019195691    0.14474415   
    902500   0.15185195    -0.18293625     0             -0.057708338    0.009210847  
    903000   0.14031853    -0.18049693     0             -0.0647803      0.67661918   
    903500   0.13202444    -0.18883358     0             -0.079956851   -0.0092272342 
    904000   0.14485057    -0.18777222     0             -0.068318143    0.044226803  
    904500   0.11421376    -0.18919294     0             -0.095004163   -0.25227116   
    905000   0.11531422    -0.19107224     0             -0.095975944   -0.32101196   
    905500   0.11789173    -0.19806499     0             -0.10084309     0.12095035   
    906000   0.13144006    -0.19265065     0             -0.084255837   -0.093442563  
    906500   0.14798871    -0.19945992     0             -0.077417909    0.16346998   
    907000   0.16355066    -0.19148754     0             -0.056612047   -0.043828253  
    907500   0.16478047    -0.18903293     0             -0.053143243   -0.10034731   
    908000   0.12887453    -0.19223176     0             -0.085952674    0.56116525   
    908500   0.14020971    -0.18726144     0             -0.071634554    0.54026623   
    909000   0.12941214    -0.19298722     0             -0.086264774    0.16840614   
    909500   0.203198      -0.18340929     0             -0.015837784   -0.078929671  
    910000   0.17524501    -0.18033388     0             -0.035814392   -1.1649245    
    910500   0.17959483    -0.17361598     0             -0.025509326   -0.33485325   
    911000   0.18517893    -0.17783037     0             -0.025118667   -0.020526205  
    911500   0.16949176    -0.16840901     0             -0.028634066    0.37575355   
    912000   0.16219152    -0.17159299     0             -0.037838343    0.36458696   
    912500   0.114321      -0.17366004     0             -0.079382823    0.65085202   
    913000   0.096229319   -0.17776367     0             -0.098406141   -0.38092056   
    913500   0.12517532    -0.1856349      0             -0.082406443    0.51650766   
    914000   0.13303858    -0.1938519      0             -0.08413884    -0.41484098   
    914500   0.13498667    -0.1892421      0             -0.077922504    0.095897413  
    915000   0.16258711    -0.1897915      0             -0.055710616   -0.27415139   
    915500   0.15297283    -0.19024044     0             -0.064088181    0.044278378  
    916000   0.17385349    -0.18661401     0             -0.043242071    0.12085551   
    916500   0.15623321    -0.19070449     0             -0.06186349    -0.13317718   
    917000   0.14374164    -0.19038554     0             -0.07184597     0.048545256  
    917500   0.12221293    -0.19801915     0             -0.097233687    0.2272737    
    918000   0.13688746    -0.19029924     0             -0.077412112   -0.06702234   
    918500   0.11361544    -0.19979439     0             -0.10609903    -0.15585119   
    919000   0.16368921    -0.1896796      0             -0.054689846    0.11038896   
    919500   0.16964301    -0.18524592     0             -0.045346243   -0.052060121  
    920000   0.20650979    -0.18109526     0             -0.010792612    0.056067095  
    920500   0.18175343    -0.17767629     0             -0.027789505    0.32979187   
    921000   0.14534036    -0.17857287     0             -0.058714882   -0.45759357   
    921500   0.1650142     -0.18223998     0             -0.04615755    -0.12415616   
    922000   0.14185019    -0.18325079     0             -0.066271037    0.36923988   
    922500   0.21666348    -0.17336128     0              0.0053148248   0.1679461    
    923000   0.19242291    -0.17630749     0             -0.017621892    0.83193748   
    923500   0.15945058    -0.17624648     0             -0.0447522      0.016242729  
    924000   0.21180124    -0.16865102     0              0.0060153342   0.08409173   
    924500   0.15995774    -0.17805774     0             -0.046145231    0.040655988  
    925000   0.13989479    -0.17927247     0             -0.063905284   -0.37570774   
    925500   0.16014955    -0.18330095     0             -0.051230253    0.16915972   
    926000   0.17275711    -0.18029018     0             -0.037822392    0.0087404821 
    926500   0.16053408    -0.18440105     0             -0.052013236   -0.2300764    
    927000   0.14688129    -0.18181717     0             -0.060688419   -0.29872067   
    927500   0.14835348    -0.16796135     0             -0.045618524    0.097638443  
    928000   0.12642043    -0.17992324     0             -0.07566797     0.19019835   
    928500   0.13581104    -0.1749936      0             -0.062994165   -0.31665974   
    929000   0.14488248    -0.17693204     0             -0.057451653   -0.44545089   
    929500   0.18175714    -0.18112609     0             -0.031236241    0.40726759   
    930000   0.13060625    -0.1832836      0             -0.075576411   -0.11914662   
    930500   0.15267169    -0.18784062     0             -0.061936693    0.141929     
    931000   0.20389087    -0.17867376     0             -0.010530857    0.053265754  
    931500   0.18573417    -0.18140061     0             -0.02823102    -0.040099797  
    932000   0.13258952    -0.17925247     0             -0.069909731   -0.41496325   
    932500   0.14618321    -0.18559597     0             -0.065042911    0.33497346   
    933000   0.16090335    -0.18797927     0             -0.055286938   -0.02068828   
    933500   0.15843073    -0.17769979     0             -0.047046555   -0.043560574  
    934000   0.13846908    -0.18613822     0             -0.071946781   -0.023992998  
    934500   0.20885395    -0.18385987     0             -0.011624065   -0.1359172    
    935000   0.1917061     -0.17325869     0             -0.015164214    0.015011748  
    935500   0.20200134    -0.16914338     0             -0.0025587279   0.19474052   
    936000   0.18425807    -0.17993764     0             -0.027985344   -0.19987279   
    936500   0.22693153    -0.17525155     0              0.011892315    0.036095706  
    937000   0.21977478    -0.17438215     0              0.006859747    0.46012052   
    937500   0.19615206    -0.17113806     0             -0.0093771348   0.068891435  
    938000   0.18873117    -0.17099434     0             -0.015353211   -0.73565092   
    938500   0.17182971    -0.16862253     0             -0.02691954     0.034842163  
    939000   0.12931919    -0.17739188     0             -0.070746094   -0.14093124   
    939500   0.17182681    -0.17577784     0             -0.03407724    -0.29437148   
    940000   0.20425267    -0.16464906     0              0.0037921972  -0.085998995  
    940500   0.15466011    -0.17126382     0             -0.043720106    0.19836914   
    941000   0.17502575    -0.17879528     0             -0.034456609    0.68665351   
    941500   0.18424419    -0.17041804     0             -0.018477194   -0.13806785   
    942000   0.19171621    -0.17684737     0             -0.01874456     0.0025039493 
    942500   0.18121929    -0.17442926     0             -0.024982962    0.6920947    
    943000   0.16036283    -0.17497086     0             -0.042724281    0.31383094   
    943500   0.12488045    -0.18207369     0             -0.079088404    0.11319985   
    944000   0.13763564    -0.17835416     0             -0.06485003    -0.095129427  
    944500   0.17798977    -0.17889849     0             -0.032115478   -0.37344452   
    945000   0.20701658    -0.17362677     0             -0.0029061917  -0.37140845   
    945500   0.1919755     -0.17136143     0             -0.013044787    0.069515195  
    946000   0.17636828    -0.16998269     0             -0.024536881    0.3295454    
    946500   0.18023703    -0.17012957     0             -0.021493312    0.21699475   
    947000   0.22053096    -0.15757505     0              0.024290452    0.14524046   
    947500   0.16064363    -0.17291356     0             -0.040435412   -0.52938373   
    948000   0.18679839    -0.16678734     0             -0.012740121   -0.30142046   
    948500   0.15164545    -0.17296673     0             -0.047909115   -0.68253691   
    949000   0.14750546    -0.18350627     0             -0.061862786    0.16887139   
    949500   0.14514664    -0.17516107     0             -0.055462832    0.18905573   
    950000   0.16791931    -0.17286712     0             -0.034388927   -0.47143028   
    950500   0.19535971    -0.17117454     0             -0.010067046    0.35815529   
    951000   0.13174166    -0.17805748     0             -0.069413949    0.11100028   
    951500   0.13650785    -0.17756565     0             -0.064991574   -0.22467311   
    952000   0.13910283    -0.17915983     0             -0.064445755   -0.64563779   
    952500   0.16733418    -0.17848621     0             -0.040490554    0.029861502  
    953000   0.14523652    -0.17729628     0             -0.057523934   -0.28273372   
    953500   0.17098534    -0.17858181     0             -0.037575145   -1.0321906    
    954000   0.17139042    -0.17656049     0             -0.035219772    0.22543586   
    954500   0.20151487    -0.17466027     0             -0.0084767915   0.23125652   
    955000   0.20424763    -0.16537725     0              0.0030598519  -0.11624318   
    955500   0.1768537     -0.16430807     0             -0.018461943    0.041369754  
    956000   0.1706025     -0.16770193     0             -0.027010995   -0.36476507   
    956500   0.18135054    -0.17246584     0             -0.022911297    0.16293239   
    957000   0.17318731    -0.16809283     0             -0.025270267   -0.19353854   
    957500   0.13054434    -0.17461039     0             -0.066954251   -0.29124264   
    958000   0.17417658    -0.16754912     0             -0.02391074     0.14274537   
    958500   0.18131188    -0.17143712     0             -0.021914469    0.52334681   
    959000   0.13539359    -0.18012913     0             -0.068473962    0.017093946  
    959500   0.16300956    -0.1742066      0             -0.039777339   -0.21721837   
    960000   0.1748717     -0.16951779     0             -0.025306157   -0.52175902   
    960500   0.17743456    -0.15997384     0             -0.013648694    0.26518707   
    961000   0.17884792    -0.16834241     0             -0.020851706   -0.32920364   
    961500   0.15486916    -0.16853589     0             -0.040819775    0.47930141   
    962000   0.15647996    -0.17792702     0             -0.048882527    0.39566248   
    962500   0.20213364    -0.16601708     0              0.00067668288 -0.12235687   
    963000   0.14557236    -0.16734891     0             -0.047299596    0.27950188   
    963500   0.13500055    -0.17295494     0             -0.061623891    0.33581722   
    964000   0.14708084    -0.16960635     0             -0.04831304    -0.24792204   
    964500   0.15270444    -0.17119469     0             -0.045263762    0.25802605   
    965000   0.18723433    -0.16491368     0             -0.010506944   -0.053156267  
    965500   0.17858852    -0.16082392     0             -0.01354714    -0.30466853   
    966000   0.16376682    -0.1669074      0             -0.031853638    0.24113118   
    966500   0.15079976    -0.16770912     0             -0.043348921   -0.1879507    
    967000   0.17823546    -0.16326761     0             -0.016281984    0.00083463517
    967500   0.14116676    -0.16936775     0             -0.052951608    0.44824      
    968000   0.17312889    -0.17245766     0             -0.029683277   -0.13845456   
    968500   0.11913483    -0.17371855     0             -0.075471503   -0.23052718   
    969000   0.1211909     -0.18063987     0             -0.080697239    0.24482678   
    969500   0.12697382    -0.17803634     0             -0.073324706    0.084162499  
    970000   0.16809892    -0.17990783     0             -0.041281515   -0.026188355  
    970500   0.12306061    -0.17940283     0             -0.077918305    0.22005693   
    971000   0.15417076    -0.18291511     0             -0.055774947    0.28081393   
    971500   0.14213145    -0.18154616     0             -0.064334467   -0.013596267  
    972000   0.17445265    -0.17739304     0             -0.033526994   -0.010880844  
    972500   0.20163923    -0.16809839     0             -0.0018123471   0.16369666   
    973000   0.16982496    -0.16911864     0             -0.029068913   -0.3598937    
    973500   0.14292705    -0.17229333     0             -0.054425529   -0.046057961  
    974000   0.17907134    -0.17586459     0             -0.028189637    0.38368758   
    974500   0.15854305    -0.17895842     0             -0.048212558    0.50336622   
    975000   0.16207293    -0.17582592     0             -0.042169065    0.42049305   
    975500   0.15638416    -0.16700457     0             -0.038039079   -0.28880344   
    976000   0.17156814    -0.17637717     0             -0.034889895    0.18450941   
    976500   0.16500381    -0.17358599     0             -0.037512127    0.47996758   
    977000   0.17220049    -0.1727536      0             -0.030744837   -0.12729573   
    977500   0.17749428    -0.17058555     0             -0.02421115     0.22214172   
    978000   0.13606947    -0.18085123     0             -0.068638679   -0.075402208  
    978500   0.13430888    -0.18267134     0             -0.071910698   -0.5427007    
    979000   0.14036128    -0.18712658     0             -0.071374693    0.29774326   
    979500   0.15379692    -0.18056679     0             -0.053734924    0.070002477  
    980000   0.17998063    -0.17335797     0             -0.024933156    0.51896368   
    980500   0.16925988    -0.17010441     0             -0.030520683   -0.11265982   
    981000   0.17381726    -0.1687345      0             -0.025392441    0.37158694   
    981500   0.13745112    -0.17403923     0             -0.060687269    0.23558367   
    982000   0.15653837    -0.17346839     0             -0.04437572     0.15561374   
    982500   0.16857016    -0.16877958     0             -0.029764649    0.32859924   
    983000   0.18764252    -0.16725014     0             -0.012506788   -0.17388379   
    983500   0.14033035    -0.16981888     0             -0.054092501   -0.20416709   
    984000   0.1216685     -0.17468992     0             -0.074353438    0.12121001   
    984500   0.13227899    -0.17837676     0             -0.069290108    0.14375448   
    985000   0.1970792     -0.17855065     0             -0.016025141   -0.28509979   
    985500   0.17623173    -0.17897865     0             -0.033645447    0.1064672    
    986000   0.18266044    -0.18219312     0             -0.031558341   -0.04211162   
    986500   0.15660806    -0.17737024     0             -0.048220108   -0.21470467   
    987000   0.15488105    -0.17902191     0             -0.051295992   -0.67364695   
    987500   0.14247321    -0.18180182     0             -0.064308287    0.16966125   
    988000   0.12798785    -0.18790435     0             -0.082356474   -0.13269553   
    988500   0.18068962    -0.17329811     0             -0.024288609    0.0092965087 
    989000   0.15839459    -0.18621273     0             -0.055589297    0.10910134   
    989500   0.23315671    -0.17872459     0              0.013552995   -0.17904164   
    990000   0.1946181     -0.17706397     0             -0.016568056    0.040846753  
    990500   0.24193683    -0.17061323     0              0.028905074   -0.075215779  
    991000   0.18512319    -0.17063207     0             -0.017966333   -0.061717067  
    991500   0.17616897    -0.17336679     0             -0.028085344    0.19876      
    992000   0.18456333    -0.17700248     0             -0.024798442    0.25283884   
    992500   0.17995224    -0.17353612     0             -0.025134711    0.027975599  
    993000   0.18093822    -0.17991492     0             -0.030700408   -0.27363371   
    993500   0.23370695    -0.17903648     0              0.013694883   -0.40316662   
    994000   0.17898119    -0.1773706      0             -0.029769996    0.36815519   
    994500   0.19264934    -0.18131898     0             -0.022446653    0.15007742   
    995000   0.21673711    -0.16759963     0              0.011137194   -0.0032126899 
    995500   0.14017714    -0.18088619     0             -0.065286168    0.27051562   
    996000   0.15201299    -0.17890303     0             -0.053542319    0.16528813   
    996500   0.18321444    -0.17799013     0             -0.026898477   -0.38836279   
    997000   0.16304492    -0.18150547     0             -0.047047045   -0.12610165   
    997500   0.14590816    -0.18062548     0             -0.060299238    0.41256641   
    998000   0.132963      -0.18333402     0             -0.073683281   -0.056517676  
    998500   0.15120062    -0.17854845     0             -0.053857677   -0.10614951   
    999000   0.15780186    -0.18419694     0             -0.054062315    0.30442741   
    999500   0.18355523    -0.18818772     0             -0.036815036    0.17008264   
   1000000   0.15400659    -0.18472971     0             -0.057724938   -0.14661393   
   1000001   0.15414413    -0.18517043     0             -0.058052228    0.78521714   
Loop time of 168.698 on 4 procs for 1000000 steps with 1520 atoms

Performance: 512158.963 tau/day, 5927.766 timesteps/s, 9.010 Matom-step/s
89.1% CPU use with 4 MPI tasks x 1 OpenMP threads

MPI task timing breakdown:
Section |  min time  |  avg time  |  max time  |%varavg| %total
---------------------------------------------------------------
Pair    | 21.477     | 22.063     | 22.505     |   7.9 | 13.08
Bond    | 0.061357   | 0.063663   | 0.066701   |   0.8 |  0.04
Neigh   | 5.2366     | 5.2378     | 5.2388     |   0.0 |  3.10
Comm    | 20.612     | 21.035     | 21.642     |   8.3 | 12.47
Output  | 0.74892    | 0.79577    | 0.84532    |   4.0 |  0.47
Modify  | 115.92     | 116.03     | 116.16     |   0.8 | 68.78
Other   |            | 3.471      |            |       |  2.06

Nlocal:            380 ave         415 max         338 min
Histogram: 1 0 0 0 1 0 0 1 0 1
Nghost:          958.5 ave         998 max         929 min
Histogram: 2 0 0 0 0 0 1 0 0 1
Neighs:              0 ave           0 max           0 min
Histogram: 4 0 0 0 0 0 0 0 0 0

Total # of neighbors = 0
Ave neighs/atom = 0
Ave special neighs/atom = 2.0657895
Neighbor list builds = 6492
Dangerous builds = 0

unfix ThermoLng

# Now we let the system to create the polymeric network
fix ThermoLng all langevin ${temp} ${temp} ${damp} 12345 # Brownian Dynamics: langevin + nve
fix ThermoLng all langevin 0.05 ${temp} ${damp} 12345 
fix ThermoLng all langevin 0.05 0.05 ${damp} 12345 
fix ThermoLng all langevin 0.05 0.05 1 12345 
run ${steps}
run 1000000
WARNING: Using a manybody potential with bonds/angles/dihedrals and special_bond exclusions (src/pair.cpp:243)
Hybrid pair style last /omp style sw/omp
Last active /omp style is pair_style sw/omp
WARNING: More than one fix rigid command (src/RIGID/fix_rigid_small.cpp:529)
WARNING: More than one fix rigid command (src/RIGID/fix_rigid_small.cpp:529)
WARNING: One or more atoms are time integrated more than once (src/modify.cpp:296)
WARNING: Computing temperature of portions of rigid bodies (src/RIGID/fix_rigid_small.cpp:1178)
WARNING: Computing temperature of portions of rigid bodies (src/RIGID/fix_rigid_small.cpp:1178)
Per MPI rank memory allocation (min/avg/max) = 21.34 | 21.35 | 21.35 Mbytes
   Step          Temp          E_pair         E_mol          TotEng         Press     
   1000001   0.15411462    -0.18517043     0             -0.058076565    0.018646948  
   1000500   0.15937109    -0.18778045     0             -0.056351721    0.42205819   
   1001000   0.13860381    -0.18704817     0             -0.072745619    0.097027714  
   1001500   0.16844831    -0.19231127     0             -0.053396823    0.22776575   
   1002000   0.14269532    -0.18184043     0             -0.06416373    -0.27059841   
   1002500   0.15400026    -0.19404622     0             -0.067046656   -0.50885722   
   1003000   0.20218899    -0.1821646      0             -0.015425194   -0.65942073   
   1003500   0.16810667    -0.18375042     0             -0.045117713   -0.098620037  
   1004000   0.24685109    -0.17989355     0              0.023677392    0.3851138    
   1004500   0.20006612    -0.17840253     0             -0.013413795    0.50763852   
   1005000   0.1555434     -0.18208163     0             -0.053809492    0.12737182   
   1005500   0.15956202    -0.18440315     0             -0.052816965    0.68407395   
   1006000   0.17030383    -0.18754749     0             -0.047102853   -0.30146219   
   1006500   0.1965355     -0.17962568     0             -0.017548549   -0.20141441   
   1007000   0.21367801    -0.17190879     0              0.0043052831   0.35343362   
   1007500   0.21255498    -0.17260789     0              0.0026800522  -0.031550815  
   1008000   0.20377827    -0.1693459      0             -0.0012958585   0.033328197  
   1008500   0.17943559    -0.17014323     0             -0.022167894    1.0236983    
   1009000   0.19623685    -0.16839047     0             -0.0065596128   0.45555235   
   1009500   0.17618973    -0.16679276     0             -0.021494189   -0.036561477  
   1010000   0.15756844    -0.17040309     0             -0.040460953    0.46230626   
   1010500   0.19988245    -0.17072945     0             -0.0058921836   0.19825734   
   1011000   0.15929885    -0.17260682     0             -0.041237675   -0.078573551  
   1011500   0.14787118    -0.17647141     0             -0.054526326   -0.35084288   
   1012000   0.12688347    -0.18322129     0             -0.078584166   -0.19466399   
   1012500   0.14400441    -0.17793588     0             -0.059179615   -0.26415832   
   1013000   0.12312217    -0.17984749     0             -0.078312208   -0.036229986  
   1013500   0.1356337     -0.17942326     0             -0.067570074    0.26343983   
   1014000   0.12338734    -0.17806353     0             -0.076309562   -0.1560995    
   1014500   0.10867837    -0.18140704     0             -0.091783129    0.19449603   
   1015000   0.13752682    -0.18704681     0             -0.073632427    0.12474494   
   1015500   0.13282416    -0.18134403     0             -0.07180779     0.01675955   
   1016000   0.14172959    -0.18411787     0             -0.067237586   -0.19735591   
   1016500   0.13017463    -0.18589032     0             -0.078539075    0.56543441   
   1017000   0.12350876    -0.19148032     0             -0.089626225    0.55437452   
   1017500   0.12693097    -0.19438598     0             -0.089709681    0.19428715   
   1018000   0.14689356    -0.19807962     0             -0.07694075     0.18695802   
   1018500   0.16363467    -0.19183608     0             -0.056891308   -0.45804489   
   1019000   0.15983354    -0.19135255     0             -0.059542454    0.15210466   
   1019500   0.15421814    -0.19565339     0             -0.068474147   -0.38707046   
   1020000   0.17090837    -0.19213883     0             -0.051195648   -0.19592858   
   1020500   0.17432018    -0.19534685     0             -0.051590046   -0.1054178    
   1021000   0.15795885    -0.18543789     0             -0.055173801    0.15516874   
   1021500   0.15945755    -0.18511417     0             -0.053614137   -0.17293856   
   1022000   0.16825366    -0.1876681      0             -0.048914174   -0.13850524   
   1022500   0.18091441    -0.18473921     0             -0.035544331    0.21048964   
   1023000   0.15588507    -0.18238761     0             -0.053833699   -0.28284522   
   1023500   0.14350024    -0.18477345     0             -0.066432951    0.42476981   
   1024000   0.14367718    -0.18595172     0             -0.067465307    0.58027098   
   1024500   0.14999992    -0.18328215     0             -0.059581555   -0.42527223   
   1025000   0.11434684    -0.19188154     0             -0.097583012   -0.27176653   
   1025500   0.12581747    -0.19365944     0             -0.089901414    0.3946897    
   1026000   0.19091675    -0.1884754      0             -0.031031887    0.80308888   
   1026500   0.16754571    -0.19125269     0             -0.05308259    -0.30244252   
   1027000   0.17358863    -0.19071019     0             -0.047556678   -0.036028253  
   1027500   0.14646825    -0.19317726     0             -0.072389135    0.3064578    
   1028000   0.13570655    -0.18602489     0             -0.074111628    0.16956814   
   1028500   0.17010934    -0.18454819     0             -0.044263945    0.34550116   
   1029000   0.20310039    -0.18483943     0             -0.017348421    0.28378772   
   1029500   0.18273165    -0.17918205     0             -0.028488547   -0.63200094   
   1030000   0.16761304    -0.18371335     0             -0.045487729    0.30855782   
   1030500   0.17607407    -0.17949167     0             -0.034288488    0.51829694   
   1031000   0.14711245    -0.18368483     0             -0.062365444   -0.39179193   
   1031500   0.15633694    -0.18858924     0             -0.059662693    0.1412556    
   1032000   0.18866464    -0.18042076     0             -0.024834496   -0.35767629   
   1032500   0.18886382    -0.17781741     0             -0.02206689     0.15318495   
   1033000   0.19655623    -0.17901842     0             -0.016924187   -0.56838955   
   1033500   0.16623898    -0.16748068     0             -0.030388208   -0.043451442  
   1034000   0.1610153     -0.17730436     0             -0.044519701   -0.43278041   
   1034500   0.160184      -0.17313983     0             -0.041040726   -0.055928113  
   1035000   0.15852687    -0.17822256     0             -0.047490034   -0.075639705  
   1035500   0.20522085    -0.16612796     0              0.0031117322  -0.13953171   
   1036000   0.18426147    -0.17649865     0             -0.024543551    0.24974964   
   1036500   0.14745817    -0.18120103     0             -0.059596539   -0.21528907   
   1037000   0.13463258    -0.18609276     0             -0.07506517    -0.47657465   
   1037500   0.14616784    -0.19529583     0             -0.074755447    0.5084435    
   1038000   0.16844823    -0.1842103      0             -0.045295928    0.30915312   
   1038500   0.16263262    -0.18364865     0             -0.049530233    0.12341686   
   1039000   0.1574561     -0.18255609     0             -0.052706597   -0.017277775  
   1039500   0.19291043    -0.17769976     0             -0.018612112   -0.085932211  
   1040000   0.19966987    -0.17232038     0             -0.0076584194   0.35216538   
   1040500   0.1482466     -0.17275033     0             -0.050495653    0.40260455   
   1041000   0.13014798    -0.17557892     0             -0.068249649   -0.26866676   
   1041500   0.14286031    -0.18015421     0             -0.062341449   -0.16957128   
   1042000   0.14645594    -0.17999791     0             -0.059219931   -0.029459045  
   1042500   0.16774842    -0.18253777     0             -0.044200511    0.25538351   
   1043000   0.13329472    -0.18423728     0             -0.074312989   -0.82419596   
   1043500   0.14875702    -0.19002074     0             -0.067345135   -0.22917814   
   1044000   0.18398929    -0.18638439     0             -0.034653752   -0.19784487   
   1044500   0.16786416    -0.18808792     0             -0.049655209   -0.098008659  
   1045000   0.16215025    -0.18993075     0             -0.056210134    0.0072673775 
   1045500   0.15279456    -0.18969665     0             -0.063691395   -0.26193741   
   1046000   0.17408407    -0.18624644     0             -0.042684348   -0.20797195   
   1046500   0.18942496    -0.1754266      0             -0.019213322    0.49017502   
   1047000   0.17972015    -0.17854195     0             -0.030331948   -0.27153976   
   1047500   0.15251799    -0.17540165     0             -0.049624481    0.62743721   
   1048000   0.18279146    -0.17942932     0             -0.028686494    0.1862731    
   1048500   0.1534528     -0.17649396     0             -0.049945882   -0.5464603    
   1049000   0.15265283    -0.17485438     0             -0.048966004    0.14336068   
   1049500   0.16362409    -0.17858757     0             -0.043651523   -0.12890913   
   1050000   0.14209591    -0.17699505     0             -0.059812664    0.16553668   
   1050500   0.14931351    -0.17857839     0             -0.055443861   -0.28698331   
   1051000   0.1531275     -0.17842369     0             -0.052143872    0.36846717   
   1051500   0.13630456    -0.1840413      0             -0.071634879    0.0016813588 
   1052000   0.21499416    -0.17613968     0              0.0011597751   0.32347054   
   1052500   0.17663724    -0.1853886      0             -0.039720979    0.49395944   
   1053000   0.21485301    -0.17857129     0             -0.001388232   -0.12019525   
   1053500   0.21430942    -0.17277502     0              0.0039597552  -0.25825932   
   1054000   0.18708689    -0.17232829     0             -0.018043152   -0.2193014    
   1054500   0.19090982    -0.1712403      0             -0.013802496    0.099527441  
   1055000   0.15660932    -0.17703531     0             -0.04788413     0.20794766   
   1055500   0.1482583     -0.1712382      0             -0.048973872    0.021744764  
   1056000   0.23004212    -0.17141668     0              0.018292399   -0.070998832  
   1056500   0.16904756    -0.16884584     0             -0.029437215   -0.34561403   
   1057000   0.14983681    -0.17103057     0             -0.047464484   -0.039946961  
   1057500   0.13787442    -0.17762014     0             -0.063919103   -0.13207209   
   1058000   0.13542823    -0.17700906     0             -0.06532532     0.1905931    
   1058500   0.14820062    -0.17652721     0             -0.054310448    0.14675755   
   1059000   0.15669348    -0.17091103     0             -0.041690448   -0.36502492   
   1059500   0.12067731    -0.18532673     0             -0.085807641    0.028525949  
   1060000   0.11626488    -0.18469782     0             -0.088817538   -0.081806943  
   1060500   0.14393219    -0.18677955     0             -0.068082837   -0.21684335   
   1061000   0.18954331    -0.17226645     0             -0.015955568    0.51640322   
   1061500   0.15759023    -0.17764208     0             -0.047681971    0.013656328  
   1062000   0.19009113    -0.17389903     0             -0.017136379    0.31131758   
   1062500   0.14929717    -0.17975636     0             -0.056635308    0.17046944   
   1063000   0.13955005    -0.18102323     0             -0.065940349    0.14407921   
   1063500   0.16218195    -0.17759035     0             -0.043843591   -0.19198991   
   1064000   0.15427409    -0.17906308     0             -0.051837708   -0.19898231   
   1064500   0.15474836    -0.18606193     0             -0.058445439    0.11165463   
   1065000   0.17338278    -0.17921942     0             -0.036235665    0.14328844   
   1065500   0.17380794    -0.17760184     0             -0.034267455   -0.95700505   
   1066000   0.19694617    -0.17681871     0             -0.014402903    0.022209979  
   1066500   0.1540399     -0.17965094     0             -0.052618692   -0.097924636  
   1067000   0.14432706    -0.17847128     0             -0.059448925    0.14171497   
   1067500   0.1338614     -0.18487355     0             -0.074481934   -0.07846345   
   1068000   0.10406642    -0.18620439     0             -0.10038382     0.060222728  
   1068500   0.10409688    -0.18923254     0             -0.10338685    -0.16484462   
   1069000   0.10475351    -0.19734963     0             -0.11096244     0.27843345   
   1069500   0.14475942    -0.19077779     0             -0.071398887    0.056480414  
   1070000   0.13173988    -0.19234251     0             -0.083700439    0.19708333   
   1070500   0.151508      -0.19331402     0             -0.068369761    0.088201168  
   1071000   0.16874972    -0.1858755      0             -0.046712495   -0.23465355   
   1071500   0.14819126    -0.19282112     0             -0.070612079    0.12218971   
   1072000   0.16166258    -0.1906607      0             -0.057342257    0.35865      
   1072500   0.2050248     -0.18638288     0             -0.017304863    0.01132339   
   1073000   0.1948166     -0.18226802     0             -0.02160841    -0.11972009   
   1073500   0.17825638    -0.18380352     0             -0.036800645    0.33777125   
   1074000   0.15151619    -0.180628       0             -0.055676982    0.033738332  
   1074500   0.16244092    -0.18377174     0             -0.049811423   -0.64674542   
   1075000   0.17294338    -0.18094633     0             -0.038324933   -0.65481914   
   1075500   0.14950114    -0.1763409      0             -0.05305164     0.16683468   
   1076000   0.15507741    -0.17701964     0             -0.049131791   -0.11249296   
   1076500   0.16060593    -0.18144532     0             -0.048998262   -0.18127667   
   1077000   0.21019333    -0.17617057     0             -0.0028302174  -0.13511424   
   1077500   0.19469219    -0.17082445     0             -0.010267433   -0.21279041   
   1078000   0.24188254    -0.16054068     0              0.038932854   -0.034416254  
   1078500   0.1684797     -0.16554887     0             -0.026608535    0.11937333   
   1079000   0.15721035    -0.17861084     0             -0.048964015   -0.19744937   
   1079500   0.21873977    -0.16780134     0              0.012587014   -0.304836     
   1080000   0.19918005    -0.17039213     0             -0.0061341077   0.65779178   
   1080500   0.17383498    -0.17549469     0             -0.032138019    0.10865851   
   1081000   0.20302965    -0.17136845     0             -0.0039357703   0.60450296   
   1081500   0.19079005    -0.16386435     0             -0.0065253235   0.15563576   
   1082000   0.15334935    -0.16498144     0             -0.038518672    0.95561156   
   1082500   0.15376789    -0.17615576     0             -0.049347828   -0.15254126   
   1083000   0.1464369     -0.17840224     0             -0.057639967    0.16827743   
   1083500   0.22464324    -0.17074026     0              0.014516521   -0.39394509   
   1084000   0.22958282    -0.16781584     0              0.021514466    0.48485244   
   1084500   0.20328399    -0.16848436     0             -0.00084193324 -0.12711996   
   1085000   0.21203647    -0.17659555     0             -0.0017352081   0.26389948   
   1085500   0.18042995    -0.17182525     0             -0.023029894    0.24901229   
   1086000   0.14993433    -0.17804911     0             -0.054402607    0.3058974    
   1086500   0.13196776    -0.17216708     0             -0.063337088    0.27792812   
   1087000   0.14333745    -0.1759292      0             -0.057722962   -0.72699329   
   1087500   0.1436457     -0.18280173     0             -0.064341278   -0.2936795    
   1088000   0.13537987    -0.18333717     0             -0.071693315    0.24012053   
   1088500   0.11603964    -0.18569397     0             -0.08999944    -0.03104666   
   1089000   0.14684231    -0.18819059     0             -0.067093985   -0.39748238   
   1089500   0.13368297    -0.18993437     0             -0.079689892   -0.031182983  
   1090000   0.14076743    -0.18761269     0             -0.071525869    0.40354991   
   1090500   0.14425337    -0.18170197     0             -0.06274039     0.26172225   
   1091000   0.17121817    -0.18741863     0             -0.046219965   -0.64238405   
   1091500   0.15066433    -0.18999718     0             -0.065748666    0.10304199   
   1092000   0.11542434    -0.20399539     0             -0.10880827    -0.26086059   
   1092500   0.16709116    -0.1951695      0             -0.057374254   -0.10576091   
   1093000   0.16821035    -0.19087915     0             -0.05216094     0.16951614   
   1093500   0.18780051    -0.19019049     0             -0.035316843   -0.1882281    
   1094000   0.17187019    -0.19329095     0             -0.051554579   -0.11698863   
   1094500   0.16732794    -0.19588535     0             -0.057894845    0.19438991   
   1095000   0.16598573    -0.19168703     0             -0.054803407    0.41990364   
   1095500   0.17829643    -0.19283941     0             -0.045803503    0.80095646   
   1096000   0.14149058    -0.19171956     0             -0.075036372   -0.36065865   
   1096500   0.19830581    -0.18707942     0             -0.023542354   -0.27623945   
   1097000   0.22109687    -0.18947043     0             -0.0071382448  -0.71328747   
   1097500   0.14651323    -0.1874498      0             -0.066624574    0.1852283    
   1098000   0.17868284    -0.17381111     0             -0.02645654     0.4541357    
   1098500   0.20794224    -0.1880908      0             -0.016606846    0.025940675  
   1099000   0.25183853    -0.17146988     0              0.036214058    0.12276354   
   1099500   0.18200055    -0.17671689     0             -0.026626309    0.16258692   
   1100000   0.19199415    -0.18498058     0             -0.026648568    0.041395995  
   1100500   0.17364444    -0.1801646      0             -0.036965054    0.030877103  
   1101000   0.17125787    -0.18223115     0             -0.040999734   -0.71221672   
   1101500   0.14730875    -0.19264328     0             -0.071162016   -0.49178306   
   1102000   0.1432721     -0.19208772     0             -0.073935367    0.39934297   
   1102500   0.1474721     -0.19676309     0             -0.07514712     0.44640496   
   1103000   0.15402955    -0.19868193     0             -0.071658222   -0.13276649   
   1103500   0.16963942    -0.19700829     0             -0.057111575    0.46609177   
   1104000   0.14917306    -0.19970216     0             -0.076683458    0.36405615   
   1104500   0.17427662    -0.19268993     0             -0.048969043    0.071719226  
   1105000   0.20953062    -0.1903171      0             -0.017523258   -0.038609428  
   1105500   0.15631944    -0.18867292     0             -0.059760803   -0.20457525   
   1106000   0.204928      -0.17975326     0             -0.010755078   -0.070077944  
   1106500   0.19053838    -0.18585126     0             -0.028719772   -0.076054133  
   1107000   0.18120786    -0.18659532     0             -0.037158446   -0.54938668   
   1107500   0.16904356    -0.17493147     0             -0.035526138   -0.36257503   
   1108000   0.19526402    -0.18177755     0             -0.020748963    0.18511538   
   1108500   0.19378056    -0.17224104     0             -0.01243583    -0.034715899  
   1109000   0.24356702    -0.16626609     0              0.034596574    0.82309715   
   1109500   0.18217783    -0.16738363     0             -0.017146848   -0.39294655   
   1110000   0.18980248    -0.16050155     0             -0.0039769397   0.18062477   
   1110500   0.14269524    -0.16859749     0             -0.050920856   -0.018153206  
   1111000   0.15122043    -0.17059122     0             -0.045884114    0.025198581  
   1111500   0.14428025    -0.17062224     0             -0.051638498   -0.33476008   
   1112000   0.14186475    -0.17773606     0             -0.060744302    0.31182376   
   1112500   0.14019939    -0.17742194     0             -0.061803563   -0.0015737407 
   1113000   0.13804232    -0.18203651     0             -0.068197011    0.049657712  
   1113500   0.11626115    -0.1861597      0             -0.090282495   -0.12017281   
   1114000   0.15577461    -0.18972412     0             -0.061261309    0.12702547   
   1114500   0.19928715    -0.17871788     0             -0.01437154    -0.80058894   
   1115000   0.1593322     -0.18600534     0             -0.054608691    0.21481044   
   1115500   0.17090966    -0.18526022     0             -0.044315965    0.66270604   
   1116000   0.1836431     -0.17909915     0             -0.027654003    0.20909185   
   1116500   0.16264197    -0.18130581     0             -0.047179683   -0.38922743   
   1117000   0.14636298    -0.17828525     0             -0.057583933    0.1406075    
   1117500   0.17766105    -0.18438228     0             -0.037870356   -0.28229722   
   1118000   0.18024256    -0.17434717     0             -0.025706349   -0.21678497   
   1118500   0.15999301    -0.17598653     0             -0.04404493     0.068684995  
   1119000   0.14963352    -0.18237541     0             -0.058976974   -0.48960572   
   1119500   0.17145799    -0.17882782     0             -0.037431372   -0.4126569    
   1120000   0.12421615    -0.17863428     0             -0.07619682     0.633438     
   1120500   0.14924792    -0.18311917     0             -0.06003873     0.19297194   
   1121000   0.14865012    -0.1789356      0             -0.056348157    0.078184017  
   1121500   0.13330907    -0.1810159      0             -0.071079766    0.33150794   
   1122000   0.14347682    -0.18956679     0             -0.071245615    0.50174837   
   1122500   0.17017896    -0.18594726     0             -0.045605592    0.31469879   
   1123000   0.16075451    -0.18249136     0             -0.04992177     0.0036023727 
   1123500   0.167302      -0.17538683     0             -0.037417716    0.59142738   
   1124000   0.15715812    -0.17511422     0             -0.045510461    0.014237778  
   1124500   0.19492506    -0.16893716     0             -0.0081881039  -0.13236301   
   1125000   0.18022218    -0.17110167     0             -0.022477661   -0.18401984   
   1125500   0.16380203    -0.16991446     0             -0.034831665    0.60482031   
   1126000   0.17737011    -0.17520005     0             -0.028928051    0.025580503  
   1126500   0.18732841    -0.17182974     0             -0.017345424    0.16579856   
   1127000   0.14717979    -0.17121256     0             -0.049837652    0.12526937   
   1127500   0.17459766    -0.17933572     0             -0.035350084   -0.75840795   
   1128000   0.15699096    -0.17394616     0             -0.044480258   -0.59842898   
   1128500   0.12744581    -0.17375449     0             -0.068653621   -0.4960661    
   1129000   0.16162032    -0.18479975     0             -0.051516151   -0.10249598   
   1129500   0.14210716    -0.17814109     0             -0.06094942     0.34363483   
   1130000   0.12464492    -0.18221535     0             -0.079424291    0.1101982    
   1130500   0.1829422     -0.1774953      0             -0.026628164    0.23816042   
   1131000   0.15246325    -0.17160728     0             -0.045875246    0.17419209   
   1131500   0.15395052    -0.16994184     0             -0.042983298   -0.37304728   
   1132000   0.17983783    -0.17871086     0             -0.030403809   -0.070896473  
   1132500   0.19880549    -0.17317552     0             -0.0092263951  -0.32926023   
   1133000   0.17907154    -0.17387266     0             -0.026197544    0.27573688   
   1133500   0.16607451    -0.18202276     0             -0.045065916   -0.13322615   
   1134000   0.14371736    -0.18390863     0             -0.065389084    0.71270072   
   1134500   0.2025793     -0.17861263     0             -0.011551344    0.88277945   
   1135000   0.13604948    -0.18192068     0             -0.069724605    0.45323665   
   1135500   0.14691862    -0.18317873     0             -0.062019198   -0.4513297    
   1136000   0.1540508     -0.18352649     0             -0.056485252    0.089377707  
   1136500   0.14317781    -0.17799442     0             -0.059919819    0.45895339   
   1137000   0.14310516    -0.1783588      0             -0.060344124    0.23211914   
   1137500   0.13738935    -0.18302446     0             -0.069723433   -0.036375475  
   1138000   0.13885397    -0.1795019      0             -0.064993048   -0.26379202   
   1138500   0.17848823    -0.18674055     0             -0.039546467    0.21169623   
   1139000   0.15926327    -0.18016811     0             -0.048828299   -0.13364731   
   1139500   0.13905198    -0.17820238     0             -0.063530236    0.28468031   
   1140000   0.19305291    -0.17464282     0             -0.015437677    0.27209533   
   1140500   0.1974599     -0.17693892     0             -0.01409946     0.68819715   
   1141000   0.18107497    -0.17296925     0             -0.023641967    0.14300959   
   1141500   0.1917458     -0.17400355     0             -0.015876334    0.19509083   
   1142000   0.17353224    -0.16446076     0             -0.021353742   -0.25840221   
   1142500   0.17405786    -0.16805639     0             -0.024515913   -0.21317769   
   1143000   0.16734583    -0.16616738     0             -0.028162124    0.10879136   
   1143500   0.16752264    -0.16938826     0             -0.031237184    0.33499376   
   1144000   0.14554194    -0.17092441     0             -0.050900189    0.044335118  
   1144500   0.13458858    -0.1825188      0             -0.071527491    0.67312091   
   1145000   0.16034538    -0.18424223     0             -0.052010033   -0.35185288   
   1145500   0.14698816    -0.17919863     0             -0.057981747   -0.17019667   
   1146000   0.14938872    -0.18442283     0             -0.06122628    -0.20199143   
   1146500   0.13714304    -0.18314637     0             -0.070048468    0.2293758    
   1147000   0.13098147    -0.18953217     0             -0.081515542   -0.20267258   
   1147500   0.17224897    -0.18255768     0             -0.04050894    -0.29405023   
   1148000   0.1588308     -0.18486886     0             -0.053885703   -0.15403645   
   1148500   0.24447865    -0.17267857     0              0.028935888   -0.20095512   
   1149000   0.2096033     -0.16522113     0              0.0076326451  -0.11455101   
   1149500   0.17512186    -0.16655535     0             -0.022137413    0.27194976   
   1150000   0.15662193    -0.17986984     0             -0.050708268    0.68147376   
   1150500   0.1847357     -0.17056289     0             -0.018216706    0.010584735  
   1151000   0.17993216    -0.1759792      0             -0.027594354   -0.55660447   
   1151500   0.18200706    -0.17989943     0             -0.029803476   -0.18020993   
   1152000   0.15049508    -0.17255536     0             -0.048446426    0.42529435   
   1152500   0.16971308    -0.17458675     0             -0.034629285    0.6443211    
   1153000   0.18199746    -0.17531032     0             -0.025222283   -0.13848274   
   1153500   0.17140874    -0.16868348     0             -0.027327653   -0.17068822   
   1154000   0.14930861    -0.17581812     0             -0.052687631   -0.082602053  
   1154500   0.18076515    -0.18341477     0             -0.034342991   -0.2172459    
   1155000   0.1694187     -0.17744803     0             -0.037733329   -0.0057355772 
   1155500   0.17003665    -0.17299783     0             -0.032773524    0.14165647   
   1156000   0.14121452    -0.18659449     0             -0.070138961   -0.0557285    
   1156500   0.16718359    -0.18266569     0             -0.044794227    0.063092317  
   1157000   0.17166474    -0.1921914      0             -0.050624458    0.26585624   
   1157500   0.15462271    -0.19298258     0             -0.065469709    0.028399436  
   1158000   0.15180136    -0.19116061     0             -0.065974425   -0.54415457   
   1158500   0.14194776    -0.18542057     0             -0.068360369    0.29002836   
   1159000   0.15711383    -0.19248767     0             -0.062920442   -0.069598513  
   1159500   0.15984672    -0.18145407     0             -0.049633113    0.65620696   
   1160000   0.18581816    -0.18403138     0             -0.030792522   -0.055537128  
   1160500   0.1625083     -0.18855699     0             -0.054541093    0.11407964   
   1161000   0.17178971    -0.18341347     0             -0.04174347     0.27667262   
   1161500   0.13249282    -0.18377014     0             -0.074507149    0.22068301   
   1162000   0.15071165    -0.18931392     0             -0.065026391   -0.1883362    
   1162500   0.21067068    -0.18019949     0             -0.0064654794  -0.3684817    
   1163000   0.19760231    -0.17554151     0             -0.012584604   -0.075401339  
   1163500   0.19228508    -0.173323       0             -0.014751058   -0.19475188   
   1164000   0.22653408    -0.17411447     0              0.012701631   -0.23848298   
   1164500   0.19024113    -0.17635878     0             -0.019472423   -0.47246623   
   1165000   0.16838071    -0.18017695     0             -0.041318257   -0.30007104   
   1165500   0.17880974    -0.17166623     0             -0.024207015   -0.40567699   
   1166000   0.18792645    -0.17013476     0             -0.015157256    0.25765574   
   1166500   0.14810208    -0.17937316     0             -0.057237664   -0.27258704   
   1167000   0.14943945    -0.18367274     0             -0.060434347    0.029403543  
   1167500   0.17569414    -0.18689034     0             -0.042000473    0.016152024  
   1168000   0.13847212    -0.18300053     0             -0.068806579   -0.3357202    
   1168500   0.22238468    -0.17919318     0              0.0042010264   0.050146893  
   1169000   0.1800569     -0.17970514     0             -0.031217423    0.041823077  
   1169500   0.17320797    -0.17890533     0             -0.036065726    0.11135472   
   1170000   0.16354083    -0.17622545     0             -0.041358069    0.11302085   
   1170500   0.12388708    -0.18121894     0             -0.079052852   -0.28256507   
   1171000   0.11387328    -0.1859168      0             -0.092008804   -0.069483726  
   1171500   0.13825581    -0.18603999     0             -0.072024431    0.34728598   
   1172000   0.12724783    -0.19084787     0             -0.085910266    0.37399565   
   1172500   0.13689395    -0.19208579     0             -0.079193307    0.13759306   
   1173000   0.11827472    -0.19066804     0             -0.093130304   -0.18792398   
   1173500   0.19794861    -0.18795465     0             -0.024712159    0.44167148   
   1174000   0.18062916    -0.18465854     0             -0.035698901    0.20936546   
   1174500   0.17972792    -0.18354896     0             -0.035332549   -0.57926684   
   1175000   0.17228135    -0.1750244      0             -0.032948964    0.27729621   
   1175500   0.15889207    -0.18976236     0             -0.058728665    0.64441287   
   1176000   0.13805896    -0.18856076     0             -0.07470753     0.22185466   
   1176500   0.10946424    -0.19098845     0             -0.10071646     0.27940747   
   1177000   0.13210592    -0.19677042     0             -0.087826491    0.7370298    
   1177500   0.1392447     -0.18694105     0             -0.072109973   -0.13729631   
   1178000   0.13557526    -0.18969101     0             -0.077886021    0.2695994    
   1178500   0.21818578    -0.17659292     0              0.0033385765   0.015307588  
   1179000   0.21227192    -0.17758982     0             -0.002535311   -0.56360254   
   1179500   0.17323767    -0.18039552     0             -0.037531422   -0.099904764  
   1180000   0.16210776    -0.17755908     0             -0.043873503   -0.068381616  
   1180500   0.15556405    -0.17405442     0             -0.04576525    -0.044597191  
   1181000   0.18023449    -0.16886939     0             -0.020235227   -0.4330028    
   1181500   0.17581859    -0.17405337     0             -0.029060867   -0.36915739   
   1182000   0.19334732    -0.17974083     0             -0.020292889   -0.14539773   
   1182500   0.17228943    -0.17727787     0             -0.035195766   -0.18419323   
   1183000   0.16133426    -0.17969611     0             -0.046648415    0.091451604  
   1183500   0.17858393    -0.17032846     0             -0.02305546    -0.82522935   
   1184000   0.18248521    -0.17973642     0             -0.029246146   -0.092878674  
   1184500   0.16964329    -0.17824064     0             -0.038340733   -0.17813858   
   1185000   0.13460525    -0.18650276     0             -0.075497707   -0.54710115   
   1185500   0.15966674    -0.19116791     0             -0.059495369   -0.33233438   
   1186000   0.20702437    -0.17997442     0             -0.0092474187  -0.050588054  
   1186500   0.18759422    -0.18092731     0             -0.026223786    0.093256682  
   1187000   0.15852511    -0.1850675      0             -0.054336434   -0.21021302   
   1187500   0.14899145    -0.18079408     0             -0.057925143    0.084236397  
   1188000   0.15605678    -0.18351876     0             -0.054823254    0.19735606   
   1188500   0.13054018    -0.18461013     0             -0.076957423   -0.021830379  
   1189000   0.13343274    -0.186418       0             -0.07637988    -0.025241504  
   1189500   0.14645855    -0.18704723     0             -0.066267105   -0.31195177   
   1190000   0.13821645    -0.18941252     0             -0.075429412    0.36391283   
   1190500   0.15068108    -0.19439662     0             -0.070134296    0.2104447    
   1191000   0.21912771    -0.18497203     0             -0.004263759    0.33364749   
   1191500   0.17898219    -0.19317252     0             -0.045571086    0.23683262   
   1192000   0.17892475    -0.19096911     0             -0.043415051    0.0061543902 
   1192500   0.16544161    -0.18498474     0             -0.048549835    0.18197196   
   1193000   0.21423101    -0.18595917     0             -0.0092890605   0.067800346  
   1193500   0.1739008     -0.18383933     0             -0.040428374    0.20278902   
   1194000   0.14399095    -0.18220239     0             -0.063457214    0.012408819  
   1194500   0.17949368    -0.17469129     0             -0.026668051    0.010915737  
   1195000   0.14728552    -0.18003943     0             -0.058577326    0.16322092   
   1195500   0.15615221    -0.17801402     0             -0.049239808    0.024583625  
   1196000   0.13106788    -0.18444938     0             -0.076361494   -0.29707609   
   1196500   0.125204      -0.18499616     0             -0.08174404     0.13057221   
   1197000   0.15542787    -0.18735692     0             -0.059180055   -0.27600202   
   1197500   0.14925503    -0.18537741     0             -0.062291107   -0.18043853   
   1198000   0.14906983    -0.18298909     0             -0.060055517    0.49802253   
   1198500   0.17821654    -0.18631918     0             -0.039349165   -0.73310081   
   1199000   0.1919063     -0.1829652      0             -0.02470563     0.49256674   
   1199500   0.14892037    -0.18997105     0             -0.067160727    0.20735188   
   1200000   0.18906427    -0.17866667     0             -0.02275084     0.44668253   
   1200500   0.15378251    -0.1797187      0             -0.052898716   -0.3925044    
   1201000   0.2321416     -0.17626896     0              0.015171495   -0.80305673   
   1201500   0.17319364    -0.17571149     0             -0.032883717   -0.63729357   
   1202000   0.18143712    -0.18049843     0             -0.030872485   -0.35877393   
   1202500   0.16334899    -0.17378675     0             -0.039077575   -0.1761675    
   1203000   0.21409308    -0.17698357     0             -0.00042720422 -0.049862999  
   1203500   0.19505196    -0.17755923     0             -0.016705529   -0.07391087   
   1204000   0.19263363    -0.17719873     0             -0.018339348    0.13394289   
   1204500   0.20837225    -0.17515853     0             -0.0033199633  -0.31341542   
   1205000   0.17427223    -0.18183193     0             -0.038114668    0.31728033   
   1205500   0.14258724    -0.18051861     0             -0.062931037    0.18908221   
   1206000   0.17301633    -0.18162335     0             -0.03894179    -0.0033064692 
   1206500   0.22309035    -0.16782237     0              0.016153778    0.19478506   
   1207000   0.17664877    -0.17733893     0             -0.031661806    0.0036550912 
   1207500   0.13929849    -0.17915697     0             -0.064281542   -0.086096274  
   1208000   0.15851912    -0.1833049      0             -0.052578776   -0.1322839    
   1208500   0.12388055    -0.18561833     0             -0.083457624    0.33641406   
   1209000   0.13910034    -0.18496773     0             -0.070255706   -0.0085979609 
   1209500   0.12685993    -0.19491249     0             -0.090294782    0.29003555   
   1210000   0.15359347    -0.18668283     0             -0.060018743    0.18277305   
   1210500   0.1534437     -0.18563233     0             -0.059091754    0.43746633   
   1211000   0.16205949    -0.18501679     0             -0.051371022   -0.054384051  
   1211500   0.1787707     -0.18388596     0             -0.036458934    0.32193426   
   1212000   0.17799809    -0.18260817     0             -0.035818306   -0.055054715  
   1212500   0.13842753    -0.18907605     0             -0.07491887    -0.021536935  
   1213000   0.1541989     -0.18347919     0             -0.056315827    0.47111355   
   1213500   0.14205055    -0.18342663     0             -0.066281659   -0.3201654    
   1214000   0.1312777     -0.19175437     0             -0.083493451    0.2276607    
   1214500   0.15493655    -0.17784584     0             -0.050074151   -1.0713282    
   1215000   0.15498859    -0.17852611     0             -0.050711501   -0.31665035   
   1215500   0.1627535     -0.18295978     0             -0.048741684   -0.84270121   
   1216000   0.14452485    -0.17656809     0             -0.057382632    0.57004293   
   1216500   0.13952165    -0.18588299     0             -0.070823527   -0.20256567   
   1217000   0.14810562    -0.18242785     0             -0.060289427   -0.04100626   
   1217500   0.20720724    -0.18060075     0             -0.0097229341  -0.21728216   
   1218000   0.16443279    -0.1807469      0             -0.04514394     0.33821083   
   1218500   0.15634755    -0.18238524     0             -0.053449944    0.27788801   
   1219000   0.1451954     -0.1842259      0             -0.064487456    0.36161389   
   1219500   0.20428088    -0.17805205     0             -0.0095875228   0.33779958   
   1220000   0.17481589    -0.17520367     0             -0.031038065    0.50392195   
   1220500   0.15577453    -0.17714778     0             -0.048685038   -0.067839345  
   1221000   0.12787137    -0.17756569     0             -0.072113872   -0.43170974   
   1221500   0.15837375    -0.1762179      0             -0.04561165    -0.010430951  
   1222000   0.17954548    -0.17722038     0             -0.029154414    0.086267812  
   1222500   0.1436474     -0.1748929      0             -0.056431047    0.16273755   
   1223000   0.18676429    -0.17937785     0             -0.025358745    0.040310391  
   1223500   0.18327437    -0.17414237     0             -0.023001308    0.014088548  
   1224000   0.16732094    -0.17675328     0             -0.038768546   -0.32555138   
   1224500   0.13493053    -0.17725766     0             -0.065984353   -0.25482597   
   1225000   0.13713841    -0.18241567     0             -0.069321594    0.28224735   
   1225500   0.16389218    -0.18414491     0             -0.048987773   -0.57501604   
   1226000   0.14390561    -0.18711696     0             -0.068442177    0.27565392   
   1226500   0.18426825    -0.18122276     0             -0.029262065   -0.204744     
   1227000   0.15299014    -0.18479939     0             -0.058632851   -0.25558079   
   1227500   0.15388207    -0.18544933     0             -0.058547241   -0.052737339  
   1228000   0.12567569    -0.19339278     0             -0.089751677    0.50067171   
   1228500   0.14498967    -0.19148699     0             -0.071918207   -0.17993971   
   1229000   0.15877938    -0.18425049     0             -0.053309731    0.67309993   
   1229500   0.166042      -0.18990554     0             -0.052975506   -0.59252638   
   1230000   0.20589545    -0.17707291     0             -0.0072768983   0.15711036   
   1230500   0.14760233    -0.17778695     0             -0.056063582   -0.051618106  
   1231000   0.16974154    -0.17524494     0             -0.035264004    0.082996248  
   1231500   0.21507225    -0.17537649     0              0.00198737     0.28814649   
   1232000   0.18010006    -0.17600798     0             -0.027484679   -0.50536247   
   1232500   0.17346456    -0.18536939     0             -0.042318184   -0.42190201   
   1233000   0.12666312    -0.18690392     0             -0.082448507    0.17558285   
   1233500   0.14666074    -0.18508989     0             -0.064143018   -0.5404922    
   1234000   0.13820759    -0.18272071     0             -0.068744913    0.26393099   
   1234500   0.13998771    -0.18200473     0             -0.066560923   -0.20620312   
   1235000   0.16457318    -0.1844552      0             -0.048736456   -0.32667018   
   1235500   0.13155008    -0.1859628      0             -0.077477252   -0.15411597   
   1236000   0.12087334    -0.1921085      0             -0.092427761   -0.12474401   
   1236500   0.14346855    -0.18491871     0             -0.066604353   -0.18712526   
   1237000   0.14624807    -0.18139924     0             -0.060792687   -0.11476601   
   1237500   0.13845408    -0.18334029     0             -0.069161214    0.20897534   
   1238000   0.1690293     -0.17336475     0             -0.033971179    0.27915958   
   1238500   0.15598894    -0.18292162     0             -0.054282056   -0.0074519814 
   1239000   0.15574378    -0.18056926     0             -0.052131871    0.14143034   
   1239500   0.21212209    -0.18175858     0             -0.0068276328   0.38550895   
   1240000   0.20403412    -0.18294057     0             -0.014679535    0.21962356   
   1240500   0.18581985    -0.18278808     0             -0.029547826    0.12362779   
   1241000   0.20853597    -0.17039391     0              0.0015796699   0.16630777   
   1241500   0.14581947    -0.18618523     0             -0.065932134    0.084401393  
   1242000   0.16595397    -0.18307841     0             -0.046220983   -0.10121729   
   1242500   0.21162762    -0.17734465     0             -0.0028214748  -0.12853184   
   1243000   0.22669148    -0.16609061     0              0.020855287    0.11805007   
   1243500   0.1625787     -0.1808923      0             -0.046818354    0.38757852   
   1244000   0.17873507    -0.18062245     0             -0.033224809    0.13396134   
   1244500   0.18178266    -0.178416       0             -0.028505102    0.065029036  
   1245000   0.13933956    -0.17902276     0             -0.064113465   -0.36934265   
   1245500   0.15768107    -0.17501383     0             -0.044978818    0.072031801  
   1246000   0.19768358    -0.17731312     0             -0.014289194   -0.18082924   
   1246500   0.15306034    -0.17638532     0             -0.050160884   -0.049053748  
   1247000   0.18357811    -0.16831697     0             -0.016925413   -0.36895718   
   1247500   0.19521491    -0.16173579     0             -0.00074770759 -0.070963441  
   1248000   0.16059103    -0.16463557     0             -0.0322008     -0.14962948   
   1248500   0.16170546    -0.17380956     0             -0.040455745   -0.20317649   
   1249000   0.17685217    -0.17534647     0             -0.029501604    0.046095639  
   1249500   0.19414912    -0.16955953     0             -0.0094503771   0.099043865  
   1250000   0.14113642    -0.17283344     0             -0.056442327    0.1269888    
   1250500   0.14189899    -0.1745383      0             -0.057518303    0.2219557    
   1251000   0.14790686    -0.17452767     0             -0.052553166   -0.26495073   
   1251500   0.16111693    -0.17510431     0             -0.042235839   -0.58985741   
   1252000   0.14828229    -0.17549163     0             -0.053207517    0.59964834   
   1252500   0.13395841    -0.17570839     0             -0.065236762   -0.43806667   
   1253000   0.13288601    -0.17051313     0             -0.060925888   -0.2310926    
   1253500   0.13009479    -0.180656       0             -0.073370601   -0.24060311   
   1254000   0.17658097    -0.17928884     0             -0.033667625    0.00049925756
   1254500   0.14453512    -0.18416987     0             -0.064975942   -0.94803761   
   1255000   0.19002278    -0.18398328     0             -0.027276992   -0.44646675   
   1255500   0.15035856    -0.18408701     0             -0.060090652    0.13026996   
   1256000   0.18527381    -0.18173858     0             -0.028948631   -0.54299145   
   1256500   0.25694856    -0.16971991     0              0.042178126    0.40152354   
   1257000   0.21120633    -0.1647846      0              0.0093911519   0.069070984  
   1257500   0.17550673    -0.16816994     0             -0.023434627   -0.044671045  
   1258000   0.18838239    -0.17520671     0             -0.019853206   -0.01852936   
   1258500   0.1940269     -0.16859089     0             -0.008582519   -0.77095728   
   1259000   0.16321631    -0.17225127     0             -0.037651505   -0.28036257   
   1259500   0.15917592    -0.17990444     0             -0.048636662    0.010007949  
   1260000   0.15411646    -0.18456431     0             -0.05746892    -0.47037893   
   1260500   0.15390805    -0.18469185     0             -0.057768338    0.24234206   
   1261000   0.148432      -0.18360306     0             -0.061195485    0.11972918   
   1261500   0.21778362    -0.18271466     0             -0.0031148134   0.24462922   
   1262000   0.15922455    -0.18276193     0             -0.051454052   -0.17538092   
   1262500   0.16585096    -0.18085034     0             -0.044077848   -0.026668828  
   1263000   0.15730629    -0.18022229     0             -0.050496348   -0.34743833   
   1263500   0.14125308    -0.18385148     0             -0.06736416    -0.33691978   
   1264000   0.20157229    -0.17639322     0             -0.010162386   -0.15844476   
   1264500   0.19500282    -0.18025907     0             -0.019445892    0.24221107   
   1265000   0.1848846     -0.17721346     0             -0.024744479   -0.14899384   
   1265500   0.21405864    -0.17757919     0             -0.0010512235  -0.076732574  
   1266000   0.16780332    -0.17975233     0             -0.041369784    0.25435156   
   1266500   0.13115425    -0.17791917     0             -0.069760053   -0.20124297   
   1267000   0.13570609    -0.18184661     0             -0.069933725   -0.0090133356 
   1267500   0.1488188     -0.18043641     0             -0.057709858   -0.014263928  
   1268000   0.21839756    -0.17684705     0              0.0032590956   0.0024416218 
   1268500   0.16601284    -0.18083723     0             -0.04393124     0.183804     
   1269000   0.14395762    -0.17912674     0             -0.060409054   -0.38197962   
   1269500   0.13619148    -0.18415055     0             -0.071837375   -0.26921201   
   1270000   0.19488701    -0.1820092      0             -0.021291523   -0.23606038   
   1270500   0.14352993    -0.18099975     0             -0.062634771   -0.71638786   
   1271000   0.14356896    -0.181499       0             -0.06310184     0.12410199   
   1271500   0.14039828    -0.19028259     0             -0.074500192   -0.042663422  
   1272000   0.159216      -0.17857284     0             -0.04727202     0.28754072   
   1272500   0.20108869    -0.18523919     0             -0.019407167   -0.19879807   
   1273000   0.2212127     -0.18049906     0              0.0019286543   0.41499584   
   1273500   0.24168946    -0.17323195     0              0.026082351    0.16085333   
   1274000   0.19848918    -0.17068242     0             -0.0069941345  -0.023913141  
   1274500   0.18822324    -0.17062538     0             -0.01540312    -0.029264892  
   1275000   0.18168404    -0.16711685     0             -0.017287287    0.16480216   
   1275500   0.22384565    -0.16784645     0              0.016752578    0.16814282   
   1276000   0.16555466    -0.16516721     0             -0.028639073   -0.12059025   
   1276500   0.1685848     -0.17694823     0             -0.037921224    0.17466892   
   1277000   0.17643976    -0.17689744     0             -0.031392673   -0.21289958   
   1277500   0.159819      -0.17122497     0             -0.039426865    0.17081204   
   1278000   0.18768673    -0.17098624     0             -0.016206431   -0.041360109  
   1278500   0.14200163    -0.18184458     0             -0.064739942   -0.23633891   
   1279000   0.19152307    -0.1782967      0             -0.020353169    0.39779821   
   1279500   0.19006018    -0.17286483     0             -0.016127706   -0.33466382   
   1280000   0.17846372    -0.17007659     0             -0.022902733   -0.20717946   
   1280500   0.14086877    -0.16959714     0             -0.053426737   -0.26974353   
   1281000   0.13636739    -0.17463497     0             -0.062176727   -0.24492719   
   1281500   0.135737      -0.17552186     0             -0.063583492    0.24196965   
   1282000   0.13800542    -0.17998172     0             -0.066172643   -0.16829548   
   1282500   0.12169486    -0.1783429      0             -0.077984673    0.73864189   
   1283000   0.11717783    -0.18310769     0             -0.08647452     0.25125198   
   1283500   0.16376781    -0.18678598     0             -0.051731404   -0.20257572   
   1284000   0.16987199    -0.18367804     0             -0.043589532    0.48050398   
   1284500   0.18646571    -0.18190082     0             -0.028127955    0.33874813   
   1285000   0.21841224    -0.17544758     0              0.0046706783   0.28258087   
   1285500   0.16135511    -0.18108381     0             -0.048018915    0.27841685   
   1286000   0.17652476    -0.18275605     0             -0.037181194   -0.47449082   
   1286500   0.17996016    -0.18500523     0             -0.036597298    0.50543262   
   1287000   0.1799025     -0.17690924     0             -0.028548863   -0.18450859   
   1287500   0.20795131    -0.1724672      0             -0.00097577262  0.060575845  
   1288000   0.20021806    -0.1650956      0              1.8446414e-05  0.30693078   
   1288500   0.18526742    -0.17044757     0             -0.017662898    0.36374653   
   1289000   0.17450957    -0.17490457     0             -0.030991581    0.10806836   
   1289500   0.16585648    -0.1706358      0             -0.033858768   -0.43724444   
   1290000   0.15864839    -0.17721051     0             -0.046377778   -0.39489432   
   1290500   0.16908924    -0.16753358     0             -0.028090576    0.17378913   
   1291000   0.2077659     -0.16369817     0              0.0076403563   0.45554086   
   1291500   0.17652887    -0.16606852     0             -0.020490268   -0.050248851  
   1292000   0.17665687    -0.17064843     0             -0.024964623    0.35199438   
   1292500   0.15609364    -0.1619737      0             -0.033247789   -0.47030121   
   1293000   0.11035848    -0.16682854     0             -0.07581909     0.44784035   
   1293500   0.15044719    -0.17315776     0             -0.049088318   -0.57372963   
   1294000   0.15267897    -0.17460467     0             -0.048694739   -0.52694005   
   1294500   0.18965312    -0.16936375     0             -0.012962307   -0.2427839    
   1295000   0.21917703    -0.15588276     0              0.024866194    0.35511053   
   1295500   0.2190088     -0.16002801     0              0.020582208   -0.12152208   
   1296000   0.22090996    -0.14757101     0              0.034607034    0.091812899  
   1296500   0.16928569    -0.16058101     0             -0.020975993    0.22254852   
   1297000   0.18918548    -0.15708317     0             -0.0010673757   0.10558971   
   1297500   0.21313421    -0.16032407     0              0.015441542    0.043020817  
   1298000   0.16719282    -0.15961471     0             -0.021735635   -0.59444902   
   1298500   0.1543105     -0.16164739     0             -0.034391981    0.091797018  
   1299000   0.12954268    -0.16775973     0             -0.060929634   -0.063084716  
   1299500   0.098091922   -0.16600606     0             -0.085112495    0.11539719   
   1300000   0.12299619    -0.17495323     0             -0.073521835    0.093353542  
   1300500   0.13025626    -0.17270509     0             -0.065286528   -0.079661403  
   1301000   0.14553389    -0.17839778     0             -0.058380193   -0.32957286   
   1301500   0.20253696    -0.17091457     0             -0.0038881934  -0.41969135   
   1302000   0.19320778    -0.17669704     0             -0.017364176    0.39732952   
   1302500   0.1856498     -0.17330028     0             -0.020200265   -0.37573541   
   1303000   0.15782969    -0.17569149     0             -0.045533912   -0.37412918   
   1303500   0.15599463    -0.17616394     0             -0.047519682   -0.19330666   
   1304000   0.18735304    -0.17691139     0             -0.022406758    0.17280144   
   1304500   0.14918025    -0.17280161     0             -0.049776982    0.0051714112 
   1305000   0.20102903    -0.17836334     0             -0.012580518    0.23140758   
   1305500   0.14540602    -0.17196224     0             -0.052050102   -0.1279906    
   1306000   0.14804982    -0.18028553     0             -0.058193127   -0.31893791   
   1306500   0.18076852    -0.18271375     0             -0.033639193    0.42220208   
   1307000   0.17647747    -0.1757979      0             -0.030262037    0.12520633   
   1307500   0.16581553    -0.17455548     0             -0.037812214   -0.18176272   
   1308000   0.17055974    -0.17738153     0             -0.036725854    0.82371945   
   1308500   0.16188492    -0.17662162     0             -0.043119812   -0.27137155   
   1309000   0.16317071    -0.18169524     0             -0.047133084   -0.1540068    
   1309500   0.17684931    -0.17658349     0             -0.030740988    0.20701385   
   1310000   0.13246129    -0.18205169     0             -0.072814703    0.42820045   
   1310500   0.16750224    -0.17343503     0             -0.035300777   -0.45400884   
   1311000   0.16626707    -0.17481151     0             -0.037695867    0.43356037   
   1311500   0.14039981    -0.18210335     0             -0.066319694   -0.3552004    
   1312000   0.1636332     -0.17571409     0             -0.040770523    0.097764092  
   1312500   0.16547903    -0.181317       0             -0.044851229    0.13384025   
   1313000   0.17725751    -0.18356386     0             -0.037384728    0.33421399   
   1313500   0.18592706    -0.18568584     0             -0.032357178   -0.51994264   
   1314000   0.16987991    -0.17776914     0             -0.037674094    0.01659739   
   1314500   0.24795714    -0.16760729     0              0.036875788    0.29830078   
   1315000   0.21064942    -0.16935793     0              0.0043585507   0.001470136  
   1315500   0.15691434    -0.17655466     0             -0.047151942   -0.15511879   
   1316000   0.18365466    -0.17402334     0             -0.022568654    0.11186237   
   1316500   0.19649921    -0.16657043     0             -0.0045232192   0.018312389  
   1317000   0.1475168     -0.17729197     0             -0.055639141    0.021732091  
   1317500   0.16774416    -0.17291204     0             -0.034578284    0.27676317   
   1318000   0.18984831    -0.1729176      0             -0.016355194   -0.79424455   
   1318500   0.18968927    -0.17352732     0             -0.017096077    0.083829187  
   1319000   0.18631494    -0.17434777     0             -0.020699233    0.37331331   
   1319500   0.13585861    -0.18055032     0             -0.068511658    0.097299684  
   1320000   0.16681026    -0.17187417     0             -0.034310574   -0.39580463   
   1320500   0.15316843    -0.17935739     0             -0.053043819    0.76822147   
   1321000   0.16439844    -0.17935365     0             -0.043779016    0.057423585  
   1321500   0.147961      -0.17916377     0             -0.057144622   -0.74778253   
   1322000   0.19256488    -0.17058204     0             -0.011779366    0.077432018  
   1322500   0.16171478    -0.17901117     0             -0.045649674    0.21118251   
   1323000   0.18159294    -0.16964232     0             -0.019887882    0.036798885  
   1323500   0.15561062    -0.17995715     0             -0.051629579   -0.15150235   
   1324000   0.14401032    -0.18208247     0             -0.063321334    0.39842358   
   1324500   0.11780047    -0.18247401     0             -0.085327374   -0.43508212   
   1325000   0.12334691    -0.18635115     0             -0.084630516   -0.15866518   
   1325500   0.13865049    -0.18828155     0             -0.073940499   -0.33139536   
   1326000   0.15981543    -0.18976939     0             -0.05797423     0.35441739   
   1326500   0.15547109    -0.18540102     0             -0.057188517   -0.25208071   
   1327000   0.16003813    -0.18519203     0             -0.053213225   -0.16458407   
   1327500   0.16390789    -0.18147291     0             -0.046302816    0.086215998  
   1328000   0.159222      -0.18778153     0             -0.056475762   -0.56945829   
   1328500   0.13649203    -0.19176239     0             -0.079201356   -0.13304878   
   1329000   0.1224261     -0.19619845     0             -0.095237187    0.14938356   
   1329500   0.14301514    -0.19129499     0             -0.073354542   -0.25257465   
   1330000   0.13476493    -0.19543132     0             -0.084294577    0.032129362  
   1330500   0.13192254    -0.19665934     0             -0.087866641    0.21898801   
   1331000   0.14447412    -0.19697413     0             -0.077830509   -0.18257042   
   1331500   0.15566463    -0.19844142     0             -0.070069305   -0.39607853   
   1332000   0.16036575    -0.19993977     0             -0.067690776   -0.23063609   
   1332500   0.1434534     -0.19648643     0             -0.078184564    0.075462989  
   1333000   0.15938348    -0.19541967     0             -0.063980729    0.033618508  
   1333500   0.18915079    -0.19255814     0             -0.036570962   -0.072752802  
   1334000   0.17501319    -0.18670396     0             -0.04237565     0.39976969   
   1334500   0.18038765    -0.18676343     0             -0.038002955    0.69995257   
   1335000   0.18075619    -0.17856633     0             -0.02950193     0.24025545   
   1335500   0.13421656    -0.19302705     0             -0.082342536   -0.39720627   
   1336000   0.13311153    -0.19063551     0             -0.080862291    0.22983683   
   1336500   0.16397491    -0.17741522     0             -0.042189858   -0.18768409   
   1337000   0.15116174    -0.18771637     0             -0.063057665   -0.094059341  
   1337500   0.11818767    -0.19486789     0             -0.097401938    0.098162389  
   1338000   0.12463595    -0.19666859     0             -0.093884929    0.060520777  
   1338500   0.13311559    -0.19286808     0             -0.083091511    0.37859393   
   1339000   0.14099007    -0.18892731     0             -0.072656881   -0.12535804   
   1339500   0.18002831    -0.193821       0             -0.045356866    0.19013532   
   1340000   0.1689217     -0.19095707     0             -0.051652236   -0.34287572   
   1340500   0.16987081    -0.18812242     0             -0.048034882   -0.14362564   
   1341000   0.1627048     -0.18724234     0             -0.053064398   -0.08386926   
   1341500   0.21412177    -0.19281481     0             -0.016234793   -0.031373356  
   1342000   0.20634501    -0.18809277     0             -0.017926021    0.026821652  
   1342500   0.18306153    -0.18424144     0             -0.033275888    0.014042713  
   1343000   0.14768529    -0.18847664     0             -0.066684859   -0.027642119  
   1343500   0.12921322    -0.1975516      0             -0.0909932      0.14137542   
   1344000   0.14924087    -0.1958931      0             -0.072818474    0.23616921   
   1344500   0.16104497    -0.18556498     0             -0.052755852    0.17650224   
   1345000   0.17340722    -0.18920647     0             -0.046202557   -0.15565531   
   1345500   0.17407646    -0.18553042     0             -0.041974596    0.11686434   
   1346000   0.15076145    -0.179339       0             -0.055010398    0.96450991   
   1346500   0.24815369    -0.18387742     0              0.020767743    0.42172025   
   1347000   0.17985031    -0.17873864     0             -0.030421301    0.11618553   
   1347500   0.15675275    -0.18073341     0             -0.051463958   -0.44206436   
   1348000   0.15852416    -0.1821821      0             -0.051451815   -0.39608649   
   1348500   0.2090412     -0.17242169     0             -3.1458507e-05  0.17327986   
   1349000   0.18030194    -0.17786942     0             -0.029179629   -0.30627859   
   1349500   0.16764462    -0.17816848     0             -0.03991681     0.36720406   
   1350000   0.17113663    -0.17970568     0             -0.038574254   -0.18560841   
   1350500   0.16248792    -0.17961722     0             -0.045618135    0.4200437    
   1351000   0.17757202    -0.17835157     0             -0.031913066    0.45112525   
   1351500   0.2584266     -0.16918599     0              0.043930947   -0.2206995    
   1352000   0.20191644    -0.17266672     0             -0.0061520762   0.25401985   
   1352500   0.18656609    -0.16861457     0             -0.014758919   -0.014058903  
   1353000   0.16610585    -0.17098929     0             -0.034006605    0.30610244   
   1353500   0.1467887     -0.17102276     0             -0.049970367    0.019785633  
   1354000   0.1517064     -0.17298036     0             -0.047872484    0.14138573   
   1354500   0.15431907    -0.16495836     0             -0.037695887   -0.12986619   
   1355000   0.16995651    -0.16905672     0             -0.028898504    0.10432657   
   1355500   0.15070528    -0.16847417     0             -0.044191885    0.19503837   
   1356000   0.13717254    -0.17283003     0             -0.059707806   -0.33489662   
   1356500   0.20027686    -0.17011417     0             -0.0049516427  -0.27037581   
   1357000   0.19723945    -0.16401671     0             -0.0013590447  -0.47267154   
   1357500   0.19230632    -0.17446071     0             -0.015871253   -0.24686207   
   1358000   0.2567344     -0.16304999     0              0.048671443   -0.098366853  
   1358500   0.22854428    -0.16237721     0              0.026096639    0.060765245  
   1359000   0.22680129    -0.16227414     0              0.02476232     0.27743767   
   1359500   0.2198557     -0.16184584     0              0.019462793   -0.13059821   
   1360000   0.17679278    -0.15175365     0             -0.0059577656   0.063380506  
   1360500   0.17228476    -0.15986711     0             -0.017788857    0.10984606   
   1361000   0.17251788    -0.15843142     0             -0.016160916    0.17446092   
   1361500   0.16338675    -0.16575978     0             -0.031019455   -0.229273     
   1362000   0.14125403    -0.1707956      0             -0.054307494    0.018958523  
   1362500   0.14090433    -0.16661667     0             -0.050416943    0.19232796   
   1363000   0.15682286    -0.1712514      0             -0.041924126    0.39933211   
   1363500   0.18771956    -0.16876326     0             -0.013956365   -0.11273056   
   1364000   0.14546977    -0.16772678     0             -0.047762074   -0.23886907   
   1364500   0.22475835    -0.17876179     0              0.0065899092   0.16654488   
   1365000   0.17438489    -0.16409544     0             -0.020285271    0.077181988  
   1365500   0.17837359    -0.17197679     0             -0.02487725     0.39177814   
   1366000   0.1869462     -0.16406043     0             -0.0098913129   0.10884494   
   1366500   0.21023557    -0.16316009     0              0.010215095   -0.045270749  
   1367000   0.17146351    -0.16496348     0             -0.02356249     0.36721633   
   1367500   0.14879458    -0.16783313     0             -0.045126548    0.027924084  
   1368000   0.16193488    -0.171057       0             -0.037513992   -0.2907258    
   1368500   0.13421325    -0.1709324      0             -0.060250619   -0.24020951   
   1369000   0.12469087    -0.17546801     0             -0.072639062    0.36152948   
   1369500   0.13448041    -0.16654209     0             -0.055639986    0.0090135416 
   1370000   0.17946046    -0.17213228     0             -0.024136429   -0.2050064    
   1370500   0.18144648    -0.16480675     0             -0.015173089   -0.46924849   
   1371000   0.1588425     -0.17133278     0             -0.040339966    0.10249391   
   1371500   0.17577345    -0.17360555     0             -0.028650278    0.16249664   
   1372000   0.16881633    -0.17155676     0             -0.032338821    0.54964279   
   1372500   0.18129075    -0.17692814     0             -0.027422905    0.020110901  
   1373000   0.16493343    -0.16710416     0             -0.031088337    0.25197033   
   1373500   0.12783251    -0.17098061     0             -0.065560842   -0.1908994    
   1374000   0.13797106    -0.17422418     0             -0.060443444   -0.35071732   
   1374500   0.11967248    -0.18211447     0             -0.083424041   -0.56857222   
   1375000   0.1340503     -0.17663199     0             -0.066084593   -0.16513183   
   1375500   0.15799375    -0.17184909     0             -0.041556216    0.33375366   
   1376000   0.19232204    -0.17459809     0             -0.01599567    -0.11350635   
   1376500   0.16241181    -0.16814883     0             -0.034212513    0.35259364   
   1377000   0.16465092    -0.17033296     0             -0.034550111   -0.32368146   
   1377500   0.14238924    -0.17264656     0             -0.055222275    0.10266276   
   1378000   0.15188325    -0.17783838     0             -0.052584662    0.052472893  
   1378500   0.15357152    -0.17806701     0             -0.051421027   -0.10078826   
   1379000   0.14563117    -0.18693453     0             -0.066836722    0.022740537  
   1379500   0.21186044    -0.17895469     0             -0.004239514   -0.46086179   
   1380000   0.18296364    -0.17927569     0             -0.028390873   -0.28388203   
   1380500   0.17362831    -0.17899911     0             -0.035812864    0.39628169   
   1381000   0.14260979    -0.17824752     0             -0.060641361    0.15354931   
   1381500   0.16245783    -0.18187233     0             -0.047898063   -0.092069755  
   1382000   0.16191189    -0.17719006     0             -0.043666006    0.045202714  
   1382500   0.20182479    -0.17453185     0             -0.0080927939  -0.14068901   
   1383000   0.14012467    -0.17519485     0             -0.059638091    0.83635285   
   1383500   0.16698719    -0.18239981     0             -0.044690307    0.31022762   
   1384000   0.16561545    -0.17998794     0             -0.043409679   -0.052881576  
   1384500   0.19875736    -0.18239657     0             -0.01848713     0.19394954   
   1385000   0.14947727    -0.1873002      0             -0.06403062     0.25073031   
   1385500   0.12476263    -0.19062435     0             -0.087736216   -0.21712838   
   1386000   0.16438044    -0.1909824      0             -0.055422612    0.14774754   
   1386500   0.18844114    -0.18975707     0             -0.034355119   -0.017223485  
   1387000   0.17772968    -0.17806622     0             -0.031497697   -0.21553353   
   1387500   0.18775727    -0.18472653     0             -0.029888545   -0.091421784  
   1388000   0.18054138    -0.18655677     0             -0.03766952     0.23124793   
   1388500   0.17269738    -0.18350597     0             -0.04108744     0.41969147   
   1389000   0.142016      -0.18538139     0             -0.06826491     0.17427356   
   1389500   0.14522687    -0.19059092     0             -0.070826525   -0.076666163  
   1390000   0.16148761    -0.17981739     0             -0.046643235    0.31156805   
   1390500   0.19373678    -0.1781746      0             -0.018405486    0.32680647   
   1391000   0.1835662     -0.17524876     0             -0.023867034    0.058604178  
   1391500   0.20294899    -0.16730569     0              6.0468497e-05 -0.060987011  
   1392000   0.14473096    -0.17427181     0             -0.054916377    0.1654373    
   1392500   0.13498456    -0.1771362      0             -0.065818338   -0.19617309   
   1393000   0.12974992    -0.18029962     0             -0.073298619   -0.40528303   
   1393500   0.24102331    -0.17724807     0              0.021516876    0.3604458    
   1394000   0.20425415    -0.178128       0             -0.0096855143  -0.46178885   
   1394500   0.17938017    -0.17269964     0             -0.024770007    0.17109622   
   1395000   0.1347208     -0.1783816      0             -0.067281252    0.29408398   
   1395500   0.18682226    -0.17387102     0             -0.019804116    0.29429068   
   1396000   0.18669577    -0.16424432     0             -0.010281721    0.30323997   
   1396500   0.1478939     -0.17356075     0             -0.051596926    0.49632039   
   1397000   0.17595855    -0.17773088     0             -0.032622959    0.21888337   
   1397500   0.19549109    -0.16848189     0             -0.0072660547   0.14703245   
   1398000   0.17391896    -0.16940489     0             -0.025978955    0.12792381   
   1398500   0.24705737    -0.16005235     0              0.043688713   -0.53338078   
   1399000   0.18728964    -0.15814268     0             -0.0036903376  -0.38288171   
   1399500   0.15133489    -0.16443796     0             -0.039636461    0.3521859    
   1400000   0.16550377    -0.16375376     0             -0.027267598   -0.14089448   
   1400500   0.14361715    -0.17038899     0             -0.051952088    0.010670609  
   1401000   0.12308138    -0.16989932     0             -0.068397674    0.1953318    
   1401500   0.13148749    -0.17458402     0             -0.066150095   -0.4749769    
   1402000   0.1409571     -0.17436902     0             -0.058125784    0.030226308  
   1402500   0.16341147    -0.17508997     0             -0.040329266   -0.18760295   
   1403000   0.16269662    -0.1720478      0             -0.037876604   -0.34751589   
   1403500   0.16547139    -0.17254724     0             -0.036087775    0.34531431   
   1404000   0.16499207    -0.17489953     0             -0.038835345   -0.42057005   
   1404500   0.12458304    -0.17346641     0             -0.070726383   -0.24659987   
   1405000   0.14597032    -0.17571427     0             -0.055336778    0.44944577   
   1405500   0.19230491    -0.17602074     0             -0.017432442   -0.064506275  
   1406000   0.1448548     -0.17544267     0             -0.055985112    0.014045194  
   1406500   0.16623747    -0.17533812     0             -0.038246891    0.46411618   
   1407000   0.14578769    -0.17924867     0             -0.05902178    -0.082250352  
   1407500   0.14738835    -0.17526036     0             -0.05371346    -0.30665673   
   1408000   0.14963949    -0.17526812     0             -0.051864769   -0.074897595  
   1408500   0.13535332    -0.18092472     0             -0.069302752    0.17313723   
   1409000   0.13748395    -0.18601532     0             -0.072636284    0.50184382   
   1409500   0.14006449    -0.18215971     0             -0.066652585    0.0042263495 
   1410000   0.13381108    -0.1836566      0             -0.073306477    0.19662237   
   1410500   0.14231655    -0.18434324     0             -0.066978899   -0.23641532   
   1411000   0.17886753    -0.1815611      0             -0.034054229    0.43364717   
   1411500   0.18348485    -0.17868186     0             -0.027367221    0.30431571   
   1412000   0.16266386    -0.18051932     0             -0.046375141   -0.21160629   
   1412500   0.14291848    -0.18211029     0             -0.064249553    0.38268445   
   1413000   0.13807329    -0.18639165     0             -0.072526604   -0.081163143  
   1413500   0.16438492    -0.18368815     0             -0.048124665    0.23526989   
   1414000   0.16291081    -0.18161745     0             -0.047269623   -0.028838819  
   1414500   0.13937007    -0.18796811     0             -0.073033655    0.13112288   
   1415000   0.13490897    -0.18554699     0             -0.074291469   -0.074033653  
   1415500   0.13315993    -0.1865038      0             -0.076690669    0.45737975   
   1416000   0.159649      -0.18705223     0             -0.055394329    0.083495382  
   1416500   0.15275167    -0.18567413     0             -0.059704243   -0.29266841   
   1417000   0.13629489    -0.18944687     0             -0.077048422   -0.26274626   
   1417500   0.14626837    -0.19058342     0             -0.069960133   -0.12683108   
   1418000   0.13307366    -0.19797838     0             -0.08823638     0.017329846  
   1418500   0.16538662    -0.19543628     0             -0.059046729    0.22174026   
   1419000   0.19470689    -0.18345783     0             -0.022888697    0.18780167   
   1419500   0.20816374    -0.18123726     0             -0.0095706526  -0.26896403   
   1420000   0.17600145    -0.17323567     0             -0.028092364    0.11088022   
   1420500   0.19540696    -0.1826043      0             -0.021457837    0.062987198  
   1421000   0.18988236    -0.17534085     0             -0.018750365   -0.12439082   
   1421500   0.20522101    -0.17669178     0             -0.0074519515   0.19125097   
   1422000   0.1652182     -0.17889769     0             -0.042647023    0.41774192   
   1422500   0.13548571    -0.18009227     0             -0.068361132   -0.25072409   
   1423000   0.13466086    -0.17614325     0             -0.065092334   -0.460963     
   1423500   0.18409443    -0.17888198     0             -0.027064638    0.68384355   
   1424000   0.20911596    -0.17088083     0              0.0015710406  -0.54437387   
   1424500   0.19337522    -0.17500537     0             -0.015534418   -0.042170531  
   1425000   0.15902089    -0.17989211     0             -0.048752179    0.037290121  
   1425500   0.17067188    -0.18060449     0             -0.039856328    0.012202796  
   1426000   0.12014619    -0.18693657     0             -0.087855489    0.15752772   
   1426500   0.14048589    -0.18542152     0             -0.069566876    0.080666207  
   1427000   0.1784542     -0.18106208     0             -0.033896059    0.28506881   
   1427500   0.15532978    -0.18647198     0             -0.058376002   -0.077090471  
   1428000   0.17826824    -0.17882403     0             -0.031811368   -0.21504302   
   1428500   0.16388101    -0.17312499     0             -0.037977057    0.67548435   
   1429000   0.1816719     -0.17603988     0             -0.02622032    -0.083753959  
   1429500   0.17074115    -0.18343084     0             -0.042625557    0.041445316  
   1430000   0.14520855    -0.18593499     0             -0.066185701   -0.28317269   
   1430500   0.18756098    -0.18997342     0             -0.035297306    0.096058677  
   1431000   0.16613617    -0.18014554     0             -0.043137853    0.23080582   
   1431500   0.16997142    -0.18073391     0             -0.0405634     -1.0636459    
   1432000   0.20646442    -0.17353937     0             -0.0032741458   0.24797429   
   1432500   0.20092367    -0.17261787     0             -0.0069219382  -0.11416116   
   1433000   0.1455387     -0.17211536     0             -0.052093808   -0.40994228   
   1433500   0.15851651    -0.1781443      0             -0.04742033    -0.0002670273 
   1434000   0.18167241    -0.17595443     0             -0.026134453    0.10157375   
   1434500   0.14266086    -0.16907627     0             -0.051427985   -0.073580943  
   1435000   0.19199348    -0.1755115      0             -0.017180038   -0.32069781   
   1435500   0.17494126    -0.17985361     0             -0.035584613    0.18652178   
   1436000   0.20614179    -0.17188784     0             -0.0018886707   0.38957836   
   1436500   0.16942076    -0.17990645     0             -0.040190055    0.04465199   
   1437000   0.15148619    -0.18051852     0             -0.055592247   -0.54260826   
   1437500   0.13692486    -0.18038411     0             -0.067466141    0.031243819  
   1438000   0.11295039    -0.17931832     0             -0.086171406    0.038352418  
   1438500   0.12332278    -0.18082471     0             -0.079123986    0.52737446   
   1439000   0.18542571    -0.18270937     0             -0.029794152    0.064985462  
   1439500   0.16573822    -0.17474909     0             -0.038069579   -0.34793261   
   1440000   0.14349064    -0.17297246     0             -0.054639876   -0.089127151  
   1440500   0.13962985    -0.18130856     0             -0.066159864    0.0065547642 
   1441000   0.18408       -0.17735845     0             -0.025552997   -0.51456412   
   1441500   0.16047862    -0.17301285     0             -0.04067078    -0.49960383   
   1442000   0.13696072    -0.18102965     0             -0.068082107   -0.27203862   
   1442500   0.12059131    -0.18265228     0             -0.083204116    0.20124818   
   1443000   0.12501894    -0.18881642     0             -0.085716924   -0.12685614   
   1443500   0.13068843    -0.19001511     0             -0.082240138    0.087742383  
   1444000   0.12614832    -0.19006603     0             -0.086035166    0.19130471   
   1444500   0.1161621     -0.19006198     0             -0.094266452   -0.46693828   
   1445000   0.14310693    -0.18930555     0             -0.071289414   -0.28184358   
   1445500   0.15581125    -0.18379619     0             -0.05530317    -0.22805135   
   1446000   0.16311224    -0.18571854     0             -0.051204594    0.028879029  
   1446500   0.13903014    -0.1815991      0             -0.066944965   -0.61102799   
   1447000   0.19122799    -0.18485235     0             -0.027152167    0.020892301  
   1447500   0.19358808    -0.17548193     0             -0.015835445   -1.0596025    
   1448000   0.23281047    -0.17763629     0              0.014355768    0.66926951   
   1448500   0.23472851    -0.17853182     0              0.01504199    -0.54875753   
   1449000   0.17490608    -0.18049946     0             -0.036259473   -0.21173622   
   1449500   0.19667998    -0.17377616     0             -0.011579874   -0.18974152   
   1450000   0.18246748    -0.17585996     0             -0.025384316   -0.034313196  
   1450500   0.15701968    -0.18334623     0             -0.053856647   -0.50182325   
   1451000   0.15779689    -0.17704284     0             -0.046912313    0.46077603   
   1451500   0.20063414    -0.16478755     0              0.0006696145   0.87753169   
   1452000   0.14388699    -0.1683109      0             -0.049651465    0.19129212   
   1452500   0.15698307    -0.17303555     0             -0.043576162   -0.58059547   
   1453000   0.18378624    -0.17688864     0             -0.025325453   -0.092386863  
   1453500   0.16687741    -0.17285024     0             -0.035231275    0.71100537   
   1454000   0.18927985    -0.17416227     0             -0.018068659   -0.40968765   
   1454500   0.18223656    -0.17974895     0             -0.02946373    -0.0057108981 
   1455000   0.16125548    -0.17304614     0             -0.04006341    -0.11128188   
   1455500   0.20974819    -0.1680124      0              0.0049608628   0.21559251   
   1456000   0.21152472    -0.17242255     0              0.0020157649  -0.21124233   
   1456500   0.19696207    -0.16624289     0             -0.0038139735  -0.060868169  
   1457000   0.21443549    -0.16885701     0              0.0079817339   0.31886786   
   1457500   0.18955724    -0.17311797     0             -0.016795605   -0.39194823   
   1458000   0.14872447    -0.16678664     0             -0.044137872   -0.38288381   
   1458500   0.15654106    -0.17219332     0             -0.043098441   -0.11451663   
   1459000   0.15988158    -0.16807954     0             -0.036229837   -0.54269293   
   1459500   0.13664255    -0.17255461     0             -0.05986946     0.37390484   
   1460000   0.17948398    -0.17369058     0             -0.025675341   -0.016954208  
   1460500   0.16691192    -0.16969282     0             -0.032045387   -0.37986679   
   1461000   0.21224288    -0.15663152     0              0.018399041   -0.38836707   
   1461500   0.2075021     -0.16432538     0              0.0067956028  -0.11643448   
   1462000   0.21684961    -0.15928458     0              0.019545019   -0.076746342  
   1462500   0.1814453     -0.16184546     0             -0.012212776    0.67805082   
   1463000   0.17857515    -0.15874174     0             -0.011475981    0.5848751    
   1463500   0.16652046    -0.16036582     0             -0.023041219    0.19810148   
   1464000   0.18887203    -0.16459723     0             -0.0088399275   0.30999255   
   1464500   0.16274791    -0.17206705     0             -0.037853553   -0.21088481   
   1465000   0.12190773    -0.1731019      0             -0.072568124   -0.11266107   
   1465500   0.15663543    -0.17709384     0             -0.047921137    0.045097712  
   1466000   0.17353635    -0.16906648     0             -0.02595608     0.38580584   
   1466500   0.13094314    -0.17788039     0             -0.069895379   -0.41623241   
   1467000   0.11465804    -0.18053948     0             -0.085984318    0.29430243   
   1467500   0.13352486    -0.18390675     0             -0.073792664    0.47271937   
   1468000   0.16835171    -0.17741525     0             -0.03858046    -0.17135364   
   1468500   0.1837771     -0.1767765      0             -0.025220847   -0.14182745   
   1469000   0.16257935    -0.17787796     0             -0.043803471    0.24557296   
   1469500   0.15071253    -0.17985552     0             -0.055567255   -0.21908209   
   1470000   0.15202451    -0.17575502     0             -0.050384802    0.12101097   
   1470500   0.15769337    -0.17994782     0             -0.049902657   -0.20098283   
   1471000   0.15033617    -0.18008725     0             -0.056109367   -0.096759179  
   1471500   0.18034505    -0.1699196      0             -0.021194262    0.011955035  
   1472000   0.17024246    -0.18105583     0             -0.040661802   -0.36860534   
   1472500   0.16749971    -0.17351105     0             -0.035378886   -0.13805269   
   1473000   0.13518197    -0.18202822     0             -0.070547559   -0.1815761    
   1473500   0.17126938    -0.17255318     0             -0.031312282    0.18889785   
   1474000   0.15962012    -0.18271447     0             -0.051080381    0.21989255   
   1474500   0.20289809    -0.17797965     0             -0.010655466    0.34755044   
   1475000   0.19583045    -0.1714326      0             -0.0099368977  -0.22511365   
   1475500   0.18883569    -0.17451188     0             -0.018784553   -0.053385913  
   1476000   0.22120434    -0.17527167     0              0.007149154   -0.43048391   
   1476500   0.17283796    -0.17169428     0             -0.029159815    0.36714272   
   1477000   0.17498279    -0.17643276     0             -0.032129513   -0.029815743  
   1477500   0.16874324    -0.18106703     0             -0.041909361    0.38043798   
   1478000   0.16290682    -0.17655519     0             -0.042210648   -0.66458784   
   1478500   0.15178745    -0.17960705     0             -0.054432328    0.21955526   
   1479000   0.14968542    -0.18327099     0             -0.059829762   -0.51572016   
   1479500   0.16015053    -0.18343964     0             -0.051368137    0.3604872    
   1480000   0.17902241    -0.1827292      0             -0.0350946     -0.11122191   
   1480500   0.18006377    -0.18178196     0             -0.033288581   -0.032608775  
   1481000   0.19408404    -0.17318521     0             -0.01312972     0.229557     
   1481500   0.1699087     -0.17684396     0             -0.036725176   -0.28792483   
   1482000   0.13088551    -0.18184389     0             -0.073906394   -0.10120379   
   1482500   0.13648097    -0.18762424     0             -0.075072332    0.14260249   
   1483000   0.13746679    -0.19386898     0             -0.080504096   -0.13624917   
   1483500   0.11082126    -0.19231162     0             -0.10092054     0.2448415    
   1484000   0.1708132     -0.18623656     0             -0.04537186    -0.26577115   
   1484500   0.17339099    -0.18399404     0             -0.041003508    0.1870717    
   1485000   0.16817263    -0.18637468     0             -0.047687583   -0.47826188   
   1485500   0.12924987    -0.19130533     0             -0.084716704    0.5616034    
   1486000   0.15707722    -0.18080387     0             -0.051266832    0.22879616   
   1486500   0.18795832    -0.17588619     0             -0.020882398    0.31293876   
   1487000   0.13976836    -0.17935776     0             -0.064094841   -0.44109834   
   1487500   0.17186223    -0.18302962     0             -0.041299816   -0.32621788   
   1488000   0.14570192    -0.17878036     0             -0.0586242     -0.071551358  
   1488500   0.15176316    -0.17585462     0             -0.050699931    0.39014505   
   1489000   0.16746748    -0.17279559     0             -0.034690003   -0.12895381   
   1489500   0.14105809    -0.17728698     0             -0.060960459   -0.13308947   
   1490000   0.17331387    -0.1808613      0             -0.037934367   -0.26066728   
   1490500   0.215205      -0.16752316     0              0.0099501733  -0.060056808  
   1491000   0.15619448    -0.17294274     0             -0.044133673    0.16341591   
   1491500   0.17041522    -0.1742172      0             -0.033680704   -0.40458721   
   1492000   0.13958701    -0.16956607     0             -0.054452706    0.014325017  
   1492500   0.15181942    -0.16302047     0             -0.03781939     0.24412735   
   1493000   0.17923313    -0.16936763     0             -0.021559257   -0.045855821  
   1493500   0.16839642    -0.17022319     0             -0.031351532    0.21448827   
   1494000   0.15788527    -0.17118324     0             -0.040979821    0.27075956   
   1494500   0.17858121    -0.16766993     0             -0.020399176    0.16326414   
   1495000   0.1755177     -0.17029969     0             -0.025555331    0.57071626   
   1495500   0.17354585    -0.17634298     0             -0.033224743    0.066968325  
   1496000   0.13151499    -0.17210017     0             -0.063643569    0.14145731   
   1496500   0.13156444    -0.17624447     0             -0.067747082   -0.33517977   
   1497000   0.12023898    -0.1801983      0             -0.08104069    -0.66704179   
   1497500   0.15131462    -0.18471771     0             -0.059932924    0.39373588   
   1498000   0.17398472    -0.1826819      0             -0.039201733    0.30574774   
   1498500   0.17118399    -0.17226863     0             -0.031098144    0.8024857    
   1499000   0.21791898    -0.17017916     0              0.0095323147   0.078931097  
   1499500   0.14711658    -0.17548407     0             -0.054161279    0.43474808   
   1500000   0.20660424    -0.17124639     0             -0.00086585389  0.22010485   
   1500500   0.20069621    -0.17251387     0             -0.0070055097   0.36259792   
   1501000   0.16269648    -0.17552242     0             -0.041351342   -0.51510619   
   1501500   0.14062355    -0.17792099     0             -0.061952817    0.089851212  
   1502000   0.099116377   -0.18164942     0             -0.099911009   -0.27312338   
   1502500   0.12583289    -0.18592328     0             -0.082152537    0.082491009  
   1503000   0.17891692    -0.17073065     0             -0.023183045   -0.042644318  
   1503500   0.15830806    -0.16922683     0             -0.038674755    0.87574449   
   1504000   0.14992875    -0.17747626     0             -0.053834361    0.32087461   
   1504500   0.1515889     -0.18423302     0             -0.059222042   -0.041993951  
   1505000   0.20815235    -0.17443193     0             -0.0027747089   0.19209538   
   1505500   0.18573269    -0.1752334      0             -0.022065022    0.26110175   
   1506000   0.17374411    -0.1703234      0             -0.027041659    0.13242103   
   1506500   0.17312031    -0.17284988     0             -0.030082571    0.053061459  
   1507000   0.16498729    -0.17822011     0             -0.042159868   -0.64003453   
   1507500   0.16235153    -0.17973139     0             -0.045844783   -0.0088933628 
   1508000   0.20323757    -0.17972969     0             -0.012125546   -0.10066576   
   1508500   0.21202446    -0.17074151     0              0.0041089217  -0.14706896   
   1509000   0.15533762    -0.16907861     0             -0.040976172    0.04641105   
   1509500   0.16080712    -0.16797133     0             -0.035358358   -0.53967957   
   1510000   0.14513337    -0.17410184     0             -0.054414553   -1.0539995    
   1510500   0.14597063    -0.17453671     0             -0.054158951    0.26646039   
   1511000   0.1374165     -0.17970596     0             -0.066382551   -0.36004799   
   1511500   0.13073585    -0.17916642     0             -0.071352348   -0.90568166   
   1512000   0.15823984    -0.18444055     0             -0.053944738    0.0048796846 
   1512500   0.15968822    -0.18744992     0             -0.055759664    0.067293565  
   1513000   0.1379344     -0.18798297     0             -0.074232459    0.57384553   
   1513500   0.17613118    -0.18831859     0             -0.043068304    0.10212459   
   1514000   0.13096777    -0.18796177     0             -0.079956438   -0.23860956   
   1514500   0.13341726    -0.1919569      0             -0.081931541    0.054128643  
   1515000   0.1676597     -0.18494998     0             -0.046685877    0.16882408   
   1515500   0.18825287    -0.18023235     0             -0.024985652    0.16112161   
   1516000   0.14709166    -0.18057202     0             -0.059269788   -0.29630357   
   1516500   0.13435645    -0.18183179     0             -0.071031918    0.11653714   
   1517000   0.1170417     -0.18873793     0             -0.092217034    0.33698439   
   1517500   0.15238733    -0.18457231     0             -0.058902884    0.049937934  
   1518000   0.19056411    -0.17554395     0             -0.018391241   -0.13202146   
   1518500   0.17045053    -0.1712575      0             -0.030691886   -0.24564092   
   1519000   0.16301867    -0.17215303     0             -0.037716255   -0.20661031   
   1519500   0.16558114    -0.18008061     0             -0.043530643    0.087096429  
   1520000   0.21208704    -0.17093861     0              0.003963433   -0.067512825  
   1520500   0.2057536     -0.16840658     0              0.0012724601   0.11778994   
   1521000   0.16985226    -0.16966317     0             -0.029590924   -0.17562651   
   1521500   0.15839321    -0.17575225     0             -0.045129949   -0.098130503  
   1522000   0.17618095    -0.178191       0             -0.032899675    0.064988126  
   1522500   0.1512143     -0.17146137     0             -0.046759315   -0.50974654   
   1523000   0.15086608    -0.17126053     0             -0.046845637   -0.17383824   
   1523500   0.12285272    -0.17204604     0             -0.070732956   -0.62923569   
   1524000   0.14029707    -0.17561598     0             -0.059917048    0.19410804   
   1524500   0.19869976    -0.17728438     0             -0.013422442    0.090000614  
   1525000   0.1576136     -0.17859839     0             -0.048619014    0.065066941  
   1525500   0.17744083    -0.17026205     0             -0.02393173    -0.16261191   
   1526000   0.16432747    -0.16852419     0             -0.033008083    0.25717537   
   1526500   0.17548903    -0.16966785     0             -0.024947131    0.36670092   
   1527000   0.16010977    -0.1702469      0             -0.038209007    0.29717855   
   1527500   0.12614122    -0.18064851     0             -0.076623495   -0.26127264   
   1528000   0.17971831    -0.16498362     0             -0.016775139    0.40495224   
   1528500   0.17671658    -0.17429598     0             -0.028562936    0.30233396   
   1529000   0.19716262    -0.16577128     0             -0.003176971   -0.73218235   
   1529500   0.16704131    -0.16836986     0             -0.030615727    0.25772568   
   1530000   0.16902238    -0.16766231     0             -0.028274453   -0.081230525  
   1530500   0.15113011    -0.17343315     0             -0.048800521   -0.20460865   
   1531000   0.15767944    -0.16901479     0             -0.038981125   -0.29613362   
   1531500   0.12686572    -0.17217675     0             -0.067554262    0.3030577    
   1532000   0.14717241    -0.18437721     0             -0.063008386   -0.44092815   
   1532500   0.19272507    -0.17711618     0             -0.018181396    0.053697985  
   1533000   0.1726365     -0.16392209     0             -0.021553763   -0.14783175   
   1533500   0.15323892    -0.16534922     0             -0.038977511   -0.17835743   
   1534000   0.17527835    -0.17164857     0             -0.02710159     0.2644998    
   1534500   0.16351708    -0.169078       0             -0.034230192    0.47501516   
   1535000   0.19925926    -0.17232943     0             -0.0080060839  -0.090683713  
   1535500   0.19166116    -0.1729123      0             -0.014854889   -0.063862249  
   1536000   0.17169595    -0.16958701     0             -0.027994326    0.17936852   
   1536500   0.15969362    -0.18087005     0             -0.04917534     0.089841305  
   1537000   0.22798773    -0.17333016     0              0.014684724    0.13345877   
   1537500   0.19855436    -0.17540605     0             -0.011664017   -0.048938321  
   1538000   0.22359188    -0.16713761     0              0.017252139    0.040395987  
   1538500   0.22842969    -0.17219237     0              0.01618699    -0.09850766   
   1539000   0.22795128    -0.17520131     0              0.012783516   -0.013964437  
   1539500   0.17797574    -0.17425649     0             -0.027485053   -0.088542984  
   1540000   0.23792739    -0.17417703     0              0.022034805    0.063084774  
   1540500   0.2169147     -0.17414924     0              0.0047340282  -0.57359274   
   1541000   0.16727111    -0.17139977     0             -0.033456126   -0.28763039   
   1541500   0.13594693    -0.17351847     0             -0.061406967    0.34103405   
   1542000   0.17523344    -0.17573459     0             -0.03122464     0.68989906   
   1542500   0.15438779    -0.17756361     0             -0.050244468   -0.65934418   
   1543000   0.14369685    -0.18169963     0             -0.063196998    0.44923157   
   1543500   0.17219121    -0.17862993     0             -0.036628818    0.9599236    
   1544000   0.17921456    -0.17516933     0             -0.027376268   -0.052153181  
   1544500   0.16218864    -0.18109455     0             -0.047342272    0.40496976   
   1545000   0.14612311    -0.18728354     0             -0.066780045    0.004692002  
   1545500   0.1584408     -0.18829943     0             -0.057637888    0.034173116  
   1546000   0.16839314    -0.18478771     0             -0.045918763   -0.41136223   
   1546500   0.20488747    -0.18608935     0             -0.01712459     0.019455931  
   1547000   0.18838706    -0.17817481     0             -0.022817459   -0.03676179   
   1547500   0.20145809    -0.180257       0             -0.014120347    0.36050074   
   1548000   0.19002544    -0.18159378     0             -0.0248853      0.37211971   
   1548500   0.14132459    -0.1833023      0             -0.066756001   -0.074752647  
   1549000   0.12674984    -0.18853062     0             -0.084003696    0.090081773  
   1549500   0.11824336    -0.19347031     0             -0.095958433    0.24664567   
   1550000   0.13912756    -0.18977233     0             -0.07503786    -0.0089670351 
   1550500   0.1749901     -0.18055719     0             -0.036247918   -0.053276088  
   1551000   0.17585853    -0.17925314     0             -0.034227703   -0.79238535   
   1551500   0.12914605    -0.1880298      0             -0.081526785   -0.43701214   
   1552000   0.14005364    -0.18549758     0             -0.069999402    0.25494145   
   1552500   0.17276716    -0.18697116     0             -0.04449508    -0.37881016   
   1553000   0.1780316     -0.18333907     0             -0.036521559    0.45026483   
   1553500   0.17183213    -0.18098578     0             -0.039280797    0.7075479    
   1554000   0.14272908    -0.17629108     0             -0.058586547    0.14534408   
   1554500   0.18505132    -0.17384982     0             -0.021243356   -0.072616857  
   1555000   0.2171223     -0.17223263     0              0.0068218479   0.086502645  
   1555500   0.1710088     -0.17541626     0             -0.034390251    0.22368459   
   1556000   0.18499337    -0.16659714     0             -0.014038462    0.14702192   
   1556500   0.16368344    -0.17055347     0             -0.035568476   -0.8199046    
   1557000   0.18854766    -0.16886392     0             -0.013374124   -0.1610433    
   1557500   0.16296834    -0.16528443     0             -0.030889154   -0.3242168    
   1558000   0.19616142    -0.17052676     0             -0.0087581108   0.052602927  
   1558500   0.18989249    -0.17844833     0             -0.021849492    1.0541526    
   1559000   0.20578468    -0.16092647     0              0.0087781986  -0.75610808   
   1559500   0.15714004    -0.16710113     0             -0.037512291   -0.099201101  
   1560000   0.16289667    -0.16465948     0             -0.030323308   -0.29004042   
   1560500   0.17225867    -0.17130124     0             -0.029244503    0.57018144   
   1561000   0.13517363    -0.17658845     0             -0.065114668    0.03414161   
   1561500   0.13506829    -0.17417605     0             -0.062789136    0.05558345   
   1562000   0.13250578    -0.16986361     0             -0.060589932    0.67638259   
   1562500   0.16283053    -0.17567705     0             -0.041395426    0.45306635   
   1563000   0.14999064    -0.1780899      0             -0.05439696     0.070562021  
   1563500   0.16438755    -0.18163677     0             -0.046071114   -0.1561026    
   1564000   0.15537053    -0.17775701     0             -0.049627427    0.34144668   
   1564500   0.1496439     -0.17490084     0             -0.051493851   -0.050869912  
   1565000   0.13840835    -0.17438085     0             -0.060239486   -0.39547135   
   1565500   0.14292028    -0.18116319     0             -0.063300977   -0.29005371   
   1566000   0.14873679    -0.17723082     0             -0.054571902   -0.37866522   
   1566500   0.13761301    -0.18783532     0             -0.074349861   -0.43560262   
   1567000   0.14521525    -0.18216224     0             -0.062407423    0.45059603   
   1567500   0.16216487    -0.17921266     0             -0.045479988   -0.36306465   
   1568000   0.18788232    -0.1726373      0             -0.017696185   -0.0029033711 
   1568500   0.16330029    -0.18097474     0             -0.046305717   -0.11003261   
   1569000   0.24020614    -0.1670065      0              0.031084551   -0.17577873   
   1569500   0.19228623    -0.16755663     0             -0.0089837403  -0.17203003   
   1570000   0.17082368    -0.16755156     0             -0.026678219    0.24733552   
   1570500   0.23598556    -0.16417831     0              0.030432152   -0.16111052   
   1571000   0.21070377    -0.163267       0              0.010494303   -0.033110869  
   1571500   0.21590304    -0.17074379     0              0.0073052006  -0.065177368  
   1572000   0.14373856    -0.16752131     0             -0.048984273   -0.27668798   
   1572500   0.14855323    -0.17581298     0             -0.053305434    0.18889078   
   1573000   0.13270469    -0.18522547     0             -0.075787752    0.099065598  
   1573500   0.18074892    -0.18026748     0             -0.031209075    0.24408463   
   1574000   0.16852526    -0.17887598     0             -0.039898076    1.1767102    
   1574500   0.18931446    -0.17891272     0             -0.022790561   -0.2102728    
   1575000   0.17136354    -0.1792927      0             -0.037974144   -0.40529746   
   1575500   0.18876248    -0.17738141     0             -0.021714458   -0.23967362   
   1576000   0.17096387    -0.18033386     0             -0.0393449      0.62347011   
   1576500   0.15818411    -0.17430248     0             -0.043852617    0.040505282  
   1577000   0.16021597    -0.17217        0             -0.040044528    0.12957208   
   1577500   0.16132018    -0.17144184     0             -0.038405756   -0.36532276   
   1578000   0.12884951    -0.18083363     0             -0.074575169   -0.082810219  
   1578500   0.109659      -0.18329846     0             -0.092865859   -0.54435848   
   1579000   0.16522479    -0.18147034     0             -0.045214239   -0.21450132   
   1579500   0.14683658    -0.1782237      0             -0.057131828    0.31380838   
   1580000   0.1303866     -0.18203503     0             -0.074508975    0.20741436   
   1580500   0.1512271     -0.18251172     0             -0.05779911    -0.11917466   
   1581000   0.17131628    -0.17856708     0             -0.037287504   -0.30913576   
   1581500   0.15960315    -0.17474002     0             -0.043119926   -0.37233795   
   1582000   0.17194111    -0.1813817      0             -0.039586841    0.70328129   
   1582500   0.18702477    -0.17453398     0             -0.020300069    0.12116442   
   1583000   0.13466384    -0.17731292     0             -0.066259551   -0.16334      
   1583500   0.13103238    -0.17961066     0             -0.071552049   -0.45091321   
   1584000   0.15402114    -0.17951217     0             -0.052495393    0.43448119   
   1584500   0.14493999    -0.17321862     0             -0.053690806    0.15886197   
   1585000   0.1965305     -0.17192671     0             -0.0098536977   0.039664999  
   1585500   0.13178756    -0.17592033     0             -0.06723895    -0.80566782   
   1586000   0.1436226     -0.1794132      0             -0.0609718     -0.2076457    
   1586500   0.10694927    -0.17938233     0             -0.091184368    0.10104551   
   1587000   0.11801732    -0.18547866     0             -0.088153192    0.12640215   
   1587500   0.14765984    -0.17789632     0             -0.056125519    0.2276735    
   1588000   0.12491675    -0.18273314     0             -0.079717919   -0.15434244   
   1588500   0.21881306    -0.17317131     0              0.0072774863  -0.38428347   
   1589000   0.16562303    -0.1736658      0             -0.037081282    0.16396499   
   1589500   0.13209849    -0.18017242     0             -0.071234618   -0.24009863   
   1590000   0.14448488    -0.17958633     0             -0.060433837    0.03640029   
   1590500   0.13681192    -0.18209572     0             -0.069270889    0.043045166  
   1591000   0.13349417    -0.18621495     0             -0.076126174    0.085195776  
   1591500   0.14504097    -0.18346921     0             -0.063858126   -0.07044044   
   1592000   0.18819644    -0.18449361     0             -0.029293448   -0.2254998    
   1592500   0.23375717    -0.17438892     0              0.018383848    0.46970253   
   1593000   0.20429592    -0.17262649     0             -0.0041495599   0.24531833   
   1593500   0.22254499    -0.16683842     0              0.016687995   -0.37261645   
   1594000   0.20271314    -0.16775902     0             -0.00058736314  0.11587848   
   1594500   0.19286054    -0.17359751     0             -0.014551004   -0.53149215   
   1595000   0.14515563    -0.17622583     0             -0.056520186    0.21019124   
   1595500   0.15629046    -0.17665247     0             -0.047764249   -0.061670534  
   1596000   0.14614383    -0.18140828     0             -0.060887696    0.010399045  
   1596500   0.15627022    -0.18173917     0             -0.052867643   -0.52811886   
   1597000   0.1702908     -0.18670478     0             -0.046270889    0.28192754   
   1597500   0.2223236     -0.18124793     0              0.0020959107  -0.26548892   
   1598000   0.16025724    -0.18754961     0             -0.055390096   -0.21525257   
   1598500   0.20914739    -0.18744539     0             -0.014967595   -0.50879492   
   1599000   0.18078816    -0.18224068     0             -0.033149919    0.0066309763 
   1599500   0.21418155    -0.18493498     0             -0.0083056564   0.14674355   
   1600000   0.21432022    -0.17713385     0             -0.0003901635   0.06434865   
   1600500   0.205236      -0.17513909     0             -0.0058869038  -0.48137772   
   1601000   0.17507209    -0.17844539     0             -0.034068507   -0.50071322   
   1601500   0.18592466    -0.17312829     0             -0.019801598   -0.0033503987 
   1602000   0.15402204    -0.17014943     0             -0.04313191    -0.28199364   
   1602500   0.13802081    -0.17873042     0             -0.064908655    0.159221     
   1603000   0.14622396    -0.17750119     0             -0.056914515   -0.02844458   
   1603500   0.12492773    -0.17910606     0             -0.076081784   -0.096317909  
   1604000   0.16169304    -0.18002698     0             -0.046683416   -0.16093347   
   1604500   0.16370792    -0.18009665     0             -0.045091464   -0.1571604    
   1605000   0.14056704    -0.17728795     0             -0.061366379   -0.052735211  
   1605500   0.13612368    -0.17982036     0             -0.067563103    0.28562564   
   1606000   0.16568411    -0.18087784     0             -0.044242954   -0.40533644   
   1606500   0.13495141    -0.18151271     0             -0.070222185    0.56608435   
   1607000   0.18247036    -0.18835981     0             -0.037881786   -0.38536739   
   1607500   0.18426333    -0.18287238     0             -0.030915743    0.16036422   
   1608000   0.13836047    -0.18085348     0             -0.066751604    0.19393057   
   1608500   0.17300743    -0.18355171     0             -0.040877496   -0.11475046   
   1609000   0.1918981     -0.17924016     0             -0.020987353    0.3232222    
   1609500   0.17990474    -0.17870562     0             -0.030343387   -0.074387865  
   1610000   0.18639955    -0.18677598     0             -0.033057669    0.28657659   
   1610500   0.16235848    -0.18041223     0             -0.046519892   -0.20281202   
   1611000   0.19674373    -0.18500444     0             -0.022755581    0.48017089   
   1611500   0.21513087    -0.18506581     0             -0.0076536083  -0.15672635   
   1612000   0.18473174    -0.1835882      0             -0.031245281   -0.25379724   
   1612500   0.164942      -0.18390387     0             -0.047880972    0.21204908   
   1613000   0.20163681    -0.18203318     0             -0.015749141   -0.27640254   
   1613500   0.16331331    -0.17809843     0             -0.043418665    0.27898315   
   1614000   0.15610035    -0.17569697     0             -0.046965533   -0.4636752    
   1614500   0.1671458     -0.17642494     0             -0.038584635   -0.5158172    
   1615000   0.18695198    -0.17265715     0             -0.018483265    0.11659307   
   1615500   0.17767161    -0.16793119     0             -0.021410551   -0.37728851   
   1616000   0.14071373    -0.17972911     0             -0.063686578   -0.8609717    
   1616500   0.1574719     -0.17593138     0             -0.046068857   -0.61529799   
   1617000   0.18180159    -0.16909006     0             -0.019163547   -0.35258013   
   1617500   0.14875157    -0.17605232     0             -0.053381204    0.014424325  
   1618000   0.12493585    -0.17826567     0             -0.075234694    0.259277     
   1618500   0.13752131    -0.18330882     0             -0.069898978    0.17275125   
   1619000   0.15561678    -0.17834857     0             -0.050015917    0.40292007   
   1619500   0.12103427    -0.1875152      0             -0.087701747   -2.9952413e-05
   1620000   0.17414398    -0.18070487     0             -0.037093372   -0.19916845   
   1620500   0.1514015     -0.18226736     0             -0.057410927   -0.2987466    
   1621000   0.13633518    -0.18485076     0             -0.072419083    0.01349983   
   1621500   0.1970733     -0.18788154     0             -0.025360891   -0.52406391   
   1622000   0.17481971    -0.18841188     0             -0.044243122   -0.094891736  
   1622500   0.12684825    -0.18393746     0             -0.079329379    0.144902     
   1623000   0.14771279    -0.1792603      0             -0.057445829   -0.19515347   
   1623500   0.17673736    -0.17732339     0             -0.031573208    0.1793575    
   1624000   0.14001238    -0.17736584     0             -0.061901689    0.42112111   
   1624500   0.16818767    -0.18147721     0             -0.042777709   -0.32463328   
   1625000   0.15510837    -0.17704612     0             -0.049132739   -0.25018834   
   1625500   0.13486869    -0.18403587     0             -0.072813559   -0.028800857  
   1626000   0.13949769    -0.18071622     0             -0.065676511    0.11614284   
   1626500   0.1744745     -0.18101163     0             -0.037127563    0.29707555   
   1627000   0.16727375    -0.18773186     0             -0.049786037   -0.017777722  
   1627500   0.17562071    -0.17394185     0             -0.029112536   -0.35194716   
   1628000   0.21941567    -0.17253243     0              0.0084133195   0.051363949  
   1628500   0.15895917    -0.17761745     0             -0.046528426    0.27411175   
   1629000   0.16090995    -0.17411312     0             -0.041415346    0.12803999   
   1629500   0.19753783    -0.16923753     0             -0.0063338039  -0.3906378    
   1630000   0.18869411    -0.16754302     0             -0.011932455    0.11995074   
   1630500   0.12769221    -0.17665093     0             -0.071346858    0.58344231   
   1631000   0.19157677    -0.1692306      0             -0.011242782    0.30065721   
   1631500   0.1820587     -0.16865728     0             -0.018518737   -0.6177562    
   1632000   0.16975084    -0.1706267      0             -0.030638098   -0.018334539  
   1632500   0.17379391    -0.17070721     0             -0.027384405   -0.032957666  
   1633000   0.18438563    -0.17768918     0             -0.025631683   -0.006271495  
   1633500   0.13601162    -0.17733323     0             -0.065168391   -0.31951136   
   1634000   0.11923218    -0.18428017     0             -0.085952846    0.70851106   
   1634500   0.13059882    -0.18448292     0             -0.076781855   -0.19270348   
   1635000   0.13774117    -0.18638277     0             -0.07279162    -0.24334732   
   1635500   0.18087664    -0.17504271     0             -0.025878989    0.30783765   
   1636000   0.18512656    -0.17130519     0             -0.018636679   -0.11362309   
   1636500   0.16595741    -0.17867898     0             -0.041818701    0.32238391   
   1637000   0.13975268    -0.18299909     0             -0.067749096   -0.23328514   
   1637500   0.15965378    -0.18173707     0             -0.050075222    0.51062438   
   1638000   0.15925262    -0.18303652     0             -0.051705489   -0.068999599  
   1638500   0.16208795    -0.178127       0             -0.044457758    0.11835265   
   1639000   0.17121216    -0.18398296     0             -0.04278925     0.044019688  
   1639500   0.164019      -0.18763577     0             -0.052374051   -0.016861731  
   1640000   0.17863032    -0.1825879      0             -0.035276648   -0.55194353   
   1640500   0.18295942    -0.17519374     0             -0.024312402    0.13294561   
   1641000   0.17030202    -0.17911273     0             -0.038669584   -0.13476936   
   1641500   0.15794364    -0.17719664     0             -0.046945091    0.2117706    
   1642000   0.15396917    -0.18122067     0             -0.054246758   -0.021581374  
   1642500   0.20023969    -0.17024695     0             -0.0051150722  -0.35051858   
   1643000   0.21228107    -0.16569415     0              0.0093679029   0.38221674   
   1643500   0.14792263    -0.1660235      0             -0.044035985   -0.1476665    
   1644000   0.17602279    -0.16454876     0             -0.019387861    0.18274531   
   1644500   0.15412576    -0.16718635     0             -0.040083297    0.24735418   
   1645000   0.18455155    -0.16182083     0             -0.009626507   -0.28147696   
   1645500   0.16595982    -0.16511256     0             -0.0282503     -0.14283893   
   1646000   0.1811871     -0.16867199     0             -0.01925223     0.33326124   
   1646500   0.15049013    -0.16934012     0             -0.045235272    0.34179643   
   1647000   0.12858194    -0.17235745     0             -0.066319645   -0.024776772  
   1647500   0.13825056    -0.17827708     0             -0.064265843   -0.38189302   
   1648000   0.14541241    -0.17938697     0             -0.059469564    0.68263589   
   1648500   0.16337198    -0.18010613     0             -0.045377985   -0.10851267   
   1649000   0.19263337    -0.17413068     0             -0.01527152     0.053862226  
   1649500   0.16607979    -0.17125933     0             -0.034298135    0.79354403   
   1650000   0.21296411    -0.17701646     0             -0.0013911185   0.1991209    
   1650500   0.17424899    -0.17470751     0             -0.031009412   -0.83324966   
   1651000   0.15147484    -0.18398293     0             -0.05906601    -0.022855608  
   1651500   0.13359459    -0.18068525     0             -0.07051366    -0.007483228  
   1652000   0.12702631    -0.18714395     0             -0.082389027    0.45798164   
   1652500   0.13235128    -0.19352539     0             -0.084379124    0.25438404   
   1653000   0.16397026    -0.18508348     0             -0.049861958    0.26046169   
   1653500   0.16705934    -0.19298433     0             -0.055215333   -0.32043871   
   1654000   0.13797616    -0.19139879     0             -0.07761385    -0.11487095   
   1654500   0.11109801    -0.19713016     0             -0.10551084     0.049865078  
   1655000   0.12961239    -0.19866025     0             -0.091772664    0.34859644   
   1655500   0.14142318    -0.19604896     0             -0.079421353   -0.72815204   
   1656000   0.15230024    -0.19553854     0             -0.06994094    -0.23145658   
   1656500   0.13025576    -0.19148364     0             -0.084065487   -0.23976077   
   1657000   0.13330777    -0.19732022     0             -0.087385159    0.039634114  
   1657500   0.13591066    -0.19568957     0             -0.083607983   -0.089894526  
   1658000   0.18129293    -0.19856396     0             -0.049056927   -0.1242094    
   1658500   0.16556137    -0.19478302     0             -0.05824935     0.061431298  
   1659000   0.16970286    -0.19248554     0             -0.052536502   -0.14033461   
   1659500   0.17851429    -0.19010381     0             -0.042888244    0.43088419   
   1660000   0.13867863    -0.18693923     0             -0.072574983   -0.52576029   
   1660500   0.12340878    -0.19101139     0             -0.089239742    0.31072385   
   1661000   0.13637951    -0.1941994      0             -0.081731168   -0.16039689   
   1661500   0.17643268    -0.19127765     0             -0.045778727    0.62523247   
   1662000   0.21172851    -0.1865542      0             -0.01194783     0.13077153   
   1662500   0.18702805    -0.1855444      0             -0.031307778    0.50727052   
   1663000   0.18984113    -0.18270956     0             -0.02615307    -0.48202571   
   1663500   0.15282668    -0.17980393     0             -0.053772191   -0.13972479   
   1664000   0.14445321    -0.19267395     0             -0.07354757    -0.070102124  
   1664500   0.17579474    -0.18238278     0             -0.037409949    0.24640976   
   1665000   0.15054994    -0.19063519     0             -0.066481016   -0.24052213   
   1665500   0.14325785    -0.18389854     0             -0.065757932    0.74090518   
   1666000   0.18871407    -0.19179967     0             -0.036172641   -0.2332168    
   1666500   0.14662923    -0.18567765     0             -0.064756771    0.33105808   
   1667000   0.13877539    -0.1859946      0             -0.071550555   -0.097777731  
   1667500   0.12923245    -0.19852133     0             -0.09194707    -0.14799628   
   1668000   0.11909894    -0.19846698     0             -0.10024954     0.51392065   
   1668500   0.10631721    -0.19813662     0             -0.11045989     0.2823561    
   1669000   0.19624943    -0.18642118     0             -0.02457995     0.20427395   
   1669500   0.14241652    -0.19483858     0             -0.0773918     -0.35556295   
   1670000   0.14178918    -0.19862075     0             -0.081691319   -0.36141969   
   1670500   0.1376455     -0.19218607     0             -0.078673814   -0.25232991   
   1671000   0.18835263    -0.19108629     0             -0.035757335    0.095485495  
   1671500   0.15095745    -0.18707616     0             -0.062585924   -0.09051375   
   1672000   0.13376186    -0.19068653     0             -0.080376995   -0.34256974   
   1672500   0.19249042    -0.18992761     0             -0.03118633     0.43756906   
   1673000   0.17801188    -0.18432171     0             -0.037520459    0.010494307  
   1673500   0.15641331    -0.18771934     0             -0.058729805   -0.15830601   
   1674000   0.17629663    -0.18875217     0             -0.043365441    0.097238209  
   1674500   0.16198485    -0.18956889     0             -0.055984681    0.13681023   
   1675000   0.19831333    -0.18137548     0             -0.017832216    0.13264219   
   1675500   0.17183341    -0.18569147     0             -0.043985433    0.42123533   
   1676000   0.20826429    -0.17482647     0             -0.0030769349  -0.14994503   
   1676500   0.14820396    -0.18163093     0             -0.059411409   -0.088542195  
   1677000   0.24789376    -0.17531145     0              0.029119359    0.30044089   
   1677500   0.20830286    -0.17987093     0             -0.0080895898   0.029304946  
   1678000   0.17056305    -0.16754374     0             -0.026885326   -0.26464608   
   1678500   0.15151259    -0.17457093     0             -0.049622882   -0.082088265  
   1679000   0.14568485    -0.17751666     0             -0.057374588   -0.22665585   
   1679500   0.15889567    -0.17590389     0             -0.044867238    0.17897491   
   1680000   0.14968191    -0.17836059     0             -0.054922258   -0.39282978   
   1680500   0.14110087    -0.18271204     0             -0.066350231    0.61101259   
   1681000   0.17519228    -0.17777787     0             -0.03330186    -0.21234607   
   1681500   0.17787649    -0.17890024     0             -0.03221065    -0.28677782   
   1682000   0.15321599    -0.18258982     0             -0.056237029    0.11150157   
   1682500   0.17103493    -0.18380951     0             -0.042761949    0.23370683   
   1683000   0.14382844    -0.18629796     0             -0.067686808    0.78908493   
   1683500   0.14733805    -0.19243605     0             -0.070930629    0.0086418855 
   1684000   0.13081587    -0.19118093     0             -0.083300865   -0.16150692   
   1684500   0.13801822    -0.19347868     0             -0.079659054   -0.73063179   
   1685000   0.17190146    -0.19189044     0             -0.050128274    0.29214981   
   1685500   0.22777258    -0.1898124      0             -0.0019749517   0.42960635   
   1686000   0.22371305    -0.18299853     0              0.0014911544  -0.0696318    
   1686500   0.16818594    -0.17984344     0             -0.041145359   -0.3552401    
   1687000   0.16930352    -0.17884088     0             -0.039221167    0.10957027   
   1687500   0.1526902     -0.18478359     0             -0.058864401    0.24539054   
   1688000   0.14966911    -0.18242751     0             -0.058999725    0.21369094   
   1688500   0.13914436    -0.18588686     0             -0.071138531   -0.16856895   
   1689000   0.21796191    -0.17480274     0              0.0049441382   0.55605831   
   1689500   0.1887938     -0.17864696     0             -0.022954176    0.062548102  
   1690000   0.18236395    -0.17890302     0             -0.028512749   -0.34259468   
   1690500   0.15837533    -0.17782045     0             -0.047212902   -0.11630248   
   1691000   0.18554782    -0.17499371     0             -0.021977797    0.096556087  
   1691500   0.12099534    -0.1756095      0             -0.075828141   -0.73684462   
   1692000   0.11808759    -0.18314301     0             -0.085759593   -0.036344936  
   1692500   0.11697625    -0.17948037     0             -0.083013445   -0.29280654   
   1693000   0.1427553     -0.17817694     0             -0.060450782    0.45759968   
   1693500   0.14098171    -0.17441821     0             -0.05815468    -0.29209457   
   1694000   0.15764779    -0.18590075     0             -0.055893177   -0.23180571   
   1694500   0.18340241    -0.17698484     0             -0.025738179   -0.029103149  
   1695000   0.16056352    -0.17492977     0             -0.042517679   -0.11178646   
   1695500   0.17570154    -0.17639675     0             -0.031500779    0.3610686    
   1696000   0.13873133    -0.18300048     0             -0.068592766   -0.39204022   
   1696500   0.1444925     -0.18860398     0             -0.069445194   -0.086243961  
   1697000   0.14599584    -0.18136732     0             -0.060968777   -0.06817084   
   1697500   0.14809902    -0.18333918     0             -0.061206204    0.6075253    
   1698000   0.1610558     -0.18471574     0             -0.051897682    0.0676412    
   1698500   0.18019896    -0.17842862     0             -0.029823759    0.025836016  
   1699000   0.14962205    -0.18682154     0             -0.063432567    0.31699558   
   1699500   0.19357616    -0.17881524     0             -0.019178591    0.33577223   
   1700000   0.15261328    -0.1790805      0             -0.053224743    0.20131256   
   1700500   0.17870214    -0.17925918     0             -0.031888696   -0.01404368   
   1701000   0.20712244    -0.17478833     0             -0.00398045     0.24577799   
   1701500   0.20921652    -0.17271505     0             -0.00018024334 -0.33797443   
   1702000   0.19350461    -0.17381375     0             -0.014236096    0.28639543   
   1702500   0.19551584    -0.17011532     0             -0.0088790658   0.082460681  
   1703000   0.15307685    -0.17151305     0             -0.045275002   -0.25715095   
   1703500   0.15086866    -0.17647518     0             -0.05205816    -0.0043929511 
   1704000   0.17640862    -0.17237437     0             -0.026895291    0.10970178   
   1704500   0.17046512    -0.17110308     0             -0.030525433    0.27636941   
   1705000   0.12986528    -0.17581973     0             -0.06872359     0.20319702   
   1705500   0.1325828     -0.18289251     0             -0.073555314    0.032381387  
   1706000   0.11956856    -0.18700905     0             -0.088404322   -0.24455049   
   1706500   0.14867913    -0.18365147     0             -0.061040101    0.10087111   
   1707000   0.16531322    -0.17420078     0             -0.037871747    0.15651283   
   1707500   0.15050487    -0.1783005      0             -0.054183492   -0.18818895   
   1708000   0.13060376    -0.18446951     0             -0.076764371    0.042633319  
   1708500   0.12910223    -0.18844774     0             -0.081980864   -0.25618654   
   1709000   0.12340444    -0.18179306     0             -0.080024986   -0.13584943   
   1709500   0.12402111    -0.1848637      0             -0.082587081    0.0099384986 
   1710000   0.15948004    -0.18467128     0             -0.053152707   -0.26278229   
   1710500   0.1400596     -0.18759292     0             -0.072089824    0.13486064   
   1711000   0.18057566    -0.18303389     0             -0.034118373   -0.31945335   
   1711500   0.16664062    -0.18386409     0             -0.046440395    0.098156555  
   1712000   0.20922923    -0.16833532     0              0.004209972   -0.055885185  
   1712500   0.2072613     -0.1700623      0              0.00086009398 -0.40286759   
   1713000   0.17981379    -0.16860394     0             -0.020316711    0.45232285   
   1713500   0.18004865    -0.17209466     0             -0.023613751    0.44891878   
   1714000   0.15928882    -0.17322869     0             -0.041867811    0.019752403  
   1714500   0.15472879    -0.18254583     0             -0.054945468   -0.45475959   
   1715000   0.18631491    -0.17502413     0             -0.021375612   -0.32980429   
   1715500   0.18592582    -0.17730472     0             -0.023977083   -0.057559573  
   1716000   0.22091155    -0.17387848     0              0.0083008894   1.2566363    
   1716500   0.18790747    -0.16289218     0             -0.0079303299   0.057480088  
   1717000   0.24771493    -0.15714782     0              0.047135511    0.080890406  
   1717500   0.23018498    -0.15731639     0              0.032510497   -0.20454497   
   1718000   0.21321358    -0.1637833      0              0.012047768   -0.013971541  
   1718500   0.2034199     -0.16743819     0              0.00031630665 -0.4266662    
   1719000   0.17180656    -0.16229571     0             -0.020611808   -0.15049598   
   1719500   0.18162689    -0.16568307     0             -0.015900634   -0.099994868  
   1720000   0.15953046    -0.16063047     0             -0.029070319   -0.22962754   
   1720500   0.17963227    -0.16430979     0             -0.016172264   -0.28610937   
   1721000   0.16297311    -0.16963669     0             -0.035237484    0.33149772   
   1721500   0.18654212    -0.1674775      0             -0.013641614    0.16840731   
   1722000   0.1870325     -0.16340672     0             -0.0091664324  -0.18047192   
   1722500   0.17340082    -0.17598921     0             -0.032990569   -0.20035948   
   1723000   0.17755255    -0.16701523     0             -0.020592781    0.11479841   
   1723500   0.1571484     -0.16436236     0             -0.034766627    0.2166877    
   1724000   0.17774673    -0.17089795     0             -0.024315368    0.34262625   
   1724500   0.18344376    -0.15985519     0             -0.0085744259  -0.12490918   
   1725000   0.16538882    -0.1650034      0             -0.028612033    0.41789387   
   1725500   0.16707893    -0.16208746     0             -0.024302296    0.15326243   
   1726000   0.17209834    -0.16139869     0             -0.019474172    0.061438498  
   1726500   0.15748938    -0.16626336     0             -0.036386423   -0.14801296   
   1727000   0.23697893    -0.15508508     0              0.040344576    0.014428005  
   1727500   0.16488314    -0.16030735     0             -0.024332995   -0.22154513   
   1728000   0.20353079    -0.14851057     0              0.019335383    0.18626202   
   1728500   0.20194962    -0.15778741     0              0.0087545973   0.20628611   
   1729000   0.18559727    -0.15520573     0             -0.0021490387   0.0031857501 
   1729500   0.14992089    -0.15713245     0             -0.033497027    0.091339966  
   1730000   0.14145556    -0.16098193     0             -0.044327622    0.42801028   
   1730500   0.1566586     -0.15741592     0             -0.028224105    0.17402025   
   1731000   0.17634573    -0.15314303     0             -0.0077158086  -0.38237262   
   1731500   0.16740696    -0.16379387     0             -0.025738189    0.48123816   
   1732000   0.17927892    -0.16165042     0             -0.013804288   -0.53266976   
   1732500   0.21542378    -0.15872807     0              0.01892568     0.0062192256 
   1733000   0.19809561    -0.15092737     0              0.012436348   -0.077177244  
   1733500   0.1783106     -0.15408863     0             -0.0070410389  -0.14220294   
   1734000   0.15292701    -0.16033863     0             -0.034224153   -0.48692572   
   1734500   0.15048134    -0.1628239      0             -0.038726296   -0.26749741   
   1735000   0.11835017    -0.1701574      0             -0.072557442   -0.34658746   
   1735500   0.17312581    -0.16607082     0             -0.023298972    0.46580745   
   1736000   0.16747317    -0.16445716     0             -0.026346891    0.0012354    
   1736500   0.16133907    -0.16192155     0             -0.028869888    0.14334628   
   1737000   0.12678405    -0.17228814     0             -0.067733005    0.040367571  
   1737500   0.12945398    -0.17268143     0             -0.065924484    0.50126692   
   1738000   0.16068144    -0.17370932     0             -0.041199991   -0.046853386  
   1738500   0.16136777    -0.17415675     0             -0.041081419   -0.46330538   
   1739000   0.17904345    -0.16706798     0             -0.01941603    -0.083917692  
   1739500   0.15880474    -0.16705931     0             -0.036097634   -0.4025325    
   1740000   0.14382749    -0.1724531      0             -0.053842724    0.49806757   
   1740500   0.14528647    -0.17884412     0             -0.059030574   -0.0027853924 
   1741000   0.13477141    -0.17884139     0             -0.067699304   -0.16025008   
   1741500   0.12193963    -0.17810578     0             -0.077545696    0.15129948   
   1742000   0.107897      -0.18223593     0             -0.0932564      0.03174904   
   1742500   0.11637271    -0.18519509     0             -0.089225884   -0.17300572   
   1743000   0.15249423    -0.18693865     0             -0.061181071   -0.065269859  
   1743500   0.13060628    -0.18586        0             -0.078152787    0.041733562  
   1744000   0.11324161    -0.18507656     0             -0.091689485   -0.41460563   
   1744500   0.13970863    -0.19041676     0             -0.075203095    0.060623968  
   1745000   0.16194016    -0.18764643     0             -0.054099066   -0.2297365    
   1745500   0.13875028    -0.18124699     0             -0.066823653    0.8236812    
   1746000   0.13070518    -0.18445003     0             -0.076661258   -0.16643208   
   1746500   0.098747802   -0.19141485     0             -0.10998039     0.33804266   
   1747000   0.098574825   -0.18803173     0             -0.10673992     0.057302672  
   1747500   0.097553117   -0.20206593     0             -0.12161669     0.19676657   
   1748000   0.13989695    -0.20259872     0             -0.087229758    0.46098691   
   1748500   0.17325027    -0.20042691     0             -0.057552427    0.3301572    
   1749000   0.13475467    -0.19493121     0             -0.083802939    0.027477461  
   1749500   0.13481953    -0.19621102     0             -0.085029261   -0.27192479   
   1750000   0.14794373    -0.1895404      0             -0.06753549     0.14885473   
   1750500   0.14935463    -0.19332184     0             -0.070153402    0.72536289   
   1751000   0.18608559    -0.19442332     0             -0.040963921    0.33598636   
   1751500   0.18480364    -0.18900599     0             -0.036603781    0.096513633  
   1752000   0.17884455    -0.18010504     0             -0.032617118   -0.10767914   
   1752500   0.16444272    -0.18191216     0             -0.046301005    0.45488247   
   1753000   0.13214574    -0.1838895      0             -0.074912738    0.21988379   
   1753500   0.14409594    -0.18737968     0             -0.06854793    -0.10576293   
   1754000   0.13431456    -0.1917274      0             -0.080962076    0.20524151   
   1754500   0.13392204    -0.19299302     0             -0.08255139    -0.21450619   
   1755000   0.12681041    -0.19099874     0             -0.086421865    0.14239775   
   1755500   0.14802384    -0.19057913     0             -0.06850815    -0.35232283   
   1756000   0.18414844    -0.18332352     0             -0.031461633    0.026664427  
   1756500   0.18075191    -0.17734562     0             -0.028284756    0.3214489    
   1757000   0.19139679    -0.18292549     0             -0.025086098    0.13968336   
   1757500   0.18046541    -0.1760887      0             -0.027264097   -0.63704095   
   1758000   0.20908706    -0.16966643     0              0.002761615    0.40730633   
   1758500   0.16732109    -0.17138295     0             -0.033398087   -0.29445541   
   1759000   0.1651306     -0.174456       0             -0.038277577   -0.22119541   
   1759500   0.2078466     -0.17523726     0             -0.0038321845   0.30662994   
   1760000   0.15594684    -0.1706805      0             -0.042075649   -0.22087656   
   1760500   0.21498903    -0.16552855     0              0.011766684   -0.05091317   
   1761000   0.140733      -0.17628275     0             -0.060224322   -0.19704261   
   1761500   0.12744149    -0.18036348     0             -0.075266171   -0.15349702   
   1762000   0.15736128    -0.17798012     0             -0.048208823   -0.29530161   
   1762500   0.13349151    -0.1737374      0             -0.063650811    0.089309437  
   1763000   0.18173941    -0.17971001     0             -0.029834778    0.34237373   
   1763500   0.16297994    -0.17140045     0             -0.036995606   -1.0770777    
   1764000   0.21943826    -0.16453883     0              0.016425546    0.07975555   
   1764500   0.20263589    -0.1651918      0              0.0019161484   0.11679112   
   1765000   0.16148009    -0.16907059     0             -0.035902634   -0.62235796   
   1765500   0.14649321    -0.16731606     0             -0.046507357    0.14045267   
   1766000   0.12437577    -0.17878975     0             -0.076220648    0.049844648  
   1766500   0.19680702    -0.17161674     0             -0.0093156863  -0.025643103  
   1767000   0.19743262    -0.16787444     0             -0.0050574753   0.46148718   
   1767500   0.19186299    -0.16871789     0             -0.010494038   -0.52491389   
   1768000   0.15034242    -0.17080947     0             -0.046826425    0.25462381   
   1768500   0.1705745     -0.16901212     0             -0.028344265    0.24670689   
   1769000   0.19259797    -0.17273615     0             -0.013906184    0.23321136   
   1769500   0.19626941    -0.16389917     0             -0.0020414723   0.49937605   
   1770000   0.17376437    -0.17177418     0             -0.02847573     0.27767805   
   1770500   0.16012888    -0.16719372     0             -0.035140067    0.34820444   
   1771000   0.14081683    -0.17191224     0             -0.05578468    -0.37758282   
   1771500   0.14484687    -0.17381154     0             -0.054360523   -0.16270604   
   1772000   0.15853472    -0.1775658      0             -0.046826811    0.3266574    
   1772500   0.14462899    -0.17421775     0             -0.054946405   -0.15335905   
   1773000   0.14388304    -0.17916579     0             -0.06050961     0.015369237  
   1773500   0.15429751    -0.18346259     0             -0.056217898    0.18864874   
   1774000   0.15700101    -0.18026836     0             -0.050794169    0.6936709    
   1774500   0.1526536     -0.17703812     0             -0.051149118    0.36060433   
   1775000   0.15862777    -0.17898386     0             -0.048168129    0.42686      
   1775500   0.14114867    -0.17744495     0             -0.061043728    0.15791733   
   1776000   0.1390248     -0.18158962     0             -0.066939894   -0.06134518   
   1776500   0.19645362    -0.17621855     0             -0.014208936   -0.1425132    
   1777000   0.15739279    -0.17451839     0             -0.044721113    0.25883772   
   1777500   0.14051416    -0.1793602      0             -0.063482235   -0.012290616  
   1778000   0.1335987     -0.17801833     0             -0.067843354    0.10500545   
   1778500   0.15299372    -0.17704499     0             -0.050875499   -0.27815238   
   1779000   0.13216067    -0.18470856     0             -0.075719481   -0.17624133   
   1779500   0.17455271    -0.17899835     0             -0.035049777   -0.14580205   
   1780000   0.14307832    -0.18421847     0             -0.066225921   -0.64381629   
   1780500   0.15855688    -0.18894725     0             -0.058189978    0.18648501   
   1781000   0.19066601    -0.1827287      0             -0.025491963    0.046718901  
   1781500   0.18167326    -0.17742616     0             -0.027605484    0.17101125   
   1782000   0.19459363    -0.17394669     0             -0.013470954   -0.18703269   
   1782500   0.16524829    -0.17218985     0             -0.035914367   -0.54297066   
   1783000   0.13071033    -0.17539766     0             -0.067604628   -0.1163695    
   1783500   0.12712759    -0.17496397     0             -0.070125527   -0.36217962   
   1784000   0.12975078    -0.17795918     0             -0.070957475    0.37246932   
   1784500   0.146353      -0.17154488     0             -0.050851791   -0.61272708   
   1785000   0.14471593    -0.1706586      0             -0.051315556    0.65768808   
   1785500   0.15984449    -0.16717212     0             -0.035353001   -0.24558142   
   1786000   0.19457043    -0.17444163     0             -0.013985027   -0.18587242   
   1786500   0.19021622    -0.16753592     0             -0.010670116    0.55881695   
   1787000   0.13654636    -0.1721404      0             -0.059534572   -0.097514914  
   1787500   0.15748908    -0.17705185     0             -0.047175157    0.012093916  
   1788000   0.14560446    -0.17629553     0             -0.056219751   -0.064821046  
   1788500   0.12651146    -0.17833269     0             -0.074002356   -0.044122744  
   1789000   0.18763286    -0.18563868     0             -0.030903297    0.062821     
   1789500   0.20551584    -0.17263509     0             -0.0031521177   0.1673832    
   1790000   0.18022646    -0.17176727     0             -0.023139721    0.35393152   
   1790500   0.16823822    -0.1725675      0             -0.033826318    0.27537205   
   1791000   0.17461287    -0.17387544     0             -0.029877261   -0.16397029   
   1791500   0.16453003    -0.1760397      0             -0.040356541   -0.056877696  
   1792000   0.15159045    -0.17388642     0             -0.04887417    -0.35540335   
   1792500   0.16665169    -0.16718199     0             -0.029749161   -0.12143458   
   1793000   0.15838998    -0.17372004     0             -0.043100407    0.4069453    
   1793500   0.19701917    -0.17062768     0             -0.0081516694   0.13396643   
   1794000   0.2078984     -0.16824313     0              0.0032046627   0.56985039   
   1794500   0.19124305    -0.16767089     0             -0.0099582872   0.45215503   
   1795000   0.16345876    -0.17032875     0             -0.035529043    0.32649196   
   1795500   0.23191672    -0.16552416     0              0.025730845    0.48579615   
   1796000   0.20151201    -0.16501258     0              0.00116854    -0.50548508   
   1796500   0.23391127    -0.15490226     0              0.037997589    0.015579498  
   1797000   0.18596294    -0.15843589     0             -0.0050776383   0.079149201  
   1797500   0.15379993    -0.15260821     0             -0.02577386    -0.32967372   
   1798000   0.18317612    -0.16127311     0             -0.010213069    0.17361737   
   1798500   0.16590196    -0.16362332     0             -0.026808784   -0.59824266   
   1799000   0.14501743    -0.16744437     0             -0.047852693    0.37977212   
   1799500   0.16446845    -0.17557058     0             -0.039938214   -0.51820791   
   1800000   0.16384709    -0.17075877     0             -0.035638811    0.031281407  
   1800500   0.17372443    -0.17159241     0             -0.028326898    0.10349681   
   1801000   0.16712042    -0.17521528     0             -0.037395912    0.115809     
   1801500   0.13718329    -0.17521103     0             -0.062079942   -0.026764418  
   1802000   0.1892244     -0.17181184     0             -0.015763951    0.55020571   
   1802500   0.18420148    -0.1722981      0             -0.020392479   -0.15395177   
   1803000   0.17844372    -0.16873755     0             -0.021580179    0.15784097   
   1803500   0.21183313    -0.16010837     0              0.014584277   -0.36493978   
   1804000   0.23152192    -0.15538091     0              0.035548511    0.011765712  
   1804500   0.1889765     -0.16417265     0             -0.0083292      0.2237892    
   1805000   0.18099302    -0.15881261     0             -0.0095529129  -0.20496386   
   1805500   0.15277122    -0.16220247     0             -0.036216468    0.48032626   
   1806000   0.17484594    -0.1679028      0             -0.023712418    0.27662811   
   1806500   0.17792315    -0.15960243     0             -0.012874362    0.12414117   
   1807000   0.2453605     -0.15342734     0              0.048914358    0.42959793   
   1807500   0.24187735    -0.1609854      0              0.03848385    -0.04108584   
   1808000   0.19339365    -0.15673586     0              0.0027502849  -0.28050532   
   1808500   0.20187664    -0.15541562     0              0.011066196   -0.17879289   
   1809000   0.16050538    -0.1589262      0             -0.02656206     0.59007845   
   1809500   0.16250014    -0.16781521     0             -0.033806042   -0.12632051   
   1810000   0.15096521    -0.17468982     0             -0.050193186   -0.23032883   
   1810500   0.20825055    -0.15930006     0              0.012438143   -0.20136751   
   1811000   0.18950444    -0.16605928     0             -0.0097804497  -0.20527037   
   1811500   0.15390141    -0.16558191     0             -0.038663875    0.18580089   
   1812000   0.17684593    -0.16551848     0             -0.019678757    0.10820063   
   1812500   0.13178268    -0.17228588     0             -0.063608524   -0.25221368   
   1813000   0.17559486    -0.1756247      0             -0.030816704    0.34882903   
   1813500   0.16008107    -0.17809605     0             -0.046081826   -0.081750927  
   1814000   0.18077338    -0.1766318      0             -0.027553231   -0.083148137  
   1814500   0.1458414     -0.17120155     0             -0.050930366   -0.098331718  
   1815000   0.16906081    -0.17900833     0             -0.039588773   -0.46180094   
   1815500   0.18424835    -0.16476964     0             -0.012825354    0.2209228    
   1816000   0.17784298    -0.16525766     0             -0.018595704   -0.8996968    
   1816500   0.15313747    -0.17422984     0             -0.047941803    0.67816558   
   1817000   0.17960601    -0.17650978     0             -0.028393906    0.47022339   
   1817500   0.19571301    -0.16499268     0             -0.0035938233  -0.054456835  
   1818000   0.14603531    -0.17020775     0             -0.049776658   -0.062601636  
   1818500   0.13769956    -0.17046653     0             -0.056909691    0.12539117   
   1819000   0.15622227    -0.16783222     0             -0.03900024    -0.38091435   
   1819500   0.19939225    -0.17666878     0             -0.012235757    0.19143635   
   1820000   0.20336331    -0.16486006     0              0.0028477766  -0.58442871   
   1820500   0.17192316    -0.16149069     0             -0.019710629    0.40623848   
   1821000   0.19310867    -0.16970354     0             -0.010452413   -0.0065190214 
   1821500   0.16182594    -0.16977405     0             -0.036320886   -0.64827906   
   1822000   0.15448158    -0.17718412     0             -0.049787635   -0.49545099   
   1822500   0.14845372    -0.17137515     0             -0.048949663    0.024108706  
   1823000   0.17337802    -0.1722869      0             -0.029307069    0.53132232   
   1823500   0.14886177    -0.17682749     0             -0.0540655     -0.0825997    
   1824000   0.21242781    -0.17191405     0              0.0032690154  -0.14635014   
   1824500   0.20818786    -0.17665813     0             -0.0049716277   0.2170612    
   1825000   0.18799672    -0.17240894     0             -0.017373485   -0.47518053   
   1825500   0.17734929    -0.17511843     0             -0.028863604   -0.22165109   
   1826000   0.15555577    -0.17261433     0             -0.044331989   -0.55341784   
   1826500   0.18403588    -0.17855949     0             -0.026790427   -0.40311312   
   1827000   0.21060841    -0.16947143     0              0.0042112268  -0.29440997   
   1827500   0.16463821    -0.17812812     0             -0.042355761   -0.27261755   
   1828000   0.18899562    -0.17053268     0             -0.014673461    0.35425358   
   1828500   0.16835515    -0.18232068     0             -0.043483062    0.26289232   
   1829000   0.17196023    -0.17498845     0             -0.033177823   -0.28591244   
   1829500   0.15752059    -0.17571812     0             -0.04581545    -0.82969706   
   1830000   0.18194306    -0.18067991     0             -0.030636737   -0.49889835   
   1830500   0.15658264    -0.18527554     0             -0.056146377    0.39201348   
   1831000   0.16626032    -0.18147747     0             -0.044367397   -0.014215821  
   1831500   0.21847331    -0.18072258     0             -0.00055395876 -0.1411525    
   1832000   0.19552061    -0.17992105     0             -0.018680861    0.56142879   
   1832500   0.19541568    -0.17920666     0             -0.018052997   -0.062598436  
   1833000   0.14347046    -0.18467487     0             -0.066358933    0.72285184   
   1833500   0.16048541    -0.17748926     0             -0.045141587   -0.5063853    
   1834000   0.13249929    -0.17609259     0             -0.066824259   -0.070474422  
   1834500   0.16216125    -0.18205696     0             -0.048327272   -0.13071819   
   1835000   0.18225056    -0.18501866     0             -0.034721901    0.11868376   
   1835500   0.22284703    -0.17524224     0              0.0085332545  -0.44262799   
   1836000   0.22078607    -0.1702937      0              0.011782186   -0.13390183   
   1836500   0.21465853    -0.16683835     0              0.01018433    -0.1274804    
   1837000   0.14263488    -0.17058581     0             -0.052958958   -0.1167112    
   1837500   0.1417524     -0.17717645     0             -0.060277346   -0.23764148   
   1838000   0.149207      -0.18049981     0             -0.057453116    0.098212859  
   1838500   0.13961962    -0.18704547     0             -0.071905219    0.037375526  
   1839000   0.16241767    -0.17501659     0             -0.041075434   -0.13350952   
   1839500   0.12982431    -0.18300665     0             -0.075944303   -0.2518682    
   1840000   0.12594959    -0.18480209     0             -0.080935113    0.06393549   
   1840500   0.12133424    -0.18076844     0             -0.080707607    0.005392408  
   1841000   0.151602      -0.18919579     0             -0.064174012    0.0627385    
   1841500   0.17573115    -0.18384601     0             -0.038925615    0.36878817   
   1842000   0.19287278    -0.18128463     0             -0.022228031    0.067608174  
   1842500   0.1875666     -0.17916391     0             -0.024483162   -0.68852669   
   1843000   0.17090947    -0.17454364     0             -0.033599551   -0.036167535  
   1843500   0.16355684    -0.17902556     0             -0.044144974   -0.2893113    
   1844000   0.16941031    -0.18376837     0             -0.044060591   -0.23799871   
   1844500   0.17886864    -0.17844646     0             -0.03093867     0.11467651   
   1845000   0.19506002    -0.17648592     0             -0.015625567   -0.087490007  
   1845500   0.20846897    -0.17118037     0              0.00073795781  0.26138905   
   1846000   0.17576618    -0.17320752     0             -0.02825824     0.15995043   
   1846500   0.16648172    -0.17322801     0             -0.035935356    1.0034576    
   1847000   0.1580331     -0.17435942     0             -0.044034104    0.25028051   
   1847500   0.19978687    -0.17161161     0             -0.0068531619   0.11888542   
   1848000   0.20437685    -0.17185525     0             -0.0033115779  -0.45260487   
   1848500   0.16697346    -0.16851116     0             -0.030812983    0.13912314   
   1849000   0.19495757    -0.17205652     0             -0.011280657    0.16994003   
   1849500   0.17458597    -0.16918662     0             -0.025210618   -0.10600594   
   1850000   0.14640042    -0.16965692     0             -0.048924725    0.31013638   
   1850500   0.16235383    -0.17563789     0             -0.041749387   -0.21466085   
   1851000   0.18758229    -0.17045922     0             -0.015765527   -0.1173647    
   1851500   0.15880817    -0.17360097     0             -0.042636468    0.51077019   
   1852000   0.1127561     -0.1782546      0             -0.085267901   -0.13455517   
   1852500   0.11570261    -0.18165721     0             -0.086240608   -0.30014301   
   1853000   0.18906279    -0.18616242     0             -0.030247814    0.26604761   
   1853500   0.13310728    -0.18065503     0             -0.070885307    0.25718513   
   1854000   0.21628485    -0.17830854     0              5.5316353e-05 -0.53041709   
   1854500   0.17290216    -0.17457928     0             -0.031991875    0.015184788  
   1855000   0.13612175    -0.1802351      0             -0.067979434    0.067308725  
   1855500   0.19668486    -0.18102883     0             -0.018828524   -0.096118604  
   1856000   0.13481372    -0.17947312     0             -0.068296154   -0.15944667   
   1856500   0.17767211    -0.17629374     0             -0.0297727     -0.3994603    
   1857000   0.16968836    -0.17405119     0             -0.034114106   -0.099828774  
   1857500   0.18155559    -0.1663682      0             -0.016644567   -0.40231762   
   1858000   0.2271549     -0.17369217     0              0.013635908   -0.12778421   
   1858500   0.18879452    -0.16593079     0             -0.010237413   -0.47158247   
   1859000   0.12635481    -0.1770908      0             -0.072889643    0.03542868   
   1859500   0.1041247     -0.18117751     0             -0.095308879    0.1480753    
   1860000   0.13764213    -0.18284353     0             -0.069334055    0.30559448   
   1860500   0.17482432    -0.17892653     0             -0.034753976   -0.23061362   
   1861000   0.16767997    -0.17586342     0             -0.037582605    0.33444043   
   1861500   0.16305028    -0.17580191     0             -0.041339065    0.81865391   
   1862000   0.17297336    -0.18079467     0             -0.038148553   -0.092856443  
   1862500   0.17927044    -0.1768256      0             -0.028986455    0.10827319   
   1863000   0.16259368    -0.17515761     0             -0.041071317    0.22340798   
   1863500   0.13516933    -0.18116186     0             -0.069691631   -0.54831629   
   1864000   0.15712107    -0.17684809     0             -0.047274897    0.26032054   
   1864500   0.1515878     -0.18565654     0             -0.060646474    0.35736726   
   1865000   0.16784153    -0.18481847     0             -0.046404424    0.43152766   
   1865500   0.16765939    -0.18364899     0             -0.045385142    0.30004131   
   1866000   0.12402265    -0.18884099     0             -0.086563098   -0.1265963    
   1866500   0.17695255    -0.18875878     0             -0.042831138   -0.050722986  
   1867000   0.18977695    -0.18437084     0             -0.027867282    0.51533551   
   1867500   0.16428647    -0.17523893     0             -0.039756626    0.20063831   
   1868000   0.20202846    -0.17078327     0             -0.004176249   -0.73660817   
   1868500   0.17803389    -0.1748124      0             -0.027993011   -0.37569697   
   1869000   0.19184118    -0.17065971     0             -0.01245385    -0.00090013362
   1869500   0.16620266    -0.17421526     0             -0.037152739    0.71170816   
   1870000   0.17298672    -0.1730364      0             -0.030379262    0.18862904   
   1870500   0.17609015    -0.17671108     0             -0.031494624   -0.071892081  
   1871000   0.16363257    -0.17845929     0             -0.043516252   -0.69646662   
   1871500   0.17134538    -0.17438551     0             -0.033081938   -0.94849093   
   1872000   0.17411243    -0.17613325     0             -0.032547767   -0.53962639   
   1872500   0.21431333    -0.16782364     0              0.0089143578  -0.37319037   
   1873000   0.20194332    -0.17871125     0             -0.012174442   -0.19220816   
   1873500   0.16352052    -0.1764302      0             -0.04157956     0.12044514   
   1874000   0.1500362     -0.18521023     0             -0.061479722   -0.14723787   
   1874500   0.19185747    -0.17653723     0             -0.018317932    0.4389224    
   1875000   0.18545012    -0.17054129     0             -0.017605948    0.15152881   
   1875500   0.21638118    -0.1736769      0              0.004766392    0.46586797   
   1876000   0.21368557    -0.17367124     0              0.0025490651   0.19085539   
   1876500   0.20187224    -0.16851244     0             -0.0020342476  -0.080540196  
   1877000   0.22264404    -0.17375761     0              0.0098504833  -0.20683428   
   1877500   0.22812576    -0.16970298     0              0.018425726    0.59091617   
   1878000   0.18191087    -0.1788721      0             -0.028855469    0.033515439  
   1878500   0.18032834    -0.17925118     0             -0.030539619   -0.41954541   
   1879000   0.1661972     -0.17415948     0             -0.037101464   -0.075696628  
   1879500   0.14356585    -0.18320714     0             -0.064812535   -0.11965211   
   1880000   0.16823304    -0.17659818     0             -0.037861263    0.1590427    
   1880500   0.16849108    -0.18184374     0             -0.04289402     0.17985264   
   1881000   0.17056106    -0.17068833     0             -0.030031564   -0.49220707   
   1881500   0.17017964    -0.16944416     0             -0.029101942    0.011534437  
   1882000   0.16701456    -0.17549943     0             -0.037767358    0.16640256   
   1882500   0.17116952    -0.17454637     0             -0.033387825    0.0020147098 
   1883000   0.17927957    -0.16630336     0             -0.01845669    -0.19163557   
   1883500   0.20521139    -0.17059025     0             -0.0013583593   0.31583282   
   1884000   0.15178246    -0.17268842     0             -0.047517821    0.039280095  
   1884500   0.17088628    -0.167993       0             -0.02706803    -0.32892822   
   1885000   0.11753795    -0.17314464     0             -0.076214497    0.14757702   
   1885500   0.132813      -0.1732106      0             -0.063683562    0.13336537   
   1886000   0.14635738    -0.17408002     0             -0.053383324   -0.36203154   
   1886500   0.19017197    -0.17146695     0             -0.014637637    0.11121663   
   1887000   0.15324981    -0.17116471     0             -0.044784027   -0.23946937   
   1887500   0.14834286    -0.17108626     0             -0.0487522      0.20017581   
   1888000   0.19279304    -0.17618774     0             -0.017196902    0.23486585   
   1888500   0.18775321    -0.16986689     0             -0.015032257   -0.10862123   
   1889000   0.20190228    -0.16739399     0             -0.00089102913  0.38387859   
   1889500   0.16211697    -0.16703803     0             -0.033344855    0.033411838  
   1890000   0.21333487    -0.16420662     0              0.011724476    0.17053101   
   1890500   0.1875727     -0.16767765     0             -0.012991878    0.36053161   
   1891000   0.17414204    -0.17261501     0             -0.029005111    0.094006064  
   1891500   0.16731299    -0.16848021     0             -0.030502031    0.11895271   
   1892000   0.22375932    -0.17071938     0              0.013808455   -0.19336105   
   1892500   0.18724353    -0.16533553     0             -0.010921212    0.2307659    
   1893000   0.1701514     -0.16762365     0             -0.02730471    -0.35412414   
   1893500   0.18507763    -0.16135421     0             -0.0087260502  -0.15908097   
   1894000   0.16751642    -0.16914451     0             -0.030998569   -0.20560686   
   1894500   0.17332118    -0.16167519     0             -0.018742228    0.28549222   
   1895000   0.12388264    -0.17398902     0             -0.071826597   -0.033608699  
   1895500   0.20833968    -0.17529595     0             -0.003484253   -0.066050096  
   1896000   0.15173552    -0.17108435     0             -0.045952462    0.1135398    
   1896500   0.1586652     -0.17809852     0             -0.047251924   -0.38036206   
   1897000   0.15940229    -0.17798842     0             -0.04653396    -0.099205022  
   1897500   0.16005955    -0.18217041     0             -0.050173933    0.29152632   
   1898000   0.14792908    -0.18351988     0             -0.061527046    0.21026327   
   1898500   0.17884757    -0.18278213     0             -0.035291709   -1.1066967    
   1899000   0.17344941    -0.17755633     0             -0.034517626   -0.16199349   
   1899500   0.14139078    -0.18148869     0             -0.064887803   -0.030170338  
   1900000   0.14727622    -0.18410173     0             -0.062647301    0.39478658   
   1900500   0.1378742     -0.18331959     0             -0.069618734    0.28055496   
   1901000   0.141659      -0.17981236     0             -0.062990284   -0.26867438   
   1901500   0.1859203     -0.17289859     0             -0.019575499    0.15879183   
   1902000   0.16247962    -0.17836222     0             -0.044369986   -0.14815382   
   1902500   0.14239098    -0.17642668     0             -0.059000955   -0.45587881   
   1903000   0.13235289    -0.17963255     0             -0.070484956   -0.25586578   
   1903500   0.14376025    -0.18486153     0             -0.066306608    0.47408568   
   1904000   0.19371008    -0.18510017     0             -0.025353075   -0.15273367   
   1904500   0.13615658    -0.18398515     0             -0.071700764   -0.20042166   
   1905000   0.13073586    -0.18912856     0             -0.081314474    0.25915535   
   1905500   0.15976236    -0.18225945     0             -0.050508064   -0.1400839    
   1906000   0.13094598    -0.18729386     0             -0.0793065     -0.16839438   
   1906500   0.20745044    -0.17728748     0             -0.0062091126  -0.187862     
   1907000   0.21846711    -0.17956267     0              0.00060083298 -0.17582633   
   1907500   0.15390428    -0.18075756     0             -0.053837156    0.26590346   
   1908000   0.17791387    -0.17095919     0             -0.024238766   -0.38061466   
   1908500   0.19844989    -0.17195609     0             -0.0083002162  -0.11010218   
   1909000   0.16933321    -0.17252316     0             -0.032878966   -0.20838686   
   1909500   0.13849489    -0.17691232     0             -0.062699601   -0.08335333   
   1910000   0.18386994    -0.18172897     0             -0.030096748   -0.17439534   
   1910500   0.19412067    -0.17303546     0             -0.012949765   -0.11815371   
   1911000   0.16614465    -0.17964439     0             -0.042629701    0.16445309   
   1911500   0.17978449    -0.1676928      0             -0.019429734    0.54577517   
   1912000   0.1613348     -0.17138931     0             -0.03834117     0.07564772   
   1912500   0.16808778    -0.17347151     0             -0.034854382    0.07526974   
   1913000   0.15347548    -0.18283489     0             -0.056268103   -0.47063157   
   1913500   0.13414609    -0.1799123      0             -0.069285901    0.69746311   
   1914000   0.16123672    -0.17597854     0             -0.043011283    0.68492632   
   1914500   0.15007204    -0.17701201     0             -0.05325194     0.6188292    
   1915000   0.16107251    -0.18422351     0             -0.05139168     0.095512256  
   1915500   0.18119919    -0.17485831     0             -0.025428587   -0.31758382   
   1916000   0.1793628     -0.17287747     0             -0.02496216     0.036893394  
   1916500   0.14677012    -0.17781844     0             -0.056781366    0.10552767   
   1917000   0.16072293    -0.18728674     0             -0.054743185    0.19829587   
   1917500   0.17521468    -0.17758931     0             -0.033094836   -0.18499967   
   1918000   0.13974246    -0.18264004     0             -0.067398475    0.043714526  
   1918500   0.17581596    -0.18181996     0             -0.036829629   -0.19732616   
   1919000   0.14020222    -0.18173641     0             -0.066115698    0.12795786   
   1919500   0.18074549    -0.17497213     0             -0.025916551    0.34198892   
   1920000   0.16148442    -0.1701666      0             -0.036995069   -0.17722197   
   1920500   0.15946117    -0.17672229     0             -0.045219287    0.65497138   
   1921000   0.12779007    -0.18057727     0             -0.075192501   -0.30394344   
   1921500   0.13881064    -0.18297673     0             -0.068503613   -0.31033301   
   1922000   0.1372334     -0.1883137      0             -0.075141289   -0.53429991   
   1922500   0.11765129    -0.19134084     0             -0.094317227    0.035232461  
   1923000   0.16578141    -0.18958242     0             -0.052867289   -0.17935855   
   1923500   0.15400467    -0.19036465     0             -0.063361449   -0.054395137  
   1924000   0.13405971    -0.18574129     0             -0.075186127   -0.38741274   
   1924500   0.13856772    -0.18124779     0             -0.066975001   -0.33891039   
   1925000   0.1407447     -0.19250728     0             -0.0764392      0.14579044   
   1925500   0.16021362    -0.18418984     0             -0.052066301   -0.026517147  
   1926000   0.17211213    -0.18062202     0             -0.03868613     0.23372222   
   1926500   0.15318335    -0.17775281     0             -0.051426936    0.33847453   
   1927000   0.13904944    -0.1784468      0             -0.063776753   -0.22486574   
   1927500   0.17981267    -0.17870651     0             -0.030420206   -0.59589942   
   1928000   0.16505541    -0.17781462     0             -0.041698201    0.024766235  
   1928500   0.12533932    -0.18099441     0             -0.077630698    0.081936055  
   1929000   0.11256738    -0.18680608     0             -0.093975022   -0.28553572   
   1929500   0.16589059    -0.17600472     0             -0.039199552    0.081345075  
   1930000   0.17297584    -0.18122119     0             -0.038573024    0.65569317   
   1930500   0.21372051    -0.1721111      0              0.0041380215   0.18281563   
   1931000   0.16286704    -0.16890261     0             -0.034590871   -0.45367809   
   1931500   0.14795792    -0.1815941      0             -0.059577489   -0.02158175   
   1932000   0.17649579    -0.17401853     0             -0.028467554    0.38980461   
   1932500   0.17547008    -0.17333513     0             -0.028630042   -0.14567229   
   1933000   0.1728909     -0.1737294      0             -0.031151279    0.42486223   
   1933500   0.19755668    -0.16395345     0             -0.0010341782   0.36203518   
   1934000   0.13784626    -0.17118063     0             -0.057502808    0.19232149   
   1934500   0.13524155    -0.17702094     0             -0.06549115    -0.3260964    
   1935000   0.16360781    -0.16828319     0             -0.033360571    0.18967777   
   1935500   0.15856685    -0.16790252     0             -0.037137027   -0.12645212   
   1936000   0.16783754    -0.17368568     0             -0.035274919    0.85727152   
   1936500   0.15173717    -0.18076943     0             -0.055636173   -0.38706842   
   1937000   0.16984387    -0.18036019     0             -0.040294861   -0.82340703   
   1937500   0.2013136     -0.17134279     0             -0.0053252903   0.019604711  
   1938000   0.17464993    -0.17789456     0             -0.033865817    0.41219032   
   1938500   0.14271389    -0.17677164     0             -0.059079625   -0.016642225  
   1939000   0.14169948    -0.18236875     0             -0.065513291    0.61724808   
   1939500   0.12191655    -0.1843827      0             -0.083841649   -0.30471628   
   1940000   0.17260014    -0.18299865     0             -0.040660314    0.40606234   
   1940500   0.17077538    -0.17668527     0             -0.035851757    0.084522933  
   1941000   0.20476025    -0.1716515      0             -0.0027916513  -0.19615289   
   1941500   0.1720508     -0.17358401     0             -0.031698691    0.091636169  
   1942000   0.21627305    -0.1719283      0              0.0064258228  -0.32788732   
   1942500   0.17041128    -0.17265241     0             -0.032119166   -0.10467876   
   1943000   0.21309071    -0.17792685     0             -0.0021971173   0.13336538   
   1943500   0.16861739    -0.17978003     0             -0.040726144   -0.31884886   
   1944000   0.16689652    -0.17653107     0             -0.038896336    0.40401226   
   1944500   0.20384695    -0.17125421     0             -0.0031475242  -0.039442196  
   1945000   0.21758991    -0.17432587     0              0.0051142338   0.20371946   
   1945500   0.26466756    -0.16864854     0              0.049615139   -0.17288564   
   1946000   0.28864119    -0.16358881     0              0.074445221   -0.45682774   
   1946500   0.20775662    -0.1656009      0              0.005729973   -0.42706312   
   1947000   0.17173627    -0.17252904     0             -0.030903104   -0.40527763   
   1947500   0.25509104    -0.16374229     0              0.046623902   -0.10044664   
   1948000   0.20618448    -0.1603271      0              0.0097072747  -0.32856879   
   1948500   0.19071737    -0.16129065     0             -0.0040115555   0.13610569   
   1949000   0.18861121    -0.1594282      0             -0.0038859966  -0.39885317   
   1949500   0.20804732    -0.15600058     0              0.015570027    0.064198035  
   1950000   0.14882491    -0.16018023     0             -0.037448633   -0.26550775   
   1950500   0.15140348    -0.16038691     0             -0.035528844    0.36257553   
   1951000   0.13617805    -0.16949027     0             -0.057188181   -0.18901692   
   1951500   0.135851      -0.16785871     0             -0.055826319   -0.1680741    
   1952000   0.14141502    -0.16808008     0             -0.05145921     0.044474208  
   1952500   0.18630688    -0.16703415     0             -0.013392265    0.27864173   
   1953000   0.13103012    -0.17196437     0             -0.063907626    0.29915341   
   1953500   0.15021878    -0.17692468     0             -0.0530436     -0.01619627   
   1954000   0.14026532    -0.170127       0             -0.054454255    0.32938204   
   1954500   0.18210797    -0.16596226     0             -0.015783082   -0.13879068   
   1955000   0.21949863    -0.1619541      0              0.019060064   -0.20829681   
   1955500   0.18754949    -0.16310267     0             -0.0084360401   0.21858679   
   1956000   0.18150333    -0.17582379     0             -0.026143248    0.099580793  
   1956500   0.19815199    -0.1695483      0             -0.0061380935  -0.097538932  
   1957000   0.18443805    -0.1670884      0             -0.014987681   -0.017966656  
   1957500   0.17405257    -0.17367432     0             -0.030138202   -0.32791621   
   1958000   0.14739667    -0.17860892     0             -0.057055152   -0.045793282  
   1958500   0.12971148    -0.17760091     0             -0.070631608   -0.32949855   
   1959000   0.17538248    -0.17547188     0             -0.030839029   -0.092174202  
   1959500   0.14582748    -0.17374988     0             -0.053490171   -0.32295018   
   1960000   0.17008035    -0.18225452     0             -0.041994181    0.44357782   
   1960500   0.17152527    -0.17358487     0             -0.032132943    0.031859893  
   1961000   0.13337295    -0.17185321     0             -0.061864405    0.017124156  
   1961500   0.16900284    -0.17715655     0             -0.037784794    0.2840514    
   1962000   0.14102589    -0.18375202     0             -0.067452051    0.25795405   
   1962500   0.14597264    -0.18658737     0             -0.066207956   -0.35695284   
   1963000   0.15340338    -0.18144724     0             -0.05493991    -0.099905868  
   1963500   0.15103611    -0.183711       0             -0.059155896    0.11487807   
   1964000   0.13979707    -0.17929386     0             -0.064007262    0.47602046   
   1964500   0.13715433    -0.18163231     0             -0.068525103    0.37714813   
   1965000   0.1311604     -0.18362311     0             -0.075458926    0.36689363   
   1965500   0.14141964    -0.18741587     0             -0.070791192   -0.08759072   
   1966000   0.16085133    -0.18700266     0             -0.05435322    -0.41344763   
   1966500   0.17601681    -0.18759076     0             -0.042434794    0.27566042   
   1967000   0.19332561    -0.18260316     0             -0.023173126    0.028554129  
   1967500   0.15320001    -0.1749951      0             -0.048655483   -0.20965667   
   1968000   0.14986077    -0.1883347      0             -0.06474886     0.094801446  
   1968500   0.15305105    -0.1816538      0             -0.055437031    0.2297601    
   1969000   0.13037739    -0.18757604     0             -0.080057574   -0.16795697   
   1969500   0.1169195     -0.19107055     0             -0.094650424   -0.075701174  
   1970000   0.15344138    -0.1964505      0             -0.069911842   -0.42216067   
   1970500   0.15554705    -0.19015657     0             -0.061881421    0.075971001  
   1971000   0.19627045    -0.18341223     0             -0.021553678    0.056941104  
   1971500   0.17254135    -0.18825464     0             -0.045964788    0.067541295  
   1972000   0.19613046    -0.18397964     0             -0.022236527   -0.33716109   
   1972500   0.20742335    -0.17917168     0             -0.0081156485   0.26118205   
   1973000   0.19620153    -0.17090073     0             -0.0090990072   0.081494957  
   1973500   0.25012582    -0.16998171     0              0.036289818    0.29927641   
   1974000   0.21111349    -0.17172338     0              0.002375807    0.31633728   
   1974500   0.19008071    -0.17333197     0             -0.016577908    0.065034148  
   1975000   0.24528898    -0.17227769     0              0.030005031   -0.81218023   
   1975500   0.21597846    -0.15700388     0              0.021107303   -0.19605369   
   1976000   0.19623774    -0.16099377     0              0.00083781042  0.095754212  
   1976500   0.17360168    -0.16532812     0             -0.022163837    0.097794384  
   1977000   0.15865073    -0.17338257     0             -0.04254791    -0.20269856   
   1977500   0.16652072    -0.16563698     0             -0.028312159    0.20806633   
   1978000   0.18825043    -0.16183918     0             -0.0065945016  -0.17127577   
   1978500   0.19311135    -0.16848334     0             -0.009229995    0.08849643   
   1979000   0.16402194    -0.16857107     0             -0.033306932    0.039933694  
   1979500   0.1467947     -0.17195615     0             -0.050898814   -0.088206525  
   1980000   0.12965669    -0.17038811     0             -0.063463989   -0.1788702    
   1980500   0.16192768    -0.18227998     0             -0.04874291     0.5468745    
   1981000   0.17732451    -0.1709071      0             -0.024672709    0.43975538   
   1981500   0.14117299    -0.17095391     0             -0.054532631    0.46464037   
   1982000   0.13703466    -0.17138757     0             -0.058379049   -0.31740149   
   1982500   0.21575832    -0.17157203     0              0.0063576184   0.148891     
   1983000   0.21139774    -0.16864323     0              0.0056903683  -0.92183934   
   1983500   0.19553444    -0.17095233     0             -0.0097007311  -0.15103164   
   1984000   0.20414602    -0.17314123     0             -0.0047879165   0.30770777   
   1984500   0.17938576    -0.17357541     0             -0.02564116     0.27182473   
   1985000   0.17595347    -0.17147892     0             -0.02637519     0.38802111   
   1985500   0.1772562     -0.17685614     0             -0.03067808     0.028993365  
   1986000   0.16179653    -0.17886282     0             -0.045433907   -0.15198215   
   1986500   0.16865492    -0.17714231     0             -0.038057482   -0.55608743   
   1987000   0.18394061    -0.17866029     0             -0.026969794   -0.59953539   
   1987500   0.17959776    -0.17872596     0             -0.030616888   -0.0097609481 
   1988000   0.14782188    -0.17704233     0             -0.055137911    0.19891428   
   1988500   0.13292694    -0.1784654      0             -0.068844401    0.46491336   
   1989000   0.14593484    -0.17560466     0             -0.055256426    0.053332742  
   1989500   0.14617469    -0.18585553     0             -0.065309492   -0.23723255   
   1990000   0.14344388    -0.18850571     0             -0.070211698   -0.089426706  
   1990500   0.18344967    -0.17552766     0             -0.02424203    -0.33789589   
   1991000   0.22964399    -0.16260806     0              0.026772684    0.40402094   
   1991500   0.16611304    -0.16560374     0             -0.028615126   -0.31678116   
   1992000   0.20805864    -0.16894999     0              0.0026299494   0.101509     
   1992500   0.18194026    -0.16454556     0             -0.014504692   -0.24651078   
   1993000   0.16745802    -0.1628851      0             -0.024787317   -0.10768189   
   1993500   0.19071283    -0.15999367     0             -0.002718316    0.013880618  
   1994000   0.14933781    -0.1672269      0             -0.044072324   -0.32715335   
   1994500   0.18823274    -0.16458937     0             -0.0093592794   0.75624781   
   1995000   0.11817487    -0.17454505     0             -0.077089662   -0.13429855   
   1995500   0.19983677    -0.17573194     0             -0.010932338   -0.072935709  
   1996000   0.15935133    -0.17241786     0             -0.041005431   -0.11535444   
   1996500   0.19085407    -0.18016879     0             -0.022776969   -0.22316463   
   1997000   0.21906248    -0.16574608     0              0.01490841     0.16833465   
   1997500   0.21720739    -0.16945287     0              0.0096717733   0.27286954   
   1998000   0.20595798    -0.17427657     0             -0.0044289842   0.37533241   
   1998500   0.21103817    -0.16460246     0              0.0094346147   0.15989344   
   1999000   0.19568638    -0.17049976     0             -0.0091228666   0.58721702   
   1999500   0.19132853    -0.16795104     0             -0.010167934   -0.2915213    
   2000000   0.24075009    -0.16414392     0              0.034395715    0.078505331  
   2000001   0.2404884     -0.16543228     0              0.032891537    0.28770906   
Loop time of 170.002 on 4 procs for 1000000 steps with 1520 atoms

Performance: 508227.980 tau/day, 5882.268 timesteps/s, 8.941 Matom-step/s
89.2% CPU use with 4 MPI tasks x 1 OpenMP threads

MPI task timing breakdown:
Section |  min time  |  avg time  |  max time  |%varavg| %total
---------------------------------------------------------------
Pair    | 22.382     | 22.774     | 23.264     |   7.4 | 13.40
Bond    | 0.061845   | 0.063631   | 0.065772   |   0.6 |  0.04
Neigh   | 5.8245     | 5.8249     | 5.8253     |   0.0 |  3.43
Comm    | 20.663     | 21.101     | 21.5       |   6.9 | 12.41
Output  | 0.74301    | 0.78853    | 0.83683    |   3.9 |  0.46
Modify  | 115.97     | 116.06     | 116.16     |   0.7 | 68.27
Other   |            | 3.386      |            |       |  1.99

Nlocal:            380 ave         400 max         362 min
Histogram: 1 1 0 0 0 0 0 1 0 1
Nghost:            956 ave         983 max         939 min
Histogram: 1 0 2 0 0 0 0 0 0 1
Neighs:              0 ave           0 max           0 min
Histogram: 4 0 0 0 0 0 0 0 0 0

Total # of neighbors = 0
Ave neighs/atom = 0
Ave special neighs/atom = 2.0657895
Neighbor list builds = 7198
Dangerous builds = 0

# Write data for deformation

write_data data.hydrogel
System init for write_data ...
WARNING: Using a manybody potential with bonds/angles/dihedrals and special_bond exclusions (src/pair.cpp:243)
Hybrid pair style last /omp style sw/omp
Last active /omp style is pair_style sw/omp
WARNING: More than one fix rigid command (src/RIGID/fix_rigid_small.cpp:529)
WARNING: More than one fix rigid command (src/RIGID/fix_rigid_small.cpp:529)
WARNING: One or more atoms are time integrated more than once (src/modify.cpp:296)
Total wall time: 0:05:41
