LAMMPS (29 Aug 2024)
OMP_NUM_THREADS environment is not set. Defaulting to 1 thread. (src/comm.cpp:98)
  using 1 OpenMP thread(s) per MPI task
package omp 0
using multi-threaded neighbor list subroutines
# Input Script of lammps for assembly simulation of polimeric network.

# Fco. Vazquez and Felipe Benavides

# Initialization
units lj
dimension 3
boundary p p p

# Styles of atoms and that stuff
atom_style bond
bond_style zero nocoeff
pair_style hybrid/overlay/omp zero 0.0 lj/cut/omp 1.12 table/omp linear 5000000 threebody/table
#pair_style hybrid/overlay/omp zero 0.0 lj/cut/omp 1.12 sw/omp threebody off threebody/table
newton on

# Create simulaiton box
region simulation_box block -$L $L -$L $L -$L $L
region simulation_box block -6.932675 $L -$L $L -$L $L
region simulation_box block -6.932675 6.932675 -$L $L -$L $L
region simulation_box block -6.932675 6.932675 -6.932675 $L -$L $L
region simulation_box block -6.932675 6.932675 -6.932675 6.932675 -$L $L
region simulation_box block -6.932675 6.932675 -6.932675 6.932675 -6.932675 $L
region simulation_box block -6.932675 6.932675 -6.932675 6.932675 -6.932675 6.932675
# N-atom-types region-ID keyword value Is necesesary the extra/special/per/atom (# of special neighbors per atom)
create_box 4 simulation_box     bond/types 1     extra/bond/per/atom 4     extra/special/per/atom 5
Created orthogonal box = (-6.932675 -6.932675 -6.932675) to (6.932675 6.932675 6.932675)
  2 by 1 by 2 MPI processor grid

# Atom types
mass 1 1.0      # CL
mass 2 1.0      # MO
mass 3 0.5      # PA
mass 4 0.5      # PB

# Coefficients
include potential.in
# Script with the pair-wise interaction and bonds between particles

bond_coeff * nocoeff
pair_coeff 1 3 zero
pair_coeff 1 4 zero
pair_coeff 2 3 zero
pair_coeff 2 4 zero
pair_coeff 3 3 zero
pair_coeff 1 1 lj/cut/omp 1.0 1.0 1.12
pair_coeff 2 2 lj/cut/omp 1.0 1.0 1.12
pair_coeff 1 2 lj/cut/omp 1.0 1.0 1.12
pair_coeff 3 4 table/omp sysFiles/pachTab.table POT 0.6 # sw/omp sysFiles/patchyPot.sw NULL NULL PA PB
Reading pair table potential file sysFiles/pachTab.table with DATE: 2024-07-08
WARNING: 5115 of 1000000 force values in table POT are inconsistent with -dE/dr.
WARNING:  Should only be flagged at inflection points (src/pair_table.cpp:466)
pair_coeff 4 4 table/omp sysFiles/pachTab.table POT 0.6 # sw/omp sysFiles/patchyPot.sw NULL NULL PA PB
Reading pair table potential file sysFiles/pachTab.table with DATE: 2024-07-08
WARNING: 5115 of 1000000 force values in table POT are inconsistent with -dE/dr.
WARNING:  Should only be flagged at inflection points (src/pair_table.cpp:466)
pair_coeff * * threebody/table swapMech.3b NULL NULL PA PB
pair_modify pair lj/cut/omp shift yes


# Molecules
include molecules.in
# Script with all molecule information and create groups for computes

# Read the molecule information
molecule CL sysFiles/molecule.patchy.CL
Read molecule template CL:
# Patchy Cross-Linker
  1 molecules
  0 fragments
  5 atoms with max type 3
  4 bonds with max type 1
  0 angles with max type 0
  0 dihedrals with max type 0
  0 impropers with max type 0
molecule MO sysFiles/molecule.patchy.MO
Read molecule template MO:
# Patchy Monomer
  1 molecules
  0 fragments
  3 atoms with max type 4
  2 bonds with max type 1
  0 angles with max type 0
  0 dihedrals with max type 0
  0 impropers with max type 0

# Introduce the molecules
# ID style args keyword arg
region spawn_box block -$L $L -$L $L -$L $L
region spawn_box block -6.932675 $L -$L $L -$L $L
region spawn_box block -6.932675 6.932675 -$L $L -$L $L
region spawn_box block -6.932675 6.932675 -6.932675 $L -$L $L
region spawn_box block -6.932675 6.932675 -6.932675 6.932675 -$L $L
region spawn_box block -6.932675 6.932675 -6.932675 6.932675 -6.932675 $L
region spawn_box block -6.932675 6.932675 -6.932675 6.932675 -6.932675 6.932675

# create_atoms type style args keyword values
# style_random: N seed region-ID
# keyword_mol: template-ID seed
# keyword_overlap: overlap value = only insert if at least this distance from all existing atoms
# keyword_maxtry: maxtry value = number of attempts to insert a particle before failure
create_atoms 0 random ${NCL} ${seed1} spawn_box mol CL ${seed1} overlap 1.0 maxtry 5000 #xls
create_atoms 0 random 10 ${seed1} spawn_box mol CL ${seed1} overlap 1.0 maxtry 5000 
create_atoms 0 random 10 1234 spawn_box mol CL ${seed1} overlap 1.0 maxtry 5000 
create_atoms 0 random 10 1234 spawn_box mol CL 1234 overlap 1.0 maxtry 5000 
Created 50 atoms
  using lattice units in orthogonal box = (-6.932675 -6.932675 -6.932675) to (6.932675 6.932675 6.932675)
  create_atoms CPU = 0.002 seconds
create_atoms 0 random ${NMO} ${seed2} spawn_box mol MO ${seed2} overlap 1.0 maxtry 5000 #mon
create_atoms 0 random 490 ${seed2} spawn_box mol MO ${seed2} overlap 1.0 maxtry 5000 
create_atoms 0 random 490 4321 spawn_box mol MO ${seed2} overlap 1.0 maxtry 5000 
create_atoms 0 random 490 4321 spawn_box mol MO 4321 overlap 1.0 maxtry 5000 
Created 1470 atoms
  using lattice units in orthogonal box = (-6.932675 -6.932675 -6.932675) to (6.932675 6.932675 6.932675)
  create_atoms CPU = 0.234 seconds

# Create patchy particles
group CrossLinker type 1 3
50 atoms in group CrossLinker
group Monomer type 2 4
1470 atoms in group Monomer
group Patches type 3 4
1020 atoms in group Patches
group CL type 1
10 atoms in group CL
group MO type 2
490 atoms in group MO
group PA type 3
40 atoms in group PA
group CM type 1 2
500 atoms in group CM

# Fix rigid bodies
fix frCL CrossLinker rigid/small/omp molecule
  create bodies CPU = 0.000 seconds
  10 rigid bodies with 50 atoms
  0.46400431 = max distance from body owner to body atom
fix frMO Monomer rigid/small/omp molecule
  create bodies CPU = 0.000 seconds
  490 rigid bodies with 1470 atoms
  0.5 = max distance from body owner to body atom

# Neighbor list
neighbor 1.12 bin # extra-distance style
neigh_modify exclude molecule/intra CrossLinker
neigh_modify exclude molecule/intra Monomer

# COMPUTES

# Compute global kinetic and potential energy and temperature
compute t all temp
compute tCM CM temp
compute ep all pe
compute ek all ke
compute ekCM CM ke
compute stressVirial all pressure t ke pair
compute wcaPair all pair lj/cut/omp epair
compute patchPair all pair table/omp epair
compute swapPair all pair threebody/table epair
compute disc CM displace/atom
compute daux CM chunk/atom type pbc yes
compute dis CM reduce/chunk daux sum c_disc[4]
#compute disM CM reduce/chunk daux sum c_disc[4]

# Energy minimization
minimize 1.0e-4 1.0e-6 1000 10000
WARNING: Using a manybody potential with bonds/angles/dihedrals and special_bond exclusions (src/pair.cpp:243)
Hybrid pair style last /omp style table/omp
Last active /omp style is pair_style table/omp
WARNING: More than one fix rigid command (src/RIGID/fix_rigid_small.cpp:529)
WARNING: More than one fix rigid command (src/RIGID/fix_rigid_small.cpp:529)
Neighbor list info ...
  update: every = 1 steps, delay = 0 steps, check = yes
  max neighbors/atom: 2000, page size: 100000
  master list distance cutoff = 2.24
  ghost atom cutoff = 2.24
  binsize = 1.12, bins = 13 13 13
  6 neighbor lists, perpetual/occasional/extra = 6 0 0
  (1) pair zero, perpetual, skip from (5)
      attributes: half, newton on, omp
      pair build: skip/omp
      stencil: none
      bin: none
  (2) pair lj/cut/omp, perpetual, skip from (5)
      attributes: half, newton on, omp
      pair build: skip/omp
      stencil: none
      bin: none
  (3) pair table/omp, perpetual, skip trim from (5)
      attributes: half, newton on, omp, cut 1.7200000000000002
      pair build: skip/trim/omp
      stencil: none
      bin: none
  (4) pair threebody/table, perpetual, skip from (6)
      attributes: full, newton on, omp, cut 1.7200000000000002
      pair build: skip/omp
      stencil: none
      bin: none
  (5) neighbor class addition, perpetual
      attributes: half, newton on, omp
      pair build: half/bin/newton/omp
      stencil: half/bin/3d
      bin: standard
  (6) neighbor class addition, perpetual
      attributes: full, newton on, omp, cut 1.7200000000000002
      pair build: full/bin/omp
      stencil: full/bin/3d
      bin: standard
WARNING: Cannot count rigid body degrees-of-freedom before bodies are fully initialized (src/RIGID/fix_rigid_small.cpp:1129)
WARNING: Cannot count rigid body degrees-of-freedom before bodies are fully initialized (src/RIGID/fix_rigid_small.cpp:1129)
WARNING: Cannot count rigid body degrees-of-freedom before bodies are fully initialized (src/RIGID/fix_rigid_small.cpp:1129)
WARNING: Cannot count rigid body degrees-of-freedom before bodies are fully initialized (src/RIGID/fix_rigid_small.cpp:1129)
WARNING: Cannot count rigid body degrees-of-freedom before bodies are fully initialized (src/RIGID/fix_rigid_small.cpp:1129)
WARNING: Cannot count rigid body degrees-of-freedom before bodies are fully initialized (src/RIGID/fix_rigid_small.cpp:1129)
Per MPI rank memory allocation (min/avg/max) = 20.01 | 20.01 | 20.02 Mbytes
   Step          Temp          E_pair         E_mol          TotEng         Press     
         0   0              0.00067516832  0              0.00067516832  0.00636608   
         1   0              0.00067516832  0              0.00067516832  0.00636608   
Loop time of 0.000315918 on 4 procs for 1 steps with 1520 atoms

98.3% CPU use with 4 MPI tasks x 1 OpenMP threads

Minimization stats:
  Stopping criterion = quadratic factors are zero
  Energy initial, next-to-last, final = 
    0.000675168319707251 0.000675168319707251 0.000675168319707251
  Force two-norm initial, final = 21.154727 21.154727
  Force max component initial, final = 6.3589627 6.3589627
  Final line search alpha, max atom move = 0.015725835 0.1
  Iterations, force evaluations = 1 2

MPI task timing breakdown:
Section |  min time  |  avg time  |  max time  |%varavg| %total
---------------------------------------------------------------
Pair    | 8.5811e-05 | 9.5964e-05 | 0.00011932 |   0.0 | 30.38
Bond    | 4.9e-07    | 6.185e-07  | 7.79e-07   |   0.0 |  0.20
Neigh   | 0          | 0          | 0          |   0.0 |  0.00
Comm    | 0.00011357 | 0.00013511 | 0.00014753 |   0.0 | 42.77
Output  | 0          | 0          | 0          |   0.0 |  0.00
Modify  | 9.342e-06  | 1.0095e-05 | 1.087e-05  |   0.0 |  3.20
Other   |            | 7.413e-05  |            |       | 23.47

Nlocal:            380 ave         382 max         378 min
Histogram: 1 0 0 0 0 2 0 0 0 1
Nghost:        1000.75 ave        1005 max         993 min
Histogram: 1 0 0 0 0 0 0 1 1 1
Neighs:              0 ave           0 max           0 min
Histogram: 4 0 0 0 0 0 0 0 0 0

Total # of neighbors = 0
Ave neighs/atom = 0
Ave special neighs/atom = 2.0657895
Neighbor list builds = 0
Dangerous builds = 0

# DUMPS and FIXES

thermo ${sstep}
thermo 500

# Save atom positions
dump dumpID all atom ${sstep} info/dumps/assembly/patchyParticles_assembly.*.dumpf
dump dumpID all atom 500 info/dumps/assembly/patchyParticles_assembly.*.dumpf
dump_modify dumpID pbc yes # remap atoms via periodic boundary conditions

# Save global energies and temperature
group Energy empty
0 atoms in group Energy
fix fixEng Energy ave/time 1 10 10 c_t c_ep c_ek c_tCM file info/energy_assembly.fixf

group PairE1 empty
0 atoms in group PairE1
group PairE2 empty
0 atoms in group PairE2
group PairE3 empty
0 atoms in group PairE3

fix fixwca PairE1 ave/time 1 10 10 c_wcaPair file info/wcaPair_assembly.fixf
fix fixpatch PairE2 ave/time 1 10 10 c_patchPair file info/patchPair_assembly.fixf
fix fixswap PairE3 ave/time 1 10 10 c_swapPair file info/swapPair_assembly.fixf

# Save Atom displacement
group Displ empty
0 atoms in group Displ
fix fixDispl Displ ave/time 1 ${Nave} ${Nave} c_dis[1] c_dis[2] c_dis[3] c_dis[4] file info/cmdisplacement_assembly.fixf
fix fixDispl Displ ave/time 1 100000 ${Nave} c_dis[1] c_dis[2] c_dis[3] c_dis[4] file info/cmdisplacement_assembly.fixf
fix fixDispl Displ ave/time 1 100000 100000 c_dis[1] c_dis[2] c_dis[3] c_dis[4] file info/cmdisplacement_assembly.fixf

# Save Stress tensor
group Stress empty
0 atoms in group Stress
fix fixStress5 Stress ave/time 1 ${Nave} ${Nave} c_stressVirial[*] file info/stressVirial_assembly.fixf
fix fixStress5 Stress ave/time 1 100000 ${Nave} c_stressVirial[*] file info/stressVirial_assembly.fixf
fix fixStress5 Stress ave/time 1 100000 100000 c_stressVirial[*] file info/stressVirial_assembly.fixf

# RUN SIMULATION

# Brownian Dynamics using Langevin Thermostat

# Set the time integrator
fix VelVerlet all nve/omp # Use Velocity Verlet integrator
timestep ${tstep}
timestep 0.001

# First elevate the temperature
fix ThermoLng all langevin 0.0 ${temp} ${damp} 12345 # Brownian Dynamics: langevin + nve
fix ThermoLng all langevin 0.0 0.05 ${damp} 12345 
fix ThermoLng all langevin 0.0 0.05 1 12345 
run 1000000
WARNING: Using a manybody potential with bonds/angles/dihedrals and special_bond exclusions (src/pair.cpp:243)
Hybrid pair style last /omp style table/omp
Last active /omp style is pair_style table/omp
WARNING: More than one fix rigid command (src/RIGID/fix_rigid_small.cpp:529)
WARNING: More than one fix rigid command (src/RIGID/fix_rigid_small.cpp:529)
WARNING: One or more atoms are time integrated more than once (src/modify.cpp:296)
WARNING: Computing temperature of portions of rigid bodies (src/RIGID/fix_rigid_small.cpp:1178)
WARNING: Computing temperature of portions of rigid bodies (src/RIGID/fix_rigid_small.cpp:1178)
Per MPI rank memory allocation (min/avg/max) = 20.32 | 20.33 | 20.33 Mbytes
   Step          Temp          E_pair         E_mol          TotEng         Press     
         1   0              0.00067516832  0              0.00067516832  0.021123967  
       500   0.00035952529  0              0              0.0002964901  -0.002371193  
      1000   0.00015858646  3.6216827e-07  0              0.00013114383 -0.0073469111 
      1500   9.9034291e-05  0              0              8.1670713e-05 -0.011984611  
      2000   9.1797e-05     0              0              7.5702329e-05  0.0095307797 
      2500   0.00010171469  0              0              8.3881164e-05  0.00066157764
      3000   0.00012179843  2.563808e-07   0              0.00010070002 -0.032853804  
      3500   0.00014387161  0              0              0.00011864675  0.020184223  
      4000   0.00017681409  0              0              0.00014581346  0.0017651131 
      4500   0.00019251553  0              0              0.00015876198  0.0061737857 
      5000   0.00021586579  0              0              0.00017801827  0.0040573602 
      5500   0.0002595638   7.028814e-08   0              0.00021412504 -0.023906076  
      6000   0.00027442865  0              0              0.00022631336 -0.025119729  
      6500   0.00028989197  0              0              0.00023906552 -0.0075973777 
      7000   0.00031462893  0              0              0.00025946537  0.0082170499 
      7500   0.00034601217  0              0              0.00028534622 -0.026382027  
      8000   0.00037245883  0              0              0.00030715601 -0.0039402865 
      8500   0.00042462783  1.3582799e-07  0              0.00035031411  0.010012875  
      9000   0.00043540613  0              0              0.00035906683  0.04157802   
      9500   0.00045013918  1.4088348e-06  0              0.00037262558  0.031776308  
     10000   0.00048729808  0              0              0.00040186062 -0.043390587  
     10500   0.00050907326  1.3394972e-08  0              0.00041983138  0.010169468  
     11000   0.00050785873  0              0              0.00041881639 -0.035558981  
     11500   0.00057005826  3.7716841e-07  0              0.00047048771  0.0015388774 
     12000   0.00057383823  3.3059284e-07  0              0.00047355837 -0.048060931  
     12500   0.00056424903  0              0              0.00046531984  0.023700007  
     13000   0.00058628203  6.9663038e-07  0              0.00048418645 -0.022337564  
     13500   0.0006203152   2.4937595e-06  0              0.00051404975 -0.0077971161 
     14000   0.00065855851  0              0              0.00054309414  0.024164803  
     14500   0.00070266233  0              0              0.00057946529 -0.019267548  
     15000   0.00072207266  9.7399419e-07  0              0.00059644641 -0.017371478  
     15500   0.00072754735  0              0              0.00059998724  0.0021659159 
     16000   0.00071653649  6.2159757e-07  0              0.0005915285  -0.042027663  
     16500   0.00079105905  1.0671544e-06  0              0.00065343065 -0.029527165  
     17000   0.0008248192   0              0              0.00068020452  0.012746637  
     17500   0.00082381693  2.6549041e-07  0              0.00067964346  0.04195015   
     18000   0.00084967299  0              0              0.00070070072 -0.057237924  
     18500   0.00089175223  1.3762361e-06  0              0.00073677849  0.014940395  
     19000   0.00092936779 -6.5789474e-24  0              0.00076642272 -0.0034430077 
     19500   0.00096986664  1.7454597e-07  0              0.00079999549 -0.065548755  
     20000   0.00104522     2.4633741e-06  0              0.00086442606 -0.067360135  
     20500   0.0010693692   7.4455953e-07  0              0.00088262238 -0.0015955042 
     21000   0.0013308204  -0.00047105168  0              0.00062643736 -0.011426647  
     21500   0.0013177226  -0.00090800692  0              0.00017868073  0.088398435  
     22000   0.0013441144  -0.0012833566   0             -0.00017490433 -0.065284692  
     22500   0.0011190964  -0.0012241441   0             -0.0003012577   0.038869104  
     23000   0.0011682462  -0.0012820391   0             -0.0003186202   0.06145285   
     23500   0.0011779381  -0.0013074086   0             -0.00033599711 -0.034627903  
     24000   0.0011775005  -0.0013096662   0             -0.00033861561 -0.08523265   
     24500   0.0012127082  -0.0013082454   0             -0.00030816003 -0.0028641676 
     25000   0.0012467222  -0.0013143359   0             -0.00028620022  0.027442018  
     25500   0.0012797058  -0.0013148465   0             -0.00025951023  0.075500967  
     26000   0.0013178249  -0.0013151661   0             -0.00022839409 -0.019422265  
     26500   0.0013761796  -0.0013156411   0             -0.00018074558  0.041745182  
     27000   0.0013595549  -0.0013134255   0             -0.00019223998 -0.047098515  
     27500   0.0013528539  -0.0013323317   0             -0.00021667225  0.0011771697 
     28000   0.0015214331  -0.0017544261   0             -0.00049974422  0.015343784  
     28500   0.0018101052  -0.0024496388   0             -0.00095689742 -0.06629784   
     29000   0.0021345241  -0.0033849831   0             -0.0016247029  -0.011368666  
     29500   0.0019566501  -0.0038535868   0             -0.002239994    0.070332711  
     30000   0.0019294261  -0.0044324537   0             -0.0028413119  -0.013926032  
     30500   0.0016621925  -0.0044854395   0             -0.0031146775  -0.029053239  
     31000   0.001846657   -0.0049887001   0             -0.0034658155  -0.0085737811 
     31500   0.0018219292  -0.0054406659   0             -0.0039381736   0.04770991   
     32000   0.0018532219  -0.0057605674   0             -0.004232269    0.060418773  
     32500   0.0017221586  -0.0058704466   0             -0.0044502323   0.043452159  
     33000   0.0018845578  -0.006331717    0             -0.0047775767   0.00085133452
     33500   0.0018937602  -0.0068199839   0             -0.0052582547   0.0020925093 
     34000   0.0018307621  -0.0074144439   0             -0.0059046674  -0.046764746  
     34500   0.0020826288  -0.0081747611   0             -0.0064572773   0.070508771  
     35000   0.0020397167  -0.0084519328   0             -0.0067698375   0.049658641  
     35500   0.0025896162  -0.0094113287   0             -0.0072757472   0.068946719  
     36000   0.0024513     -0.0098625354   0             -0.0078410192  -0.026392533  
     36500   0.002856808   -0.011151272    0             -0.0087953451  -0.0014710415 
     37000   0.0025766299  -0.01189737     0             -0.0097724976   0.1154988    
     37500   0.0025627918  -0.012771584    0             -0.010658123   -0.02973158   
     38000   0.0022163796  -0.012892034    0             -0.01106425    -0.012580576  
     38500   0.0027263033  -0.013965146    0             -0.011716843   -0.068194466  
     39000   0.0022582116  -0.014225283    0             -0.012363001   -0.066469919  
     39500   0.0027906708  -0.015406828    0             -0.013105442    0.10309446   
     40000   0.0026466238  -0.016397585    0             -0.014214991    0.030546131  
     40500   0.0024724827  -0.016947184    0             -0.014908199    0.060626521  
     41000   0.0038881497  -0.018968489    0             -0.015762044    0.11697295   
     41500   0.0027663424  -0.019607671    0             -0.017326349    0.021748544  
     42000   0.0024633342  -0.020396154    0             -0.018364714    0.086159784  
     42500   0.0032182414  -0.022347622    0             -0.019693631   -0.0099025419 
     43000   0.0025836713  -0.022944349    0             -0.02081367     0.026360075  
     43500   0.0033364099  -0.024761608    0             -0.022010167   -0.006097938  
     44000   0.0038303182  -0.026616985    0             -0.023458232    0.0060215919 
     44500   0.0033803081  -0.027021262    0             -0.02423362     0.066386695  
     45000   0.003736536   -0.028378977    0             -0.025297564   -0.025861487  
     45500   0.0027066443  -0.028459005    0             -0.026226914   -0.046270349  
     46000   0.0025616684  -0.029155366    0             -0.027042833   -0.01064942   
     46500   0.0028967026  -0.030179485    0             -0.027790658   -0.14492951   
     47000   0.0037626347  -0.031803174    0             -0.028700238   -0.047883835  
     47500   0.0031000806  -0.032330132    0             -0.029773586   -0.15333899   
     48000   0.003201404   -0.033329299    0             -0.030689194    0.030479297  
     48500   0.0029930729  -0.033903265    0             -0.031434964   -0.08292247   
     49000   0.0031058892  -0.034497142    0             -0.031935805   -0.053068166  
     49500   0.0040297468  -0.036729485    0             -0.033406269    0.084142262  
     50000   0.0030906972  -0.037479305    0             -0.034930496    0.1118749    
     50500   0.0037831318  -0.039410223    0             -0.036290383   -0.047034007  
     51000   0.0041183074  -0.040806789    0             -0.037410541   -0.10359149   
     51500   0.003814663   -0.042424198    0             -0.039278356   -0.063584008  
     52000   0.0030199789  -0.042887498    0             -0.040397009    0.025585525  
     52500   0.0040476312  -0.044950244    0             -0.04161228     0.060858794  
     53000   0.0028476266  -0.045157038    0             -0.042808683   -0.059476857  
     53500   0.0037913361  -0.046882003    0             -0.043755398   -0.11550105   
     54000   0.0037710243  -0.047860424    0             -0.044750569    0.042182278  
     54500   0.0034206359  -0.048876377    0             -0.046055478    0.051793927  
     55000   0.0030086813  -0.049440563    0             -0.04695939     0.022305239  
     55500   0.00347268    -0.049901129    0             -0.047037311   -0.070478156  
     56000   0.0038715479  -0.050512663    0             -0.047319909    0.012066561  
     56500   0.0041861304  -0.051549814    0             -0.048097633   -0.027247835  
     57000   0.0036273798  -0.05279057     0             -0.049799175    0.017964527  
     57500   0.0039479129  -0.054451122    0             -0.051195393   -0.080133115  
     58000   0.0034549961  -0.055520141    0             -0.052670905   -0.017046109  
     58500   0.0031209431  -0.055094046    0             -0.052520294    0.1153409    
     59000   0.0043661308  -0.05743017     0             -0.053829548    0.037726792  
     59500   0.0058870847  -0.057911145    0             -0.053056237    0.0080193742 
     60000   0.0051443029  -0.059685511    0             -0.055443154    0.10132866   
     60500   0.0041557226  -0.060793518    0             -0.057366414   -0.17137249   
     61000   0.0038520138  -0.061523585    0             -0.058346941    0.07965561   
     61500   0.0042027722  -0.063028514    0             -0.05956261     0.079316582  
     62000   0.003885547   -0.064112128    0             -0.06090783    -0.1255383    
     62500   0.0041267324  -0.065457449    0             -0.062054252   -0.051768602  
     63000   0.0034350948  -0.065928798    0             -0.063095975    0.0057915712 
     63500   0.0059820231  -0.06852833     0             -0.063595128   -0.0091583613 
     64000   0.0039562726  -0.06901117     0             -0.065748547   -0.0063668465 
     64500   0.0036482912  -0.068634657    0             -0.065626017   -0.10042228   
     65000   0.0044435384  -0.070823994    0             -0.067159537    0.026562554  
     65500   0.0043252664  -0.071501025    0             -0.067934103   -0.077320831  
     66000   0.0048632963  -0.073009848    0             -0.068999229    0.065271296  
     66500   0.0048974468  -0.072789552    0             -0.068750769   -0.006262803  
     67000   0.0051663865  -0.073291883    0             -0.069031314    0.10478072   
     67500   0.0040332008  -0.073995889    0             -0.070669825    0.02001687   
     68000   0.010676296   -0.074502272    0             -0.06569784    -0.020329086  
     68500   0.0068241772  -0.075237956    0             -0.069610254    0.057062436  
     69000   0.0048421799  -0.075792778    0             -0.071799572   -0.12535191   
     69500   0.0052443217  -0.07702307     0             -0.07269823     0.090705925  
     70000   0.004888281   -0.078512432    0             -0.074481209   -0.047985863  
     70500   0.0039838916  -0.07798723     0             -0.07470183     0.15269557   
     71000   0.0041552775  -0.079752986    0             -0.076326249   -0.065561559  
     71500   0.0045754385  -0.080921696    0             -0.077148465   -0.025925584  
     72000   0.0049876102  -0.082559204    0             -0.078446066    0.15555999   
     72500   0.0052571043  -0.084785539    0             -0.080450157    0.13365095   
     73000   0.0055638131  -0.087260787    0             -0.082672471   -0.067006089  
     73500   0.0044210618  -0.08712776     0             -0.083481838    0.14174126   
     74000   0.0046282336  -0.089489673    0             -0.085672903    0.028908617  
     74500   0.0043386344  -0.090994829    0             -0.087416883   -0.22396664   
     75000   0.015918311   -0.089722198    0             -0.076594827   -0.074016667  
     75500   0.0087317024  -0.091608175    0             -0.084407393    0.049375709  
     76000   0.0063592454  -0.09345297     0             -0.088208684    0.072654299  
     76500   0.0059364116  -0.09374225     0             -0.088846663   -0.026036907  
     77000   0.0049915254  -0.095198864    0             -0.091082498   -0.079131209  
     77500   0.004757788   -0.095568079    0             -0.091644469    0.16629646   
     78000   0.0057344913  -0.098510429    0             -0.09378136     0.084218313  
     78500   0.0052873572  -0.099694041    0             -0.095333711   -0.14004726   
     79000   0.018029031   -0.09748762     0             -0.082619601    0.035976493  
     79500   0.011107964   -0.10138964     0             -0.092229226    0.11404817   
     80000   0.0074272192  -0.10139774     0             -0.09527273    -0.079511321  
     80500   0.0058631757  -0.1036993      0             -0.098864109   -0.07931208   
     81000   0.0053564497  -0.10462048     0             -0.10020317     0.046093417  
     81500   0.0045982525  -0.1048362      0             -0.10104415     0.021782856  
     82000   0.0044100753  -0.10520242     0             -0.10156556     0.067769503  
     82500   0.026785439   -0.10366613     0             -0.081576951   -0.0082711683 
     83000   0.013057023   -0.10448138     0             -0.093713632   -0.010852258  
     83500   0.0077956562  -0.10496466     0             -0.098535808   -0.053616758  
     84000   0.0060292142  -0.10605781     0             -0.10108569     0.038392596  
     84500   0.0059682147  -0.10774657     0             -0.10282476    -0.029302765  
     85000   0.005594634   -0.10931831     0             -0.10470458     0.01183856   
     85500   0.0053612906  -0.11033212     0             -0.10591082    -0.094640849  
     86000   0.0049742563  -0.11114656     0             -0.10704443    -0.0094603883 
     86500   0.0045015267  -0.11148833     0             -0.10777605     0.079050137  
     87000   0.0042340628  -0.11163042     0             -0.10813871    -0.032411931  
     87500   0.004971414   -0.11234775     0             -0.10824797     0.024605085  
     88000   0.0054366261  -0.11299934     0             -0.10851592    -0.013229914  
     88500   0.0056449466  -0.11524126     0             -0.11058604    -0.066168992  
     89000   0.006910359   -0.11555199     0             -0.10985322    -0.08788986   
     89500   0.0064350507  -0.11759654     0             -0.11228974    -0.012934691  
     90000   0.0056580414  -0.11980459     0             -0.11513857     0.038758071  
     90500   0.0054697905  -0.12056563     0             -0.11605485    -0.018748968  
     91000   0.0054454314  -0.12187423     0             -0.11738354    -0.11333477   
     91500   0.0058345502  -0.1239413      0             -0.11912972     0.0013683487 
     92000   0.0092279963  -0.12259685     0             -0.11498678    -0.043344273  
     92500   0.0064538279  -0.12326512     0             -0.11794283     0.031832063  
     93000   0.0053933565  -0.12381307     0             -0.11936532    -0.10278739   
     93500   0.0061765048  -0.12601248     0             -0.1209189     -0.070105009  
     94000   0.0054008196  -0.12718108     0             -0.12272718     0.042433824  
     94500   0.0055908179  -0.12813253     0             -0.12352195    -0.051860119  
     95000   0.005149473   -0.12841969     0             -0.12417307     0.064747437  
     95500   0.0052440366  -0.12917358     0             -0.12484898    -0.010771449  
     96000   0.0047915233  -0.12965618     0             -0.12570475     0.094589054  
     96500   0.0064711999  -0.12888118     0             -0.12354457    -0.0077129356 
     97000   0.0056735867  -0.12953017     0             -0.12485133     0.11591414   
     97500   0.0053281622  -0.12998981     0             -0.12559583     0.068860226  
     98000   0.0049832165  -0.12996352     0             -0.12585401    -0.026040277  
     98500   0.0055916449  -0.13109745     0             -0.12648618     0.11530248   
     99000   0.005563473   -0.13166984     0             -0.1270818      0.15944826   
     99500   0.0052632798  -0.1324218      0             -0.12808133    -0.042455677  
    100000   0.005698341   -0.13410002     0             -0.12940077     0.024219476  
    100500   0.0053157418  -0.13496771     0             -0.13058397     0.0066104628 
    101000   0.0051032378  -0.13536384     0             -0.13115535     0.18757337   
    101500   0.013235234   -0.13590375     0             -0.12498903     0.069821643  
    102000   0.0087441145  -0.13697059     0             -0.12975957     0.041179301  
    102500   0.0061677752  -0.1369858      0             -0.13189941     0.035815312  
    103000   0.0057414473  -0.13756033     0             -0.13282553    -0.036536392  
    103500   0.0055809478  -0.13846602     0             -0.13386357     0.01343212   
    104000   0.006230261   -0.13923512     0             -0.1340972     -0.024211517  
    104500   0.0061409769  -0.14012206     0             -0.13505777     0.10331743   
    105000   0.0054300002  -0.14099511     0             -0.13651715     0.089684025  
    105500   0.0062927153  -0.14236915     0             -0.13717973     0.15316873   
    106000   0.0060268659  -0.14312637     0             -0.13815619     0.14404231   
    106500   0.0061133205  -0.14417803     0             -0.13913656    -0.013309698  
    107000   0.0064204929  -0.14585007     0             -0.14055527     0.1060502    
    107500   0.0064879079  -0.14702665     0             -0.14167626     0.12060466   
    108000   0.0067351814  -0.1485117      0             -0.14295739    -0.14614812   
    108500   0.0066204229  -0.15047355     0             -0.14501388     0.11746707   
    109000   0.0062432587  -0.15055769     0             -0.14540906    -0.1021999    
    109500   0.0056765261  -0.15101422     0             -0.14633296     0.037387932  
    110000   0.0057119554  -0.15188787     0             -0.14717739     0.0017792717 
    110500   0.014624265   -0.15235419     0             -0.14029398    -0.029478665  
    111000   0.0098147223  -0.15380461     0             -0.1457107      0.022268534  
    111500   0.0075008242  -0.15476394     0             -0.14857822    -0.15734626   
    112000   0.0064423101  -0.15433578     0             -0.14902299     0.10773632   
    112500   0.0067519752  -0.15418956     0             -0.1486214      0.04773605   
    113000   0.0071648401  -0.15685351     0             -0.15094488    -0.080575823  
    113500   0.0064315006  -0.15810868     0             -0.15280481     0.066232851  
    114000   0.0062304549  -0.1591445      0             -0.15400643     0.10881669   
    114500   0.011002626   -0.1582374      0             -0.14916385    -0.09245113   
    115000   0.008058964   -0.15924802     0             -0.15260203    -0.028783478  
    115500   0.0069833562  -0.15928882     0             -0.15352985     0.10676317   
    116000   0.0062761311  -0.16147135     0             -0.1562956     -0.071132657  
    116500   0.011861661   -0.1581153      0             -0.14833333     0.059366241  
    117000   0.017796679   -0.15979615     0             -0.14511974     0.049175766  
    117500   0.013486746   -0.15962269     0             -0.14850056     0.042678156  
    118000   0.0087969943  -0.15957561     0             -0.15232099     0.11740611   
    118500   0.0078411579  -0.15985047     0             -0.15338409     0.10943992   
    119000   0.007612351   -0.16271483     0             -0.15643714     0.035687122  
    119500   0.0069840344  -0.16420055     0             -0.15844102     0.071047911  
    120000   0.0069302246  -0.16518272     0             -0.15946757     0.16204417   
    120500   0.0072979014  -0.16484983     0             -0.15883146     0.085872426  
    121000   0.0072023785  -0.16572991     0             -0.15979032    -0.030490866  
    121500   0.0068575326  -0.16711156     0             -0.16145635     0.1136614    
    122000   0.0066425977  -0.16684375     0             -0.16136579     0.0093349254 
    122500   0.0074987078  -0.16637532     0             -0.16019135     0.0080054097 
    123000   0.0074915684  -0.16888981     0             -0.16271174    -0.03056428   
    123500   0.0070577735  -0.16748834     0             -0.161668      -0.061334644  
    124000   0.0070882446  -0.16821532     0             -0.16236985    -0.1571231    
    124500   0.01181094    -0.16976825     0             -0.16002811     0.21283066   
    125000   0.0082798728  -0.16836386     0             -0.16153568    -0.081381904  
    125500   0.0070454314  -0.17025743     0             -0.16444727    -0.077471008  
    126000   0.0089247386  -0.17030704     0             -0.16294706    -0.27079954   
    126500   0.0098467571  -0.1738743      0             -0.16575396     0.12269936   
    127000   0.014748878   -0.17524684     0             -0.16308387     0.013127032  
    127500   0.0099097959  -0.17563375     0             -0.16746143     0.064574932  
    128000   0.011843847   -0.17532168     0             -0.16555441     0.16270871   
    128500   0.015463491   -0.17328115     0             -0.16052886    -0.056710867  
    129000   0.022397049   -0.17046452     0             -0.15199433    -0.094445989  
    129500   0.016463463   -0.17349003     0             -0.15991309     0.045329427  
    130000   0.010936248   -0.1769711      0             -0.16795229     0.095215875  
    130500   0.010451635   -0.17394307     0             -0.16532391    -0.25696636   
    131000   0.0088610559  -0.17519212     0             -0.16788466    -0.0039758222 
    131500   0.020665652   -0.17618394     0             -0.15914158     0.04376831   
    132000   0.016184257   -0.17556932     0             -0.16222263    -0.2065963    
    132500   0.010964725   -0.17645191     0             -0.16740962     0.086757911  
    133000   0.017576153   -0.1755602      0             -0.16106565     0.03629952   
    133500   0.011210058   -0.17628268     0             -0.16703807    -0.029036811  
    134000   0.023640744   -0.17567685     0             -0.15618101    -0.031499812  
    134500   0.021192573   -0.17385415     0             -0.15637725    -0.036424381  
    135000   0.013492046   -0.17396588     0             -0.16283938     0.00043864049
    135500   0.017374119   -0.17480913     0             -0.1604812      0.13456433   
    136000   0.025901527   -0.17301491     0             -0.15165467     0.0022469118 
    136500   0.013509639   -0.17395732     0             -0.16281631    -0.1186967    
    137000   0.0097466741  -0.17555159     0             -0.16751379    -0.025126132  
    137500   0.0086687202  -0.17441624     0             -0.1672674      0.052910227  
    138000   0.012864847   -0.17368541     0             -0.16307614     0.17028051   
    138500   0.0085837655  -0.17519857     0             -0.16811979    -0.095348375  
    139000   0.018454399   -0.17439567     0             -0.15917686     0.084421697  
    139500   0.011463046   -0.17530821     0             -0.16585497     0.0072910785 
    140000   0.014285242   -0.17666822     0             -0.16488759     0.11598052   
    140500   0.010158147   -0.17626531     0             -0.16788818     0.16583117   
    141000   0.0077091362  -0.17717127     0             -0.17081377     0.04688776   
    141500   0.0081767497  -0.17848312     0             -0.17173999    -0.067506775  
    142000   0.0079225035  -0.17874063     0             -0.17220717    -0.10288246   
    142500   0.0082991121  -0.1814061      0             -0.17456207    -0.044885426  
    143000   0.013006466   -0.17920084     0             -0.16847478    -0.026590862  
    143500   0.010288321   -0.17993631     0             -0.17145183    -0.08950566   
    144000   0.01650722    -0.18053449     0             -0.16692147    -0.060119004  
    144500   0.01623798    -0.18030428     0             -0.16691328     0.0019698034 
    145000   0.012393707   -0.1789315      0             -0.16871077    -0.098446261  
    145500   0.011819096   -0.18006737     0             -0.17032051     0.18538344   
    146000   0.0089098916  -0.18006809     0             -0.17272036    -0.063862672  
    146500   0.007797115   -0.1802977      0             -0.17386765    -0.090782503  
    147000   0.0075210449  -0.18017015     0             -0.17396776     0.094165098  
    147500   0.0071873845  -0.18068799     0             -0.17476077     0.29932368   
    148000   0.0073920612  -0.18163173     0             -0.17553571    -0.15961277   
    148500   0.0088133989  -0.17982407     0             -0.17255592     0.074069252  
    149000   0.0087079605  -0.18036239     0             -0.17318118     0.10735062   
    149500   0.0083354127  -0.18217937     0             -0.1753054      0.1281653    
    150000   0.01140762    -0.18267591     0             -0.17326838     0.11786645   
    150500   0.0093983061  -0.18272977     0             -0.17497926    -0.14224324   
    151000   0.011493042   -0.18355429     0             -0.17407631     0.099939797  
    151500   0.015590655   -0.18180178     0             -0.16894461     0.11368434   
    152000   0.02631375    -0.17446117     0             -0.15276098    -0.019285651  
    152500   0.019970418   -0.17690407     0             -0.16043504    -0.13402103   
    153000   0.011632442   -0.17737655     0             -0.16778361     0.21233155   
    153500   0.010185263   -0.17827923     0             -0.16987974    -0.029738794  
    154000   0.0094366559  -0.18003396     0             -0.17225182    -0.019638526  
    154500   0.019263669   -0.17815665     0             -0.16227046    -0.14593043   
    155000   0.011833199   -0.18010856     0             -0.17035006    -0.023385877  
    155500   0.010270369   -0.17986616     0             -0.17139648     0.15871575   
    156000   0.020149051   -0.17960321     0             -0.16298687    -0.024609494  
    156500   0.01287856    -0.18059657     0             -0.169976      -0.0055060912 
    157000   0.010626287   -0.18224313     0             -0.17347993     0.14365398   
    157500   0.0092775193  -0.18227991     0             -0.17462901    -0.039648476  
    158000   0.008689918   -0.18254767     0             -0.17538134     0.10059757   
    158500   0.0085796701  -0.18306934     0             -0.17599394     0.060690573  
    159000   0.008124994   -0.18386232     0             -0.17716187    -0.082458442  
    159500   0.007795878   -0.18543626     0             -0.17900722    -0.10010485   
    160000   0.007566674   -0.18699011     0             -0.18075009    -0.071354316  
    160500   0.024051951   -0.18392327     0             -0.16408832    -0.024412045  
    161000   0.013705445   -0.18389469     0             -0.17259221    -0.034734611  
    161500   0.012052692   -0.18488902     0             -0.17494952     0.0096014271 
    162000   0.020695514   -0.18288591     0             -0.16581892    -0.25140439   
    162500   0.025328143   -0.18229291     0             -0.16140553     0.051983689  
    163000   0.032904378   -0.18075405     0             -0.15361876    -0.06804422   
    163500   0.020349378   -0.17875923     0             -0.16197769     0.18150528   
    164000   0.013312915   -0.1821002      0             -0.17112142     0.074085763  
    164500   0.010299363   -0.18184751     0             -0.17335392     0.18503842   
    165000   0.024029226   -0.18176214     0             -0.16194593    -0.059981038  
    165500   0.01972407    -0.18066867     0             -0.1644028      0.06710506   
    166000   0.015420721   -0.18013421     0             -0.16741719     0.03849638   
    166500   0.014419831   -0.18162068     0             -0.16972906     0.028402763  
    167000   0.012874644   -0.18133566     0             -0.17071831    -0.099740304  
    167500   0.017305921   -0.1802074      0             -0.16593571    -0.083905511  
    168000   0.012655872   -0.18317548     0             -0.17273855     0.12755192   
    168500   0.010247987   -0.18314151     0             -0.17469029     0.11473804   
    169000   0.024377702   -0.18392434     0             -0.16382076     0.10173227   
    169500   0.018133667   -0.18379532     0             -0.16884101    -0.050784938  
    170000   0.020494503   -0.18351094     0             -0.16660972     0.02332642   
    170500   0.013612872   -0.18435114     0             -0.173125      -0.071978058  
    171000   0.010417121   -0.18534004     0             -0.17674935     0.10774472   
    171500   0.0092307315  -0.18526182     0             -0.1776495      0.13104822   
    172000   0.010074938   -0.18701354     0             -0.17870503    -0.019976511  
    172500   0.0094961003  -0.18718232     0             -0.17935117    -0.12465076   
    173000   0.016891301   -0.1871851      0             -0.17325533    -0.11906592   
    173500   0.013121059   -0.18832974     0             -0.17750918     0.16689999   
    174000   0.018943753   -0.1883381      0             -0.17271573     0.14319683   
    174500   0.014665211   -0.18723188     0             -0.17513791    -0.068309733  
    175000   0.011450812   -0.18792459     0             -0.17848144    -0.10436485   
    175500   0.010319921   -0.18877006     0             -0.18025952     0.080075045  
    176000   0.029425839   -0.18723996     0             -0.16297332     0.10651398   
    176500   0.024763076   -0.18366364     0             -0.16324225     0.10042574   
    177000   0.014672287   -0.18634125     0             -0.17424144    -0.13607032   
    177500   0.010756906   -0.18700392     0             -0.17813301    -0.21420955   
    178000   0.015047787   -0.18532197     0             -0.17291249     0.10968484   
    178500   0.013354264   -0.18698661     0             -0.17597373     0.19461765   
    179000   0.012655812   -0.19009524     0             -0.17965836     0.064110907  
    179500   0.012335607   -0.18746459     0             -0.17729177     0.20088666   
    180000   0.025389686   -0.18413276     0             -0.16319462     0.16255666   
    180500   0.019665763   -0.18664519     0             -0.1704274     -0.026551533  
    181000   0.015502747   -0.18874718     0             -0.17596251    -0.16678182   
    181500   0.012838594   -0.18848064     0             -0.17789303    -0.003738504  
    182000   0.0098537796  -0.19043154     0             -0.18230541     0.064678108  
    182500   0.009379545   -0.18935631     0             -0.18162127     0.025377332  
    183000   0.01047697    -0.18892854     0             -0.18028849     0.082284439  
    183500   0.011564808   -0.18930143     0             -0.17976427     0.034832911  
    184000   0.017509001   -0.18989048     0             -0.17545132    -0.16267955   
    184500   0.012604117   -0.18933606     0             -0.17894181     0.050407781  
    185000   0.027115814   -0.18870151     0             -0.16633988    -0.048931978  
    185500   0.01566633    -0.18780352     0             -0.17488395     0.067038552  
    186000   0.012254054   -0.18939869     0             -0.17929312    -0.058280685  
    186500   0.022743261   -0.1905542      0             -0.17179849     0.072328528  
    187000   0.014398882   -0.19178605     0             -0.17991171    -0.06490018   
    187500   0.012998778   -0.19063859     0             -0.17991887    -0.11542452   
    188000   0.017820093   -0.19002712     0             -0.1753314      0.057015594  
    188500   0.014766452   -0.19208945     0             -0.17991198     0.14715803   
    189000   0.013583861   -0.19345872     0             -0.18225651    -0.017259689  
    189500   0.011058958   -0.19271636     0             -0.18359635    -0.0014332242 
    190000   0.015127491   -0.19174888     0             -0.17927367     0.12922238   
    190500   0.011258232   -0.19238181     0             -0.18309747    -0.16603527   
    191000   0.010639278   -0.19273474     0             -0.18396084     0.039372522  
    191500   0.010394696   -0.19404787     0             -0.18547566    -0.20402414   
    192000   0.0098619945  -0.19383849     0             -0.18570559    -0.12743247   
    192500   0.010483018   -0.19417792     0             -0.18553287    -0.018255767  
    193000   0.01136204    -0.19395756     0             -0.18458761    -0.056892472  
    193500   0.014350795   -0.19458204     0             -0.18274736     0.0087960647 
    194000   0.013204608   -0.19540296     0             -0.1845135     -0.15706092   
    194500   0.010983808   -0.19569088     0             -0.18663285    -0.11965123   
    195000   0.010284011   -0.1966455      0             -0.18816457     0.17194396   
    195500   0.012158139   -0.19615012     0             -0.18612365     0.1439007    
    196000   0.015802563   -0.19593124     0             -0.18289932     0.14425976   
    196500   0.015676999   -0.19694376     0             -0.18401539     0.012144317  
    197000   0.011490173   -0.19706099     0             -0.18758538    -0.098241247  
    197500   0.01175276    -0.19783744     0             -0.18814528    -0.10245961   
    198000   0.012589662   -0.20047081     0             -0.19008848     0.045295034  
    198500   0.01118938    -0.20296284     0             -0.19373528    -0.10731131   
    199000   0.026024023   -0.19815865     0             -0.17669739     0.26170201   
    199500   0.017792218   -0.20057377     0             -0.18590104    -0.12291565   
    200000   0.013212166   -0.20134417     0             -0.19044847    -0.11893327   
    200500   0.011445433   -0.20299741     0             -0.19355869     0.057475425  
    201000   0.012268314   -0.20041152     0             -0.1902942      0.039074989  
    201500   0.018785413   -0.20031719     0             -0.1848254     -0.015023426  
    202000   0.017583316   -0.20006961     0             -0.18556916     0.064683926  
    202500   0.014634034   -0.19869082     0             -0.18662256    -0.04765458   
    203000   0.02011751    -0.19811882     0             -0.18152849     0.025606156  
    203500   0.023279627   -0.198771       0             -0.17957297     0.54372136   
    204000   0.020790407   -0.19731867     0             -0.18017342    -0.0094983853 
    204500   0.015358003   -0.1963347      0             -0.1836694     -0.12488176   
    205000   0.015764128   -0.19585007     0             -0.18284985     0.017806449  
    205500   0.013613008   -0.19917467     0             -0.18794841    -0.12391246   
    206000   0.014873877   -0.20024373     0             -0.18797767     0.12048448   
    206500   0.013562412   -0.20054843     0             -0.1893639     -0.044188135  
    207000   0.011577807   -0.20117128     0             -0.19162339     0.13329803   
    207500   0.011252403   -0.20179654     0             -0.19251701     0.056585906  
    208000   0.012341528   -0.20253088     0             -0.19235318     0.026114134  
    208500   0.012075334   -0.20399402     0             -0.19403584     0.088706002  
    209000   0.011088353   -0.20247457     0             -0.19333033    -0.006527287  
    209500   0.016480954   -0.2023876      0             -0.18879624    -0.0078467905 
    210000   0.014591665   -0.20270212     0             -0.19066879    -0.051279687  
    210500   0.028177275   -0.20347056     0             -0.18023357     0.066886138  
    211000   0.017970016   -0.20196647     0             -0.18714711     0.1533473    
    211500   0.023301067   -0.20306392     0             -0.18384821    -0.086839907  
    212000   0.015583383   -0.20491444     0             -0.19206328     0.050548428  
    212500   0.012327728   -0.20562516     0             -0.19545884     0.11046359   
    213000   0.011871417   -0.20724169     0             -0.19745167     0.027615361  
    213500   0.018521568   -0.20621603     0             -0.19094183     0.14694176   
    214000   0.014035151   -0.2074657      0             -0.19589132     0.053681682  
    214500   0.017838335   -0.20603333     0             -0.19132257    -0.019277759  
    215000   0.014296111   -0.20662344     0             -0.19483385    -0.29752499   
    215500   0.015617999   -0.20531649     0             -0.19243678    -0.0034940432 
    216000   0.022492845   -0.20533713     0             -0.18678794     0.073183594  
    216500   0.028053348   -0.20302099     0             -0.17988621    -0.098196498  
    217000   0.020267065   -0.20279992     0             -0.18608626    -0.10396286   
    217500   0.014698158   -0.2038467      0             -0.19172556    -0.041655023  
    218000   0.01651074    -0.2039082      0             -0.19029227     0.22184699   
    218500   0.023889042   -0.20271184     0             -0.18301124    -0.16450944   
    219000   0.01626675    -0.20369308     0             -0.19027836     0.052337656  
    219500   0.029309304   -0.20175157     0             -0.17758104     0.032726555  
    220000   0.017710555   -0.20147867     0             -0.18687329    -0.090108492  
    220500   0.014531735   -0.20315663     0             -0.19117273     0.12590587   
    221000   0.013106855   -0.2019381      0             -0.19112926     0.12818119   
    221500   0.011761989   -0.20279522     0             -0.19309545     0.010746687  
    222000   0.029634881   -0.20195325     0             -0.17751422    -0.032383071  
    222500   0.018620477   -0.20025164     0             -0.18489587    -0.15521433   
    223000   0.013779615   -0.20093385     0             -0.1895702     -0.098972879  
    223500   0.012202109   -0.20157165     0             -0.19150893    -0.082159344  
    224000   0.018318849   -0.20015685     0             -0.18504982     0.15072344   
    224500   0.018729764   -0.20008119     0             -0.18463529     0.11441873   
    225000   0.014439802   -0.20027867     0             -0.18837059    -0.11133083   
    225500   0.013287545   -0.20116974     0             -0.19021188     0.13386878   
    226000   0.012725414   -0.20242023     0             -0.19192595     0.20646734   
    226500   0.011912482   -0.20264456     0             -0.19282068    -0.21850809   
    227000   0.012365074   -0.20233835     0             -0.19214123     0.091447987  
    227500   0.016759868   -0.20233355     0             -0.18851217     0.097176988  
    228000   0.025477379   -0.20180037     0             -0.18078991    -0.22264662   
    228500   0.025346205   -0.20303073     0             -0.18212845    -0.090361915  
    229000   0.02254105    -0.20290131     0             -0.18431236     0.10777925   
    229500   0.015495663   -0.20288802     0             -0.19010919    -0.044538249  
    230000   0.024120675   -0.20247158     0             -0.18257995    -0.045703064  
    230500   0.018727682   -0.20189745     0             -0.18645327    -0.26740927   
    231000   0.026210705   -0.2009446      0             -0.17932939    -0.1240052    
    231500   0.022015693   -0.20016641     0             -0.1820107      0.13994858   
    232000   0.023439565   -0.19995911     0             -0.18062918     0.023946515  
    232500   0.025854737   -0.20149684     0             -0.18017519    -0.032685224  
    233000   0.016780155   -0.20026955     0             -0.18643145    -0.24223368   
    233500   0.018319062   -0.20065968     0             -0.18555248    -0.014357494  
    234000   0.020582274   -0.19855041     0             -0.1815768      0.076421511  
    234500   0.02774788    -0.19920664     0             -0.17632376    -0.026993293  
    235000   0.032731668   -0.19959261     0             -0.17259976     0.19561932   
    235500   0.02043685    -0.20271822     0             -0.18586454    -0.155916     
    236000   0.01541644    -0.203319       0             -0.19060551    -0.015163264  
    236500   0.021616334   -0.20367728     0             -0.18585091    -0.16289841   
    237000   0.016648518   -0.20342169     0             -0.18969214    -0.091309416  
    237500   0.024083427   -0.20400856     0             -0.18414766     0.14981295   
    238000   0.023458314   -0.20536024     0             -0.18601484    -0.16634431   
    238500   0.031417715   -0.20207278     0             -0.1761635      0.19898084   
    239000   0.033032512   -0.20402375     0             -0.17678279    -0.058861943  
    239500   0.0263224     -0.20397205     0             -0.18226473    -0.039616645  
    240000   0.01764744    -0.2052577      0             -0.19070437     0.074849921  
    240500   0.025510501   -0.2046534      0             -0.18361563     0.14863579   
    241000   0.021176224   -0.20356649     0             -0.18610307     0.24080387   
    241500   0.040795579   -0.20056483     0             -0.1669219      0.062744945  
    242000   0.025558249   -0.20228169     0             -0.18120455     0.1531052    
    242500   0.017305121   -0.203562       0             -0.18929097    -0.028946425  
    243000   0.015657663   -0.20387967     0             -0.19096725     0.064601216  
    243500   0.026065604   -0.20254075     0             -0.1810452     -0.21429081   
    244000   0.018823659   -0.2054485      0             -0.18992517     0.2164401    
    244500   0.014774205   -0.20453272     0             -0.19234886    -0.007053226  
    245000   0.013571597   -0.20597009     0             -0.19477799     0.3303556    
    245500   0.017775888   -0.20680108     0             -0.19214182     0.12104685   
    246000   0.013816522   -0.20745532     0             -0.19606124    -0.1116838    
    246500   0.017489095   -0.20573642     0             -0.19131367     0.099734428  
    247000   0.015354268   -0.20707415     0             -0.19441192    -0.19484427   
    247500   0.013820871   -0.2056425      0             -0.19424483     0.025473421  
    248000   0.013283667   -0.20638577     0             -0.19543111     0.02022123   
    248500   0.013106311   -0.20561005     0             -0.19480165     0.048448259  
    249000   0.013213191   -0.20583906     0             -0.19494252    -0.10907796   
    249500   0.019592703   -0.20624509     0             -0.19008756     0.0161601    
    250000   0.018661019   -0.20661614     0             -0.19122694    -0.052216483  
    250500   0.026399599   -0.20430468     0             -0.18253369    -0.11286654   
    251000   0.017443546   -0.20619559     0             -0.1918104      0.10594694   
    251500   0.021360865   -0.2038979      0             -0.18628221     0.058254394  
    252000   0.02035232    -0.20225728     0             -0.18547331     0.12438163   
    252500   0.015989981   -0.2039291      0             -0.19074262     0.238244     
    253000   0.015205681   -0.20542491     0             -0.19288523    -0.05092504   
    253500   0.013543216   -0.20557642     0             -0.19440773    -0.0026174773 
    254000   0.020930482   -0.204161       0             -0.18690024     0.033030639  
    254500   0.016472051   -0.20445871     0             -0.19087469    -0.07174705   
    255000   0.015243592   -0.20555668     0             -0.19298573     0.13187232   
    255500   0.014596798   -0.20647618     0             -0.19443862     0.049264352  
    256000   0.020812462   -0.20642347     0             -0.18926004     0.070881676  
    256500   0.014393728   -0.20632161     0             -0.19445152    -0.24291979   
    257000   0.014556607   -0.20882129     0             -0.19681688     0.083051396  
    257500   0.013277591   -0.2089159      0             -0.19796626     0.25448441   
    258000   0.023397177   -0.20813576     0             -0.18884079     0.020580543  
    258500   0.017766673   -0.20918387     0             -0.19453221    -0.047494274  
    259000   0.01447263    -0.20985042     0             -0.19791526    -0.097016739  
    259500   0.014071789   -0.21087399     0             -0.19926939    -0.052767607  
    260000   0.012816727   -0.21056668     0             -0.19999709     0.03731018   
    260500   0.015519926   -0.21163422     0             -0.19883538    -0.029731429  
    261000   0.014486371   -0.2115337      0             -0.19958721    -0.068335073  
    261500   0.0143694     -0.21241133     0             -0.2005613     -0.21443006   
    262000   0.030699477   -0.20852766     0             -0.18321069     0.077041762  
    262500   0.019799627   -0.21088766     0             -0.19455948     0.16741668   
    263000   0.015257442   -0.21122357     0             -0.1986412     -0.11863576   
    263500   0.01416456    -0.21363164     0             -0.20195054    -0.02113106   
    264000   0.024989991   -0.20995258     0             -0.18934406     0.10620523   
    264500   0.017828281   -0.21112439     0             -0.19642193    -0.14701361   
    265000   0.016660161   -0.21265441     0             -0.19891525    -0.11057557   
    265500   0.017582561   -0.2104651      0             -0.19596527     0.037646665  
    266000   0.015172684   -0.2114626      0             -0.19895013     0.33577806   
    266500   0.020647909   -0.21108733     0             -0.19405959     0.0094044199 
    267000   0.018450101   -0.21100309     0             -0.19578783    -0.058310984  
    267500   0.015946318   -0.2109801      0             -0.19782963     0.014619698  
    268000   0.016218088   -0.21279273     0             -0.19941815    -0.16702101   
    268500   0.019609571   -0.21178517     0             -0.19561372    -0.13698477   
    269000   0.016157373   -0.21333743     0             -0.20001291     0.019980475  
    269500   0.018789968   -0.21221269     0             -0.19671714     0.052569774  
    270000   0.017669601   -0.21334572     0             -0.19877411     0.11538851   
    270500   0.015033573   -0.21349683     0             -0.20109908     0.24299373   
    271000   0.013566395   -0.21361432     0             -0.2024265     -0.13559037   
    271500   0.013949272   -0.21488867     0             -0.20338511    -0.033912421  
    272000   0.026309931   -0.21367742     0             -0.19198038    -0.01298483   
    272500   0.017733872   -0.21327113     0             -0.19864652     0.035348751  
    273000   0.022905134   -0.21302935     0             -0.19414015     0.051968851  
    273500   0.017078991   -0.21198316     0             -0.19789862    -0.065018195  
    274000   0.028497866   -0.21193718     0             -0.18843581     0.093685594  
    274500   0.035021893   -0.21256127     0             -0.18367972     0.10366661   
    275000   0.021982075   -0.21407046     0             -0.19594248     0.018544359  
    275500   0.026075304   -0.21280946     0             -0.19130591     0.13733514   
    276000   0.018334617   -0.21437246     0             -0.19925243    -0.22286262   
    276500   0.016733085   -0.21475275     0             -0.20095346    -0.0081034974 
    277000   0.018757766   -0.21508879     0             -0.1996198     -0.16478042   
    277500   0.015953913   -0.21585247     0             -0.20269574    -0.076920658  
    278000   0.021630328   -0.21591337     0             -0.19807547     0.17014586   
    278500   0.019531175   -0.21474703     0             -0.19864024     0.14203329   
    279000   0.020678528   -0.21561075     0             -0.19855777    -0.015874695  
    279500   0.0256286     -0.21565056     0             -0.19451539    -0.043869194  
    280000   0.023222533   -0.21636713     0             -0.19721618    -0.014297711  
    280500   0.018571208   -0.21732651     0             -0.20201137     0.32104227   
    281000   0.020183648   -0.21998311     0             -0.20333824    -0.31000915   
    281500   0.016118794   -0.21929128     0             -0.20599858    -0.15515512   
    282000   0.018704715   -0.21741337     0             -0.20198813    -0.070438227  
    282500   0.024037242   -0.21770356     0             -0.19788074    -0.22226877   
    283000   0.019388625   -0.21938681     0             -0.20339757     0.045061516  
    283500   0.015553858   -0.22107647     0             -0.20824965    -0.065978957  
    284000   0.028318538   -0.21818328     0             -0.1948298      0.18013159   
    284500   0.020436103   -0.2194366      0             -0.20258353    -0.20651119   
    285000   0.028574876   -0.2181042      0             -0.19453933     0.33528203   
    285500   0.044534306   -0.2168773      0             -0.18015115     0.17626353   
    286000   0.025199908   -0.21757832     0             -0.19679668    -0.11109046   
    286500   0.019569814   -0.22027813     0             -0.20413947     0.013972529  
    287000   0.018953903   -0.21854365     0             -0.20291292     0.0028871962 
    287500   0.016427942   -0.21935736     0             -0.20580972     0.044987126  
    288000   0.016420288   -0.21971179     0             -0.20617045    -0.15994505   
    288500   0.019926651   -0.2200932      0             -0.20366027    -0.0043443684 
    289000   0.016272282   -0.21948245     0             -0.20606317    -0.096717887  
    289500   0.024452153   -0.21659824     0             -0.19643325     0.015816813  
    290000   0.018272757   -0.21780732     0             -0.20273831    -0.032575916  
    290500   0.015888428   -0.2174975      0             -0.20439477    -0.13699918   
    291000   0.026137572   -0.21743164     0             -0.19587674     0.0066116557 
    291500   0.023222177   -0.21591775     0             -0.1967671      0.1835142    
    292000   0.023726716   -0.21436769     0             -0.19480095    -0.011358842  
    292500   0.021750147   -0.2158518      0             -0.19791509    -0.17067815   
    293000   0.016776865   -0.21658046     0             -0.20274506    -0.14520514   
    293500   0.015683105   -0.21698219     0             -0.20404879     0.14543584   
    294000   0.013806223   -0.21741774     0             -0.20603214     0.13164037   
    294500   0.023244768   -0.21600214     0             -0.19683286     0.075739503  
    295000   0.022146081   -0.21702421     0             -0.19876098     0.027938767  
    295500   0.018490366   -0.21748199     0             -0.20223352     0.13854937   
    296000   0.035674462   -0.21381173     0             -0.18439204     0.062717138  
    296500   0.021980285   -0.21521486     0             -0.19708836    -0.062526889  
    297000   0.016748417   -0.21509337     0             -0.20128143     0.041782411  
    297500   0.015578055   -0.21727484     0             -0.20442807    -0.40638951   
    298000   0.026656639   -0.21682489     0             -0.19484193     0.0048815685 
    298500   0.019853545   -0.21588056     0             -0.19950791    -0.03044986   
    299000   0.029942534   -0.21434676     0             -0.18965402    -0.027387455  
    299500   0.032770148   -0.21284535     0             -0.18582076    -0.15005211   
    300000   0.035827581   -0.21525072     0             -0.18570475     0.36841852   
    300500   0.023209989   -0.2150226      0             -0.195882       0.37535812   
    301000   0.03141077    -0.21476333     0             -0.18885978     0.029453531  
    301500   0.022505403   -0.21461413     0             -0.19605458    -0.06435596   
    302000   0.020855733   -0.21676063     0             -0.19956151    -0.081126726  
    302500   0.017780328   -0.21795571     0             -0.20329279     0.28828488   
    303000   0.027050741   -0.21831657     0             -0.19600861    -0.32606985   
    303500   0.018937187   -0.21793077     0             -0.20231382    -0.11950193   
    304000   0.017981209   -0.21885515     0             -0.20402657    -0.19942747   
    304500   0.024035779   -0.21747228     0             -0.19765067    -0.042116683  
    305000   0.019066582   -0.21991122     0             -0.20418756     0.055565807  
    305500   0.018002287   -0.22079466     0             -0.2059487      0.026574318  
    306000   0.015977552   -0.22084228     0             -0.20766605     0.15100757   
    306500   0.030603869   -0.22090184     0             -0.19566371    -0.057573833  
    307000   0.02874417    -0.2203269      0             -0.19662241     0.13868397   
    307500   0.026952123   -0.21991526     0             -0.19768863     0.20172767   
    308000   0.020454639   -0.22025327     0             -0.20338492    -0.11807971   
    308500   0.020467618   -0.22202678     0             -0.20514773    -0.14560715   
    309000   0.01655148    -0.21974191     0             -0.20609238     0.26682977   
    309500   0.0234284     -0.21911607     0             -0.19979535     0.13680316   
    310000   0.03592893    -0.21647305     0             -0.1868435      0.096621185  
    310500   0.027325667   -0.21645699     0             -0.1939223      0.19862898   
    311000   0.031565925   -0.2174432      0             -0.1914117      0.040722884  
    311500   0.023861876   -0.21684938     0             -0.19717119     0.031569987  
    312000   0.04212388    -0.21237164     0             -0.1776333     -0.0038200163 
    312500   0.025811726   -0.21437204     0             -0.19308585    -0.13979401   
    313000   0.019689648   -0.21471886     0             -0.19848138     0.26806387   
    313500   0.02084352    -0.21337084     0             -0.19618179     0.18302932   
    314000   0.017282606   -0.21279498     0             -0.19854252    -0.030955602  
    314500   0.019242588   -0.21411788     0             -0.19824908     0.020461102  
    315000   0.016560996   -0.21495546     0             -0.20129808     0.18256733   
    315500   0.018735499   -0.2144833      0             -0.19903267    -0.15565984   
    316000   0.016742364   -0.21537137     0             -0.20156442     0.11546596   
    316500   0.025532064   -0.21537851     0             -0.19432295    -0.11342048   
    317000   0.020557374   -0.21525022     0             -0.19829715     0.059487833  
    317500   0.023044749   -0.21478557     0             -0.19578123    -0.19350927   
    318000   0.057096796   -0.21179337     0             -0.1647073      0.072071301  
    318500   0.030026034   -0.2089218      0             -0.1841602      0.13864176   
    319000   0.020971188   -0.21110664     0             -0.19381231     0.12229572   
    319500   0.032705815   -0.21060399     0             -0.18363245    -0.13609201   
    320000   0.038878752   -0.20997536     0             -0.17791318     0.17714552   
    320500   0.025312763   -0.20819308     0             -0.18731838     0.14561917   
    321000   0.023601214   -0.20944354     0             -0.1899803      0.053707213  
    321500   0.018653587   -0.2083693      0             -0.19298623     0.096330906  
    322000   0.018595118   -0.21006303     0             -0.19472818    -0.049633331  
    322500   0.021380961   -0.20921691     0             -0.19158465     0.011791056  
    323000   0.018048995   -0.21078142     0             -0.19589694     0.063926987  
    323500   0.021504623   -0.20929469     0             -0.19156045    -0.18019456   
    324000   0.020475978   -0.20955765     0             -0.19267171    -0.064976876  
    324500   0.018955887   -0.21155555     0             -0.19592318     0.3472869    
    325000   0.020167362   -0.20995033     0             -0.19331889     0.25304664   
    325500   0.042880086   -0.20771105     0             -0.17234908    -0.20407551   
    326000   0.02705164    -0.20961748     0             -0.18730878     0.13386838   
    326500   0.029347669   -0.20795685     0             -0.18375468    -0.098248593  
    327000   0.037138432   -0.20786317     0             -0.17723618     0.01630625   
    327500   0.024735304   -0.20943216     0             -0.18903368     0.075156823  
    328000   0.024731573   -0.20706807     0             -0.18667265     0.17096542   
    328500   0.019202109   -0.20735446     0             -0.19151904    -0.045354838  
    329000   0.01789099    -0.20707682     0             -0.19232264     0.018699488  
    329500   0.017126263   -0.20763393     0             -0.1935104     -0.024531884  
    330000   0.017243193   -0.20860436     0             -0.1943844      0.04464868   
    330500   0.027791422   -0.20662515     0             -0.18370637    -0.046865085  
    331000   0.020054703   -0.20837674     0             -0.19183821     0.39541191   
    331500   0.021279084   -0.20661495     0             -0.1890667      0.10950174   
    332000   0.028887381   -0.20845674     0             -0.18463415     0.00084439495
    332500   0.029931432   -0.20779132     0             -0.18310774     0.17869625   
    333000   0.021923661   -0.20823817     0             -0.19015836     0.19703007   
    333500   0.028927081   -0.20967844     0             -0.18582311     0.0372804    
    334000   0.034817559   -0.20728815     0             -0.17857511     0.019753448  
    334500   0.024334953   -0.20877563     0             -0.1887073     -0.1740396    
    335000   0.019152044   -0.20910237     0             -0.19330824    -0.055612981  
    335500   0.017298776   -0.2093734      0             -0.1951076     -0.11515256   
    336000   0.017717997   -0.21110402     0             -0.1964925      0.010337514  
    336500   0.02819709    -0.20863002     0             -0.18537669     0.19573548   
    337000   0.020499011   -0.20992663     0             -0.19302169     0.1818583    
    337500   0.019106121   -0.20889872     0             -0.19314245     0.10086777   
    338000   0.023123351   -0.21084535     0             -0.1917762      0.20001482   
    338500   0.033521955   -0.20742914     0             -0.17978455     0.065958483  
    339000   0.029374256   -0.20629407     0             -0.18206997     0.023922526  
    339500   0.022051157   -0.20716276     0             -0.18897781    -0.0047985766 
    340000   0.018185334   -0.20674787     0             -0.19175095    -0.20058382   
    340500   0.019974835   -0.2064894      0             -0.19001673     0.32675075   
    341000   0.025106259   -0.2062636      0             -0.18555919    -0.063658962  
    341500   0.020241468   -0.20795834     0             -0.19126578    -0.11257175   
    342000   0.021930633   -0.2050185      0             -0.18693294     0.046517703  
    342500   0.023279142   -0.20559001     0             -0.18639238     0.010453485  
    343000   0.020445594   -0.20578145     0             -0.18892056    -0.0055522657 
    343500   0.019465341   -0.20445463     0             -0.18840212     0.060549369  
    344000   0.029476123   -0.20377247     0             -0.17946437     0.1576812    
    344500   0.037124025   -0.20046965     0             -0.16985454     0.39399018   
    345000   0.029015609   -0.20182651     0             -0.17789818    -0.047900835  
    345500   0.029651443   -0.20093881     0             -0.17648613    -0.19229945   
    346000   0.027464996   -0.20336446     0             -0.18071487    -0.14883613   
    346500   0.023164794   -0.20136571     0             -0.18226237     0.1064901    
    347000   0.027795524   -0.19934108     0             -0.17641892    -0.056788004  
    347500   0.022242606   -0.20197904     0             -0.18363621    -0.051338224  
    348000   0.018573293   -0.20108582     0             -0.18576896    -0.052807399  
    348500   0.018423259   -0.2019692      0             -0.18677607     0.030163303  
    349000   0.022912724   -0.20066397     0             -0.18176851     0.12037537   
    349500   0.021131486   -0.20171942     0             -0.1842929      0.11162569   
    350000   0.018849332   -0.20139383     0             -0.18584933    -0.062375263  
    350500   0.018823002   -0.20238565     0             -0.18686287     0.069007793  
    351000   0.01946039    -0.20381418     0             -0.18776576     0.1657286    
    351500   0.031198879   -0.20341899     0             -0.17769017     0.24590877   
    352000   0.023595967   -0.20388529     0             -0.18442638     0.099818765  
    352500   0.022280084   -0.20504719     0             -0.18667345     0.25263706   
    353000   0.03142161    -0.20371305     0             -0.17780055     0.028259158  
    353500   0.040092945   -0.2063142      0             -0.1732507     -0.053377656  
    354000   0.029231505   -0.20428217     0             -0.18017579    -0.13997992   
    354500   0.025596043   -0.20512113     0             -0.18401281    -0.13607416   
    355000   0.03643539    -0.20553195     0             -0.17548474     0.0077637078 
    355500   0.027574375   -0.20522292     0             -0.18248313    -0.024862047  
    356000   0.029507689   -0.20689407     0             -0.18255993     0.1838633    
    356500   0.024449349   -0.20532802     0             -0.18516535    -0.092356636  
    357000   0.020276346   -0.20652269     0             -0.18980137    -0.01493865   
    357500   0.0204428     -0.20637729     0             -0.18951871     0.10592044   
    358000   0.023144337   -0.20842209     0             -0.18933562    -0.315484     
    358500   0.018562471   -0.20714109     0             -0.19183315    -0.048071686  
    359000   0.026373239   -0.20758015     0             -0.1858309      0.26374379   
    359500   0.026717513   -0.20699479     0             -0.18496163    -0.062051388  
    360000   0.020117203   -0.20827982     0             -0.19168974    -0.10736984   
    360500   0.032822967   -0.20811491     0             -0.18104675    -0.10371955   
    361000   0.023868771   -0.20826043     0             -0.18857654    -0.054482272  
    361500   0.019855303   -0.20802195     0             -0.19164786     0.12812441   
    362000   0.035632592   -0.20833886     0             -0.1789537      0.38378772   
    362500   0.031007028   -0.20640823     0             -0.18083763    -0.064547016  
    363000   0.033802772   -0.20586318     0             -0.17798701    -0.18049167   
    363500   0.024318255   -0.20794712     0             -0.18789256    -0.096175706  
    364000   0.019114144   -0.20886672     0             -0.19310384     0.039148391  
    364500   0.023554052   -0.21069877     0             -0.19127442     0.037342859  
    365000   0.03381548    -0.20595262     0             -0.17806597     0.16484489   
    365500   0.025858434   -0.20678092     0             -0.18545622     0.19320524   
    366000   0.02112333    -0.20783029     0             -0.19041049     0.15904913   
    366500   0.027134093   -0.20859117     0             -0.18621447     0.029532899  
    367000   0.025694348   -0.20852707     0             -0.18733768    -0.0013699734 
    367500   0.026294754   -0.20942881     0             -0.18774429    -0.27155663   
    368000   0.037779363   -0.21078638     0             -0.17963084    -0.13022981   
    368500   0.025713086   -0.21242923     0             -0.19122439     0.10800507   
    369000   0.021479544   -0.21230475     0             -0.19459119    -0.052022143  
    369500   0.021291185   -0.21440866     0             -0.19685044    -0.027946355  
    370000   0.020213706   -0.21583595     0             -0.19916629    -0.13445661   
    370500   0.019760739   -0.21780956     0             -0.20151345    -0.13477449   
    371000   0.021185823   -0.21860279     0             -0.20113146     0.06855693   
    371500   0.024996757   -0.21765311     0             -0.19703901     0.32439901   
    372000   0.025175474   -0.21847144     0             -0.19770996     0.099856336  
    372500   0.023453144   -0.21896225     0             -0.19962112     0.14876427   
    373000   0.020865966   -0.21982043     0             -0.20261288    -0.098898272  
    373500   0.018820198   -0.22108826     0             -0.20556778     0.012127918  
    374000   0.020483401   -0.22107751     0             -0.20418544     0.12471386   
    374500   0.018935093   -0.22222566     0             -0.20661044    -0.023837515  
    375000   0.019845121   -0.22405948     0             -0.20769379    -0.069499509  
    375500   0.018462275   -0.22465084     0             -0.20942553    -0.14101569   
    376000   0.01808735    -0.22450221     0             -0.2095861     -0.057077451  
    376500   0.017826028   -0.22506889     0             -0.21036828     0.13182976   
    377000   0.033999696   -0.22335549     0             -0.19531693     0.2271575    
    377500   0.024478387   -0.22412405     0             -0.20393743    -0.049141897  
    378000   0.020373675   -0.22498282     0             -0.20818124    -0.4167324    
    378500   0.027163693   -0.21979142     0             -0.19739031    -0.27383528   
    379000   0.030464054   -0.22040046     0             -0.19527764     0.054312384  
    379500   0.024857463   -0.22188358     0             -0.20138435    -0.1958784    
    380000   0.02202588    -0.2233835      0             -0.2052194      0.26431106   
    380500   0.034394129   -0.22317255     0             -0.19480871    -0.22892413   
    381000   0.039672743   -0.21717197     0             -0.184455       0.14851482   
    381500   0.028302413   -0.2203063      0             -0.19696612    -0.049982856  
    382000   0.024851632   -0.22048761     0             -0.19999319     0.091526286  
    382500   0.023697612   -0.2203254      0             -0.20078267    -0.18712869   
    383000   0.036047744   -0.22290002     0             -0.19317249    -0.17279763   
    383500   0.03518913    -0.22135919     0             -0.19233974    -0.4057065    
    384000   0.041688173   -0.22064081     0             -0.18626178     0.012049745  
    384500   0.027039099   -0.22078828     0             -0.19848992    -0.078407709  
    385000   0.024888465   -0.2216001      0             -0.2010753      0.22941737   
    385500   0.022609852   -0.22240908     0             -0.20376339     0.11951308   
    386000   0.019621123   -0.22175189     0             -0.20557092     0.13042802   
    386500   0.020940555   -0.22271112     0             -0.20544205     0.016465592  
    387000   0.019302599   -0.22297548     0             -0.20705719    -0.36457143   
    387500   0.03528433    -0.22296826     0             -0.19387029     0.2011783    
    388000   0.035458571   -0.21939727     0             -0.19015561     0.011702175  
    388500   0.034520886   -0.22130605     0             -0.19283767     0.21746778   
    389000   0.036299617   -0.21886204     0             -0.18892679     0.13959493   
    389500   0.031253412   -0.2176474      0             -0.19187362     0.46345009   
    390000   0.027480163   -0.21858124     0             -0.19591914     0.086936386  
    390500   0.0241177     -0.21913097     0             -0.1992418     -0.10690344   
    391000   0.0201336     -0.22051255     0             -0.20390895    -0.021739379  
    391500   0.025977577   -0.21805173     0             -0.19662878     0.45158518   
    392000   0.022411406   -0.21887708     0             -0.20039504    -0.12966226   
    392500   0.031090097   -0.22030096     0             -0.19466185     0.13891382   
    393000   0.04562836    -0.21471424     0             -0.17708585     0.065253372  
    393500   0.034854138   -0.21575369     0             -0.18701049    -0.56331374   
    394000   0.025429906   -0.21648821     0             -0.1955169      0.08281892   
    394500   0.028788378   -0.21563586     0             -0.19189491    -0.14012926   
    395000   0.029755702   -0.21454771     0             -0.19000904    -0.36001335   
    395500   0.034426116   -0.21479473     0             -0.1864045     -0.031361914  
    396000   0.035783253   -0.21214079     0             -0.18263138     0.038187771  
    396500   0.024805238   -0.21339234     0             -0.19293618    -0.33340242   
    397000   0.025766746   -0.21290473     0             -0.19165564     0.098914112  
    397500   0.02177033    -0.21332622     0             -0.19537286     0.11881724   
    398000   0.020697276   -0.21511922     0             -0.19805077     0.34426701   
    398500   0.026143097   -0.21581552     0             -0.19425606    -0.26972913   
    399000   0.022517715   -0.21655637     0             -0.19798667    -0.28116963   
    399500   0.020294241   -0.21696486     0             -0.20022879    -0.19269854   
    400000   0.027968129   -0.21620469     0             -0.19314018     0.1598709    
    400500   0.038220605   -0.21484196     0             -0.18332254     0.24015167   
    401000   0.025467153   -0.21618117     0             -0.19517914     0.29909382   
    401500   0.021524449   -0.21653604     0             -0.19878545     0.34632554   
    402000   0.02107889    -0.21622205     0             -0.1988389     -0.14848802   
    402500   0.029460123   -0.21369879     0             -0.18940388    -0.043241585  
    403000   0.031220862   -0.21676064     0             -0.1910137      0.20436475   
    403500   0.032746823   -0.21412615     0             -0.18712079     0.099385565  
    404000   0.025640537   -0.21652116     0             -0.19537616     0.10143164   
    404500   0.039149667   -0.2162318      0             -0.1839462     -0.16893693   
    405000   0.038971953   -0.21303572     0             -0.18089668     0.10225534   
    405500   0.039372561   -0.21183794     0             -0.17936853     0.29137969   
    406000   0.038825016   -0.21190225     0             -0.17988438    -0.083628214  
    406500   0.042773057   -0.21100708     0             -0.17573338    -0.023863169  
    407000   0.028891454   -0.21173706     0             -0.18791112     0.15831913   
    407500   0.023076613   -0.21435694     0             -0.19532632     0.089745821  
    408000   0.035794578   -0.21464935     0             -0.18513059    -0.066409674  
    408500   0.033429807   -0.21071822     0             -0.18314963     0.057417939  
    409000   0.02753419    -0.21207264     0             -0.189366       0.013525943  
    409500   0.025490613   -0.21287337     0             -0.191852       0.12422084   
    410000   0.027216401   -0.21250466     0             -0.19006008    -0.057333337  
    410500   0.024169575   -0.21274159     0             -0.19280964    -0.11972243   
    411000   0.026026702   -0.21234164     0             -0.19087817     0.023798326  
    411500   0.023727321   -0.21173102     0             -0.19216378     0.087920506  
    412000   0.023174925   -0.21465356     0             -0.19554187     0.028222174  
    412500   0.034523601   -0.2132234      0             -0.18475279     0.03364582   
    413000   0.026933499   -0.21333221     0             -0.19112093    -0.072102122  
    413500   0.022878137   -0.21403218     0             -0.19516525     0.17095259   
    414000   0.024119758   -0.2142388      0             -0.19434793     0.15735298   
    414500   0.031607167   -0.21517659     0             -0.18911108    -0.023402948  
    415000   0.024054292   -0.2160036      0             -0.19616673    -0.066107981  
    415500   0.02214894    -0.21575379     0             -0.1974882      0.27071695   
    416000   0.032257053   -0.21346129     0             -0.18685983    -0.079055271  
    416500   0.048102593   -0.21320414     0             -0.17353532    -0.14916028   
    417000   0.033367392   -0.21488793     0             -0.18737081    -0.15026666   
    417500   0.039257862   -0.21470155     0             -0.18232673    -0.0003314701 
    418000   0.030099241   -0.21443433     0             -0.18961235    -0.38421144   
    418500   0.02599862    -0.21450211     0             -0.1930618      0.1320865    
    419000   0.022732003   -0.21678683     0             -0.1980404     -0.23724347   
    419500   0.027036233   -0.21522689     0             -0.19293089     0.22159472   
    420000   0.02301054    -0.21428191     0             -0.19530578     0.052900527  
    420500   0.021982056   -0.21498783     0             -0.19685987    -0.18816856   
    421000   0.022171788   -0.21475107     0             -0.19646664    -0.017432072  
    421500   0.025776239   -0.21698008     0             -0.19572316     0.13756095   
    422000   0.024497835   -0.21567352     0             -0.19547087    -0.060725087  
    422500   0.035710145   -0.21269804     0             -0.18324891    -0.29019682   
    423000   0.028931048   -0.21434565     0             -0.19048705     0.4242334    
    423500   0.034732514   -0.21269931     0             -0.18405641     0.06400743   
    424000   0.041713403   -0.21265842     0             -0.17825858     0.082259117  
    424500   0.028934497   -0.21405286     0             -0.19019142     0.048648692  
    425000   0.027177841   -0.21528437     0             -0.19287159     0.30734041   
    425500   0.02367478    -0.21665192     0             -0.19712801     0.1239681    
    426000   0.021176932   -0.2152702      0             -0.1978062      0.33898069   
    426500   0.02242926    -0.21690635     0             -0.19840959     0.19262896   
    427000   0.023336615   -0.21686307     0             -0.19761803     0.2734199    
    427500   0.044230154   -0.21594721     0             -0.17947188     0.024717401  
    428000   0.028689199   -0.21657658     0             -0.19291742     0.17589034   
    428500   0.023039366   -0.21722087     0             -0.19822098    -0.00011340333
    429000   0.021768696   -0.21617793     0             -0.19822591     0.1552097    
    429500   0.022391151   -0.2160364      0             -0.19757107    -0.040753047  
    430000   0.021674138   -0.21575533     0             -0.19788129     0.33958391   
    430500   0.033730386   -0.21545142     0             -0.18763495    -0.27541047   
    431000   0.028368906   -0.21469736     0             -0.19130234     0.025804751  
    431500   0.026546948   -0.21617883     0             -0.19428633    -0.11764669   
    432000   0.025328752   -0.21801689     0             -0.197129       0.07607547   
    432500   0.022388589   -0.21892762     0             -0.2004644      0.30443786   
    433000   0.027032882   -0.21907956     0             -0.19678633    -0.20581459   
    433500   0.025836128   -0.21781422     0             -0.19650791     0.12160578   
    434000   0.027465898   -0.21923085     0             -0.19658052    -0.29411822   
    434500   0.024477352   -0.21956851     0             -0.19938275     0.47217398   
    435000   0.026920487   -0.2184099      0             -0.19620935    -0.076428211  
    435500   0.031092634   -0.2199875      0             -0.1943463      0.26040847   
    436000   0.034105004   -0.21794005     0             -0.18981464    -0.54162423   
    436500   0.03704681    -0.21711623     0             -0.18656479     0.1876715    
    437000   0.029675946   -0.21504177     0             -0.19056888     0.059862006  
    437500   0.02382456    -0.21691146     0             -0.19726403     0.063933804  
    438000   0.032549903   -0.21559359     0             -0.18875062     0.2928902    
    438500   0.02804744    -0.21590155     0             -0.19277164     0.092994729  
    439000   0.025428766   -0.21566873     0             -0.19469837    -0.1200536    
    439500   0.028358474   -0.21554398     0             -0.19215757     0.010900027  
    440000   0.024858762   -0.21588658     0             -0.19538628     0.27546557   
    440500   0.029819353   -0.2155984      0             -0.19100724     0.12549295   
    441000   0.024122489   -0.21648805     0             -0.19659494    -0.021824677  
    441500   0.023601386   -0.21770353     0             -0.19824015    -0.026587178  
    442000   0.022680699   -0.21881859     0             -0.20011448    -0.028349572  
    442500   0.022543183   -0.21836637     0             -0.19977566    -0.23291775   
    443000   0.030511504   -0.21728454     0             -0.19212258    -0.11755933   
    443500   0.028758496   -0.21598145     0             -0.19226516    -0.00080604241
    444000   0.024778401   -0.21635817     0             -0.19592414    -0.043008574  
    444500   0.023570381   -0.21746568     0             -0.19802787    -0.25308353   
    445000   0.024062386   -0.2189678      0             -0.19912424     0.16211239   
    445500   0.027894371   -0.21865335     0             -0.19564967     0.24452752   
    446000   0.024450679   -0.219516       0             -0.19935223    -0.031452402  
    446500   0.025803492   -0.21908533     0             -0.19780593     0.0016053317 
    447000   0.028728991   -0.22021024     0             -0.19651827     0.23126738   
    447500   0.033122074   -0.21945567     0             -0.19214086     0.20284742   
    448000   0.025962371   -0.22089728     0             -0.19948687     0.17267344   
    448500   0.029176469   -0.22021041     0             -0.19614942     0.030313351  
    449000   0.024952267   -0.22084799     0             -0.20027057    -0.22617295   
    449500   0.024175548   -0.22277433     0             -0.20283745    -0.1785654    
    450000   0.022396233   -0.2219193      0             -0.20344978    -0.04396598   
    450500   0.029753378   -0.22406732     0             -0.19953057     0.23772977   
    451000   0.024728785   -0.22344239     0             -0.20304928    -0.25121745   
    451500   0.026545365   -0.22434559     0             -0.2024544     -0.14700368   
    452000   0.034957965   -0.22510581     0             -0.19627699     0.11322091   
    452500   0.027438594   -0.22543621     0             -0.20280839    -0.13409971   
    453000   0.025629991   -0.22465373     0             -0.20351742     0.3140078    
    453500   0.03248458    -0.22357452     0             -0.19678542     0.040897386  
    454000   0.025730449   -0.22660527     0             -0.20538612     0.2449857    
    454500   0.0238818     -0.22551403     0             -0.2058194     -0.051145576  
    455000   0.02837922    -0.22780801     0             -0.20440449     0.10378958   
    455500   0.02658608    -0.22544782     0             -0.20352305     0.22599599   
    456000   0.04150525    -0.22308233     0             -0.18885416    -0.24185261   
    456500   0.035857712   -0.22436995     0             -0.19479913    -0.12731987   
    457000   0.02738147    -0.22428252     0             -0.20170181    -0.2226772    
    457500   0.027521103   -0.22281833     0             -0.20012248     0.27959616   
    458000   0.028146042   -0.22319018     0             -0.19997895     0.18999168   
    458500   0.037423787   -0.22383218     0             -0.19296986     0.26051998   
    459000   0.034752249   -0.22355146     0             -0.19489228     0.16818971   
    459500   0.027354633   -0.22406809     0             -0.20150951    -0.2411847    
    460000   0.025256241   -0.22432067     0             -0.20349258     0.034374406  
    460500   0.045011841   -0.22367961     0             -0.18655965    -0.17975254   
    461000   0.03110725    -0.22330222     0             -0.19764898     0.32203633   
    461500   0.033085828   -0.22262186     0             -0.19533694    -0.064318299  
    462000   0.030196685   -0.22401044     0             -0.19910811    -0.046620174  
    462500   0.035576567   -0.22262712     0             -0.19328815    -0.10647232   
    463000   0.027118587   -0.2248058      0             -0.20244188    -0.17887655   
    463500   0.034188492   -0.22033094     0             -0.19213669     0.010641435  
    464000   0.03479645    -0.22404412     0             -0.19534849    -0.22554961   
    464500   0.028864159   -0.22365309     0             -0.19984966     0.040368763  
    465000   0.039609361   -0.22393815     0             -0.19127346     0.42061449   
    465500   0.043383973   -0.22092248     0             -0.18514497    -0.18615187   
    466000   0.036237372   -0.21957009     0             -0.18968618    -0.15856584   
    466500   0.04679535    -0.22057365     0             -0.18198288     0.10382513   
    467000   0.034863747   -0.22102336     0             -0.19227224    -0.19098938   
    467500   0.02780346    -0.22139092     0             -0.19846221    -0.25957124   
    468000   0.02696273    -0.22294119     0             -0.20070581     0.33160079   
    468500   0.028369937   -0.2216798      0             -0.19828394     0.022077685  
    469000   0.026452031   -0.22305234     0             -0.20123812    -0.41029093   
    469500   0.026634049   -0.22109866     0             -0.19913433     0.093494063  
    470000   0.02746487    -0.22014325     0             -0.19749377    -0.080991244  
    470500   0.036479621   -0.21685527     0             -0.18677158     0.29199564   
    471000   0.030756749   -0.21920451     0             -0.19384031    -0.1131887    
    471500   0.040659969   -0.21583494     0             -0.18230384    -0.091458395  
    472000   0.032593201   -0.21706859     0             -0.19018992    -0.27386202   
    472500   0.032494444   -0.21433587     0             -0.18753864     0.026291569  
    473000   0.042137029   -0.21621344     0             -0.18146425     0.070772226  
    473500   0.031894979   -0.21663117     0             -0.19032831    -0.061053851  
    474000   0.026362375   -0.21887362     0             -0.19713333    -0.04527481   
    474500   0.049194207   -0.21659334     0             -0.1760243     -0.12954603   
    475000   0.036260512   -0.21562185     0             -0.18571886     0.0010751093 
    475500   0.033035519   -0.21575693     0             -0.1885135      0.0075112395 
    476000   0.052851294   -0.21344292     0             -0.16985799     0.35584955   
    476500   0.039931196   -0.21471381     0             -0.18178371    -0.23930732   
    477000   0.029344696   -0.21468244     0             -0.19048272    -0.096371105  
    477500   0.027914634   -0.21425975     0             -0.19123936     0.07048089   
    478000   0.023661527   -0.21352852     0             -0.19401554     0.24802586   
    478500   0.023922602   -0.21391127     0             -0.19418299    -0.18681257   
    479000   0.025216629   -0.2163196      0             -0.19552418    -0.18092249   
    479500   0.024277492   -0.21747983     0             -0.19745888     0.0081056165 
    480000   0.035718029   -0.21645022     0             -0.1869946      0.08182161   
    480500   0.032226559   -0.21927764     0             -0.19270133     0.052410159  
    481000   0.026069807   -0.21886011     0             -0.19736109     0.23336325   
    481500   0.028909011   -0.21890211     0             -0.19506169    -0.055892348  
    482000   0.032329498   -0.21644393     0             -0.18978273     0.25465776   
    482500   0.039189768   -0.21537872     0             -0.18306005    -0.23688079   
    483000   0.046262157   -0.21507679     0             -0.17692572    -0.27902289   
    483500   0.034316364   -0.21750702     0             -0.1892073      0.20656339   
    484000   0.028538245   -0.21766002     0             -0.19412535    -0.34138831   
    484500   0.028922535   -0.21868283     0             -0.19483125    -0.11684906   
    485000   0.048684334   -0.2159946      0             -0.17584604     0.1810041    
    485500   0.046205289   -0.21580572     0             -0.17770156    -0.14098926   
    486000   0.043682739   -0.2174475      0             -0.18142361     0.095496526  
    486500   0.04988366    -0.21458089     0             -0.17344328     0.099026394  
    487000   0.03892078    -0.21473612     0             -0.18263927     0.17544664   
    487500   0.030062558   -0.21641867     0             -0.19162695     0.51469881   
    488000   0.028717213   -0.21721711     0             -0.19353486    -0.33703716   
    488500   0.05007002    -0.21286413     0             -0.17157283    -0.060268496  
    489000   0.043294555   -0.21339743     0             -0.17769366     0.14654272   
    489500   0.041478427   -0.21246287     0             -0.17825682    -0.064771378  
    490000   0.0311251     -0.21290625     0             -0.18723828    -0.023205579  
    490500   0.034690522   -0.21180091     0             -0.18319264     0.20661677   
    491000   0.036858022   -0.21147104     0             -0.1810753     -0.034377221  
    491500   0.042771635   -0.21112853     0             -0.175856       0.063492648  
    492000   0.034151013   -0.21218957     0             -0.18402621    -0.40781551   
    492500   0.034627785   -0.20882535     0             -0.18026882    -0.03377683   
    493000   0.035870729   -0.20793194     0             -0.17835039     0.35364714   
    493500   0.047617191   -0.20527106     0             -0.16600254     0.095530928  
    494000   0.042325433   -0.20802482     0             -0.17312026    -0.25953308   
    494500   0.032235973   -0.21072263     0             -0.18413856    -0.22457564   
    495000   0.033586312   -0.20895331     0             -0.18125565    -0.10095509   
    495500   0.041886532   -0.21078011     0             -0.1762375     -0.11482478   
    496000   0.040175644   -0.21006408     0             -0.17693239    -0.2558       
    496500   0.034042704   -0.2121476      0             -0.18407357     0.2304763    
    497000   0.028566022   -0.21283181     0             -0.18927424     0.1499722    
    497500   0.035249072   -0.21194211     0             -0.18287322    -0.10420354   
    498000   0.029715993   -0.21327338     0             -0.18876746     0.14481481   
    498500   0.026329315   -0.21328134     0             -0.19156832     0.22373673   
    499000   0.025560226   -0.21441447     0             -0.19333569     0.33431684   
    499500   0.029587876   -0.21316074     0             -0.18876047     0.18528654   
    500000   0.03388348    -0.21269883     0             -0.1847561      0.012172944  
    500500   0.03790086    -0.21341224     0             -0.18215649     0.24559148   
    501000   0.032810293   -0.2162431      0             -0.1891854     -0.25956235   
    501500   0.028468457   -0.21796113     0             -0.19448401     0.016577659  
    502000   0.031692692   -0.21717425     0             -0.1910382     -0.18183542   
    502500   0.029541053   -0.21662086     0             -0.19225921     0.11706952   
    503000   0.063270352   -0.21420585     0             -0.16202862    -0.14045491   
    503500   0.039661368   -0.21522538     0             -0.1825178      0.12073888   
    504000   0.032668638   -0.21589893     0             -0.18895805     0.44480643   
    504500   0.02773001    -0.21686886     0             -0.19400072     0.22791238   
    505000   0.027543314   -0.21841387     0             -0.1956997     -0.010271492  
    505500   0.025483635   -0.21891279     0             -0.19789717     0.24573817   
    506000   0.025098568   -0.22161181     0             -0.20091374     0.25321564   
    506500   0.030651302   -0.22150937     0             -0.19623213     0.20266369   
    507000   0.032028439   -0.22135123     0             -0.19493831     0.0047180828 
    507500   0.031220522   -0.22133017     0             -0.19558351    -0.070088634  
    508000   0.033896156   -0.22121123     0             -0.19325805     0.093696314  
    508500   0.040201495   -0.22135554     0             -0.18820253    -0.27811888   
    509000   0.063987174   -0.21990965     0             -0.16714128    -0.15585056   
    509500   0.043362246   -0.21884323     0             -0.18308365     0.031652722  
    510000   0.033493177   -0.22068434     0             -0.19306348     0.17270821   
    510500   0.033901005   -0.21721393     0             -0.18925675    -0.03675752   
    511000   0.042511419   -0.21686321     0             -0.18180528    -0.013060862  
    511500   0.037410909   -0.21707739     0             -0.18622569    -0.32071741   
    512000   0.033406972   -0.21857508     0             -0.19102531    -0.062166493  
    512500   0.030338569   -0.21879628     0             -0.19377694     0.10938697   
    513000   0.028569827   -0.22080838     0             -0.19724767     0.041339644  
    513500   0.029429198   -0.22225972     0             -0.19799031     0.072498297  
    514000   0.026223265   -0.22144851     0             -0.19982294    -0.15462186   
    514500   0.038533891   -0.21978506     0             -0.18800728    -0.12950341   
    515000   0.032711786   -0.22259372     0             -0.19561726     0.18962472   
    515500   0.028617742   -0.22368135     0             -0.20008113    -0.29666624   
    516000   0.026873918   -0.22441084     0             -0.2022487     -0.028369273  
    516500   0.035041602   -0.22570021     0             -0.19680242     0.24286426   
    517000   0.032954737   -0.22259728     0             -0.19542046    -0.00078536104
    517500   0.030337442   -0.22565497     0             -0.20063656    -0.20598706   
    518000   0.042181513   -0.22396729     0             -0.18918142    -0.10957332   
    518500   0.037921944   -0.2223388      0             -0.19106567    -0.39940527   
    519000   0.067621731   -0.2203252      0             -0.16455952     0.054059305  
    519500   0.04153766    -0.22126501     0             -0.1870101     -0.051735383  
    520000   0.042709203   -0.22064025     0             -0.18541921    -0.1296315    
    520500   0.058583156   -0.2196605      0             -0.17134867    -0.35888267   
    521000   0.039461442   -0.22078619     0             -0.18824348    -0.18556757   
    521500   0.031050575   -0.22180724     0             -0.19620073    -0.24042892   
    522000   0.027872689   -0.22257601     0             -0.19959021    -0.15086164   
    522500   0.025687793   -0.22305989     0             -0.20187591    -0.15927213   
    523000   0.051085456   -0.21931954     0             -0.17719084    -0.15746188   
    523500   0.036815933   -0.22017597     0             -0.18981493     0.18368656   
    524000   0.031472842   -0.21984549     0             -0.19389075     0.11070525   
    524500   0.029364362   -0.21954013     0             -0.19532419     0.075368741  
    525000   0.03795828    -0.21884424     0             -0.18754114    -0.10449839   
    525500   0.030014153   -0.2202432      0             -0.1954914      0.37501696   
    526000   0.029418822   -0.22250107     0             -0.19824022    -0.22596023   
    526500   0.026910223   -0.2220072      0             -0.19981512     0.21844882   
    527000   0.028842491   -0.22090975     0             -0.19712418    -0.18026528   
    527500   0.039079582   -0.22119128     0             -0.18896348    -0.023851708  
    528000   0.052437799   -0.21806584     0             -0.1748219      0.059603907  
    528500   0.049104568   -0.21731995     0             -0.17682483    -0.33521121   
    529000   0.059817701   -0.21843891     0             -0.16910899     0.30410391   
    529500   0.042953205   -0.21728613     0             -0.18186386     0.36044093   
    530000   0.034658297   -0.2198313      0             -0.19124961     0.21796942   
    530500   0.035417181   -0.22184172     0             -0.19263419     0.24921315   
    531000   0.045333239   -0.21881913     0             -0.18143412     0.061057297  
    531500   0.035770911   -0.21943282     0             -0.18993358     0.1262316    
    532000   0.030548079   -0.22097769     0             -0.19578558     0.28241804   
    532500   0.034063336   -0.22197883     0             -0.19388778    -0.020231809  
    533000   0.034007859   -0.22000009     0             -0.19195479    -0.13315022   
    533500   0.036989439   -0.21788608     0             -0.18738196     0.096984149  
    534000   0.045950002   -0.21568068     0             -0.17778704    -0.049202657  
    534500   0.04175446    -0.2160741      0             -0.18164041     0.12019109   
    535000   0.033412111   -0.2184281      0             -0.1908741      0.11279549   
    535500   0.045536136   -0.21862056     0             -0.18106822    -0.60686622   
    536000   0.032678354   -0.2166796      0             -0.18973071     0.22852955   
    536500   0.034945257   -0.21790804     0             -0.1890897      0.03362339   
    537000   0.045316337   -0.21693001     0             -0.17955894     0.036460351  
    537500   0.033043072   -0.21660575     0             -0.18935608    -0.027497329  
    538000   0.029434488   -0.21724286     0             -0.19296909    -0.10674999   
    538500   0.034887633   -0.21671968     0             -0.18794886     0.062145198  
    539000   0.029227507   -0.21798364     0             -0.19388056    -0.41105648   
    539500   0.027698205   -0.22011118     0             -0.19726928    -0.082300795  
    540000   0.031988227   -0.2199895      0             -0.19360973     0.0084851056 
    540500   0.02775409    -0.21871886     0             -0.19583086    -0.13364606   
    541000   0.025831827   -0.21933312     0             -0.19803036     0.1518079    
    541500   0.03123559    -0.21976396     0             -0.19400487    -0.13859197   
    542000   0.027427677   -0.21855872     0             -0.19593991    -0.13526712   
    542500   0.02704729    -0.21887183     0             -0.19656671     0.29866683   
    543000   0.032754484   -0.21695227     0             -0.1899406      0.061669056  
    543500   0.036493438   -0.21800666     0             -0.18791158    -0.23754341   
    544000   0.044347778   -0.21692989     0             -0.18035757     0.21899975   
    544500   0.045908648   -0.21476983     0             -0.17691029     0.1225742    
    545000   0.041475503   -0.21867216     0             -0.18446851     0.038717145  
    545500   0.038705015   -0.21830244     0             -0.18638353     0.10104347   
    546000   0.03893866    -0.21783734     0             -0.18572575     0.31266953   
    546500   0.043114375   -0.21830778     0             -0.1827526     -0.12178957   
    547000   0.035745238   -0.21762887     0             -0.18815081     0.091674398  
    547500   0.037430151   -0.21839866     0             -0.1875311     -0.05155738   
    548000   0.033245531   -0.21754794     0             -0.19013131     0.022382553  
    548500   0.029239424   -0.21866571     0             -0.19455281     0.095194845  
    549000   0.032204783   -0.21715815     0             -0.19059979     0.14331426   
    549500   0.035669954   -0.21783648     0             -0.1884205      0.22715955   
    550000   0.040916631   -0.21590363     0             -0.18216087     0.21320658   
    550500   0.03378226    -0.21707787     0             -0.18921862     0.10675561   
    551000   0.035641925   -0.21786263     0             -0.18846977     0.070408972  
    551500   0.039554495   -0.21656494     0             -0.1839455      0.21698844   
    552000   0.047262475   -0.2162631      0             -0.17728711    -0.20512436   
    552500   0.045776162   -0.21713532     0             -0.17938505     0.30551893   
    553000   0.041006385   -0.2150401      0             -0.18122332    -0.43746249   
    553500   0.041451278   -0.21633976     0             -0.18215609     0.054609078  
    554000   0.062858217   -0.20864871     0             -0.15681136     0.006685838  
    554500   0.050875546   -0.20876071     0             -0.16680512     0.18899867   
    555000   0.036190071   -0.21132471     0             -0.1814798     -0.013275897  
    555500   0.043727832   -0.21047581     0             -0.17441473    -0.04762016   
    556000   0.042608779   -0.21035895     0             -0.17522073    -0.43810937   
    556500   0.032859827   -0.21149505     0             -0.1843965      0.26204466   
    557000   0.028493701   -0.21136123     0             -0.18786329     0.095447233  
    557500   0.028722617   -0.21374891     0             -0.1900622     -0.064284044  
    558000   0.030669943   -0.21170837     0             -0.18641575    -0.1584131    
    558500   0.03784512    -0.21176617     0             -0.18055639    -0.21140865   
    559000   0.035334498   -0.2126128      0             -0.18347346    -0.054883328  
    559500   0.032288554   -0.21410287     0             -0.18747544     0.042314852  
    560000   0.035140107   -0.2128155      0             -0.18383647     0.10218761   
    560500   0.029786012   -0.21259743     0             -0.18803377     0.19191278   
    561000   0.039471443   -0.21220861     0             -0.17965765    -0.042974779  
    561500   0.040904147   -0.20955122     0             -0.17581875    -0.16751939   
    562000   0.031844093   -0.21256981     0             -0.18630891    -0.0083292868 
    562500   0.041782475   -0.20940614     0             -0.17494934    -0.15033261   
    563000   0.05232824    -0.20767612     0             -0.16452253    -0.43654852   
    563500   0.049903232   -0.20695531     0             -0.16580156    -0.064327436  
    564000   0.041463232   -0.21161016     0             -0.17741664     0.052991002  
    564500   0.060512829   -0.20947875     0             -0.15957557    -0.12373933   
    565000   0.046657214   -0.20900019     0             -0.17052334    -0.080695946  
    565500   0.043165157   -0.20904907     0             -0.17345202    -0.26417284   
    566000   0.040142554   -0.21099464     0             -0.17789023    -0.19046224   
    566500   0.041978136   -0.20898243     0             -0.17436427    -0.32078767   
    567000   0.043101634   -0.20877157     0             -0.1732269     -0.3127223    
    567500   0.034875015   -0.20910941     0             -0.180349      -0.080606103  
    568000   0.032077157   -0.21059575     0             -0.18414264     0.21476387   
    568500   0.02853944    -0.21160403     0             -0.18806838    -0.012385431  
    569000   0.029337141   -0.21108025     0             -0.18688676    -0.3183185    
    569500   0.036485011   -0.210273       0             -0.18018487     0.19019163   
    570000   0.038380025   -0.20732121     0             -0.17567031     0.1147323    
    570500   0.048096296   -0.20785694     0             -0.16819331     0.02703611   
    571000   0.054960531   -0.20552899     0             -0.16020463    -0.21933967   
    571500   0.046063898   -0.20799728     0             -0.17000972     0.074859642  
    572000   0.045163191   -0.20777641     0             -0.17053163    -0.14274324   
    572500   0.036207629   -0.20982559     0             -0.17996621     0.035588219  
    573000   0.033115487   -0.21070731     0             -0.18339792     0.27674304   
    573500   0.030287101   -0.21253609     0             -0.18755919    -0.18904865   
    574000   0.032447297   -0.21396959     0             -0.18721124     0.053397698  
    574500   0.031379405   -0.21652343     0             -0.19064574     0.18969273   
    575000   0.029486127   -0.21584786     0             -0.1915315      0.13857358   
    575500   0.02839308    -0.21796831     0             -0.19455336     0.31942834   
    576000   0.028880822   -0.21942239     0             -0.19560521     0.19067465   
    576500   0.034368264   -0.21918939     0             -0.19084688    -0.35314384   
    577000   0.032843963   -0.22124961     0             -0.19416415     0.031787359  
    577500   0.050196529   -0.21987892     0             -0.17848329    -0.027625654  
    578000   0.038044774   -0.22094706     0             -0.18957264    -0.095942831  
    578500   0.043020567   -0.22168037     0             -0.18620255    -0.072119978  
    579000   0.035405126   -0.22284424     0             -0.19364665    -0.14925916   
    579500   0.029593238   -0.22331057     0             -0.19890589    -0.22994254   
    580000   0.031485955   -0.22186961     0             -0.19590406    -0.04404226   
    580500   0.036057242   -0.21900678     0             -0.18927142    -0.21371738   
    581000   0.046774526   -0.21753243     0             -0.17895884     0.11503711   
    581500   0.05489252    -0.21745345     0             -0.17218517     0.11944457   
    582000   0.039724116   -0.21698139     0             -0.18422206    -0.082535301  
    582500   0.033181178   -0.21886014     0             -0.19149658    -0.062641162  
    583000   0.031449316   -0.22125389     0             -0.19531855    -0.18109503   
    583500   0.030768788   -0.21977511     0             -0.19440098    -0.031243503  
    584000   0.033935899   -0.22127706     0             -0.19329111     0.064303284  
    584500   0.045961262   -0.21826386     0             -0.18036094     0.13015173   
    585000   0.056891962   -0.21733368     0             -0.17041652    -0.05159483   
    585500   0.044659423   -0.21670639     0             -0.17987706     0.03987895   
    586000   0.035409834   -0.21720399     0             -0.18800253    -0.40481498   
    586500   0.051624379   -0.22134794     0             -0.17877481     0.009441911  
    587000   0.036455194   -0.21951948     0             -0.18945594    -0.063310842  
    587500   0.033176236   -0.22027678     0             -0.1929173     -0.16883159   
    588000   0.050899219   -0.21878653     0             -0.17681141    -0.33319167   
    588500   0.044970437   -0.2167485      0             -0.17966268     0.11110538   
    589000   0.040025559   -0.21667495     0             -0.18366703    -0.1341185    
    589500   0.045997055   -0.21364888     0             -0.17571644    -0.016463356  
    590000   0.036317655   -0.21470294     0             -0.18475282    -0.066435616  
    590500   0.034820702   -0.21708523     0             -0.18836961     0.19894848   
    591000   0.041886465   -0.21489824     0             -0.18035568    -0.081190597  
    591500   0.032970486   -0.21703418     0             -0.18984438    -0.096171062  
    592000   0.032214554   -0.21869526     0             -0.19212885    -0.14786398   
    592500   0.033603864   -0.21858247     0             -0.19087034     0.24579259   
    593000   0.045336526   -0.21753811     0             -0.18015038    -0.17461207   
    593500   0.037811147   -0.22051865     0             -0.18933689     0.1566551    
    594000   0.039983221   -0.21713896     0             -0.18416595     0.19700485   
    594500   0.033499926   -0.21830145     0             -0.19067503    -0.17723627   
    595000   0.032842167   -0.21931918     0             -0.1922352      0.15259795   
    595500   0.034849139   -0.21972907     0             -0.19098999     0.041229728  
    596000   0.031934467   -0.22102195     0             -0.19468652     0.26879689   
    596500   0.030827109   -0.22295046     0             -0.19752823     0.26782022   
    597000   0.032070357   -0.22315348     0             -0.19670598    -0.0092305252 
    597500   0.030216114   -0.22572887     0             -0.20081052     0.097549074  
    598000   0.037082462   -0.22168871     0             -0.19110788    -0.22258491   
    598500   0.053574139   -0.22123893     0             -0.17705789     0.081209394  
    599000   0.04024011    -0.22301811     0             -0.18983325     0.12899717   
    599500   0.057399522   -0.22014371     0             -0.17280799     0.22147701   
    600000   0.040571406   -0.21619765     0             -0.18273958    -0.34913024   
    600500   0.03999614    -0.2192158      0             -0.18623215     0.020174236  
    601000   0.033128332   -0.21982142     0             -0.19250144     0.023616742  
    601500   0.033939      -0.21970189     0             -0.19171338     0.099549162  
    602000   0.036140328   -0.21914043     0             -0.18933655    -0.042235288  
    602500   0.035177929   -0.22039973     0             -0.19138951     0.13295778   
    603000   0.031828513   -0.22301036     0             -0.19676231     0.040546239  
    603500   0.030312061   -0.2220279      0             -0.19703042     0.18604052   
    604000   0.030518906   -0.22418264     0             -0.19901458     0.14013767   
    604500   0.034791234   -0.22200661     0             -0.19331528     0.4085407    
    605000   0.058643825   -0.22210211     0             -0.17374025     0.23233013   
    605500   0.040520275   -0.22305642     0             -0.18964052    -0.0040678102 
    606000   0.040443679   -0.22128925     0             -0.18793651     0.070288759  
    606500   0.036057815   -0.22175565     0             -0.19201982    -0.051492076  
    607000   0.032579274   -0.22108331     0             -0.19421612    -0.0560811    
    607500   0.036296818   -0.22172308     0             -0.19179015     0.4391136    
    608000   0.037255034   -0.22275316     0             -0.19203001     0.1334776    
    608500   0.035724867   -0.22479206     0             -0.19533079     0.11909256   
    609000   0.0408818     -0.22061036     0             -0.18689632    -0.12321233   
    609500   0.041893205   -0.2240878      0             -0.18953968     0.11433509   
    610000   0.040853919   -0.2229734      0             -0.18928236     0.30537558   
    610500   0.033614013   -0.22359764     0             -0.19587714    -0.040513283  
    611000   0.034129466   -0.22282538     0             -0.1946798      0.58932775   
    611500   0.032018401   -0.2244444      0             -0.19803976    -0.17203248   
    612000   0.030037513   -0.22547425     0             -0.20070318     0.058919667  
    612500   0.03150404    -0.22610835     0             -0.20012788     0.17288219   
    613000   0.032643825   -0.22646892     0             -0.19954851     0.34258907   
    613500   0.032300959   -0.2267388      0             -0.20010114     0.088471835  
    614000   0.035212191   -0.22593769     0             -0.19689921     0.33542485   
    614500   0.037518771   -0.22645448     0             -0.19551383    -0.27180927   
    615000   0.035969335   -0.22523557     0             -0.1955727      0.16980301   
    615500   0.043687811   -0.22362982     0             -0.18760174    -0.23173916   
    616000   0.037226699   -0.22595527     0             -0.19525548    -0.078898456  
    616500   0.063614236   -0.22062466     0             -0.16816384    -0.027189927  
    617000   0.050733886   -0.22024504     0             -0.17840628     0.34271744   
    617500   0.039043467   -0.22146058     0             -0.18926256     0.08083094   
    618000   0.042523419   -0.21837554     0             -0.18330771     0.048706602  
    618500   0.04323437    -0.21805197     0             -0.18239784    -0.16077677   
    619000   0.049871516   -0.21833573     0             -0.17720813     0.26130378   
    619500   0.041285639   -0.21799561     0             -0.18394854    -0.20052532   
    620000   0.035101155   -0.21917959     0             -0.19023268     0.34259273   
    620500   0.037905224   -0.21719941     0             -0.18594007     0.012491644  
    621000   0.034386118   -0.21913081     0             -0.19077358    -0.3620828    
    621500   0.041933404   -0.21684851     0             -0.18226725    -0.0067386533 
    622000   0.048786454   -0.21320863     0             -0.17297586     0.27415962   
    622500   0.043747404   -0.2141253      0             -0.17804809     0.19224353   
    623000   0.037907544   -0.2157735      0             -0.18451225    -0.26386145   
    623500   0.04280433    -0.21463035     0             -0.17933086    -0.27820844   
    624000   0.059066302   -0.21281591     0             -0.16410564     0.062509199  
    624500   0.051167145   -0.2145231      0             -0.17232704     0.26584699   
    625000   0.03810651    -0.21556524     0             -0.1841399      0.18356903   
    625500   0.055163007   -0.21158505     0             -0.16609371     0.044561695  
    626000   0.044878941   -0.21472553     0             -0.17771516    -0.13760196   
    626500   0.054654775   -0.20944492     0             -0.16437271    -0.19657339   
    627000   0.062117259   -0.2077522      0             -0.1565259      0.14457162   
    627500   0.043351497   -0.21018988     0             -0.17443916     0.12928168   
    628000   0.04330378    -0.20840436     0             -0.17269298    -0.071345031  
    628500   0.036672423   -0.21158926     0             -0.18134658    -0.10937702   
    629000   0.054894509   -0.20918677     0             -0.16391685    -0.071049829  
    629500   0.051937791   -0.2075019      0             -0.16467031     0.32899185   
    630000   0.044975541   -0.20630283     0             -0.1692128      0.1323546    
    630500   0.054239075   -0.2065011      0             -0.16177171     0.32907508   
    631000   0.044622626   -0.20968429     0             -0.1728853     -0.12504973   
    631500   0.03776542    -0.20951027     0             -0.17836622    -0.15687736   
    632000   0.051073639   -0.20769055     0             -0.1655716     -0.23015162   
    632500   0.053275885   -0.21057419     0             -0.16663911    -0.21147908   
    633000   0.041772641   -0.21186367     0             -0.17741498    -0.0018895503 
    633500   0.05085042    -0.21275153     0             -0.17081666    -0.278271     
    634000   0.049249046   -0.2122711      0             -0.17165683    -0.22019501   
    634500   0.047940749   -0.20939895     0             -0.1698636     -0.44490576   
    635000   0.039072649   -0.21220428     0             -0.1799822      0.24651361   
    635500   0.045467431   -0.21532328     0             -0.17782761     0.13583418   
    636000   0.039723335   -0.2133551      0             -0.18059642    -0.15865454   
    636500   0.034760827   -0.21412644     0             -0.1854602      0.34916855   
    637000   0.030039653   -0.21654993     0             -0.1917771      0.097704133  
    637500   0.033776622   -0.21544133     0             -0.18758673     0.18486918   
    638000   0.043791247   -0.21734831     0             -0.18123493    -0.057576557  
    638500   0.039747775   -0.2188333      0             -0.18605446    -0.053000842  
    639000   0.033564582   -0.21788871     0             -0.19020897     0.13385407   
    639500   0.03881403    -0.21919738     0             -0.18718858    -0.34444937   
    640000   0.046308434   -0.21829477     0             -0.18010555    -0.2583695    
    640500   0.037585711   -0.21967931     0             -0.18868346     0.55976973   
    641000   0.041987857   -0.22058424     0             -0.18595807    -0.18249987   
    641500   0.038037909   -0.22224156     0             -0.1908728      0.12216195   
    642000   0.040000126   -0.22340448     0             -0.19041753    -0.14933203   
    642500   0.034634364   -0.2239366      0             -0.19537464     0.15605085   
    643000   0.036638185   -0.22395689     0             -0.19374244    -0.39286467   
    643500   0.034001755   -0.22311536     0             -0.1950751      0.083471273  
    644000   0.034929785   -0.2223499      0             -0.19354432    -0.08456504   
    644500   0.0380344     -0.22360089     0             -0.19223502     0.13616854   
    645000   0.048418391   -0.22019506     0             -0.18026582    -0.49197503   
    645500   0.045481014   -0.22026065     0             -0.18275377     0.17700441   
    646000   0.037682341   -0.22171672     0             -0.19064118    -0.28164029   
    646500   0.03177032    -0.22250797     0             -0.1963079     -0.1397262    
    647000   0.062826805   -0.22168502     0             -0.16987357     0.46575998   
    647500   0.047415801   -0.21992613     0             -0.18082369     0.28348995   
    648000   0.047371819   -0.22281595     0             -0.18374978     0.34895192   
    648500   0.041691627   -0.22442685     0             -0.19004497     0.098082879  
    649000   0.034578135   -0.22742983     0             -0.19891425    -0.28490531   
    649500   0.044796292   -0.22355594     0             -0.18661374     0.29308747   
    650000   0.04586649    -0.22350128     0             -0.18567651     0.046472261  
    650500   0.038154628   -0.22610321     0             -0.19463819     0.057805975  
    651000   0.059274918   -0.2218628      0             -0.17298049    -0.061307717  
    651500   0.052169997   -0.22102825     0             -0.17800517     0.39329911   
    652000   0.060176909   -0.21933625     0             -0.16971009    -0.15618451   
    652500   0.043722859   -0.22144914     0             -0.18539216     0.40913113   
    653000   0.04283629    -0.2210987      0             -0.18577285    -0.060720249  
    653500   0.050742644   -0.22102197     0             -0.17917598    -0.13862784   
    654000   0.038832065   -0.2197515      0             -0.18772782     0.24150532   
    654500   0.039693536   -0.21959926     0             -0.18686515     0.10201233   
    655000   0.036802547   -0.22111997     0             -0.19076998     0.319474     
    655500   0.032862766   -0.22175175     0             -0.19465078     0.1288542    
    656000   0.046449905   -0.21988123     0             -0.18157534    -0.031835497  
    656500   0.038352219   -0.2198889      0             -0.18826093    -0.32768889   
    657000   0.034766853   -0.22124248     0             -0.19257127     0.10503828   
    657500   0.034378415   -0.22254038     0             -0.19418949     0.079144416  
    658000   0.042830902   -0.22009235     0             -0.18477095     0.35301559   
    658500   0.038107149   -0.22074668     0             -0.18932081     0.1728733    
    659000   0.036338775   -0.22082866     0             -0.19086112     0.10764694   
    659500   0.033222149   -0.22354962     0             -0.19615227    -0.033932276  
    660000   0.03352879    -0.22305158     0             -0.19540136     0.11120278   
    660500   0.039231571   -0.2237221      0             -0.19136896     0.23301682   
    661000   0.043188036   -0.2241823      0             -0.18856638    -0.35179923   
    661500   0.035882267   -0.2256503      0             -0.19605923    -0.13761988   
    662000   0.05812188    -0.22438445     0             -0.17645301     0.094940331  
    662500   0.043243919   -0.22415681     0             -0.1884948     -0.15613906   
    663000   0.038301197   -0.22749955     0             -0.19591366     0.32022016   
    663500   0.03620373    -0.2294091      0             -0.19955293    -0.041967737  
    664000   0.043667874   -0.226322       0             -0.19031037     0.13790322   
    664500   0.050264979   -0.22592952     0             -0.18447744    -0.31047431   
    665000   0.050656841   -0.22749254     0             -0.18571731     0.26411138   
    665500   0.051423255   -0.22722019     0             -0.18481292     0.24386091   
    666000   0.041809581   -0.22656188     0             -0.19208273     0.12657547   
    666500   0.036039574   -0.22652649     0             -0.19680569    -0.23914616   
    667000   0.040180335   -0.22513376     0             -0.1919982     -0.071725796  
    667500   0.044156319   -0.22643042     0             -0.19001599    -0.21170483   
    668000   0.045215813   -0.22521024     0             -0.18792206    -0.24111032   
    668500   0.040080693   -0.22604608     0             -0.1929927      0.3779566    
    669000   0.044536479   -0.22471599     0             -0.18798805    -0.086559141  
    669500   0.038539642   -0.22576424     0             -0.19398171    -0.20304817   
    670000   0.038178266   -0.22877905     0             -0.19729454    -0.14474427   
    670500   0.034995032   -0.22753376     0             -0.19867437     0.081392238  
    671000   0.04527252    -0.22838033     0             -0.1910454     -0.56673449   
    671500   0.038559618   -0.2286729      0             -0.1968739     -0.23734366   
    672000   0.034798907   -0.2307769      0             -0.20207924    -0.15843633   
    672500   0.040356579   -0.23181659     0             -0.19853569    -0.23702269   
    673000   0.062986783   -0.23012994     0             -0.17818657     0.055710087  
    673500   0.049135454   -0.22759168     0             -0.18707109    -0.19687515   
    674000   0.055748189   -0.22582147     0             -0.17984755     0.50612328   
    674500   0.060696839   -0.22352723     0             -0.1734723      0.1671695    
    675000   0.047473365   -0.22329313     0             -0.18414322    -0.03277384   
    675500   0.049185704   -0.22453945     0             -0.18397742    -0.027564817  
    676000   0.042544051   -0.22433619     0             -0.18925134     0.53859672   
    676500   0.037124203   -0.23021695     0             -0.19960169     0.32722903   
    677000   0.043253079   -0.22830746     0             -0.1926379     -0.012648838  
    677500   0.045311287   -0.22800223     0             -0.19063532     0.044410925  
    678000   0.045479394   -0.22564328     0             -0.18813774     0.12797896   
    678500   0.049332164   -0.22680951     0             -0.1861267      0.0039119563 
    679000   0.053107445   -0.22383978     0             -0.18004361    -0.44705519   
    679500   0.043469407   -0.22330632     0             -0.18745836    -0.27550668   
    680000   0.041579347   -0.22656326     0             -0.19227398     0.26728371   
    680500   0.039909385   -0.22585875     0             -0.19294663     0.59520304   
    681000   0.035798406   -0.22792489     0             -0.19840298     0.01224824   
    681500   0.034557065   -0.22755294     0             -0.19905473     0.46650196   
    682000   0.044053931   -0.22829123     0             -0.19196122     0.10896937   
    682500   0.046613238   -0.22589129     0             -0.1874507      0.55910822   
    683000   0.049388055   -0.22615049     0             -0.18542159     0.053219957  
    683500   0.041126874   -0.22730392     0             -0.19338778     0.4098888    
    684000   0.03658328    -0.22916338     0             -0.19899421    -0.25671225   
    684500   0.034719217   -0.23200888     0             -0.20337695     0.10809489   
    685000   0.03465479    -0.23203359     0             -0.20345479    -0.23252062   
    685500   0.043348465   -0.23450347     0             -0.19875524    -0.071665832  
    686000   0.03835616    -0.23121744     0             -0.19958622    -0.15800415   
    686500   0.047476343   -0.23151177     0             -0.1923594     -0.019821888  
    687000   0.038283214   -0.22660661     0             -0.19503555     0.083130665  
    687500   0.040092153   -0.2297967      0             -0.19673386     0.059378987  
    688000   0.036396608   -0.23102521     0             -0.20100998    -0.19759224   
    688500   0.037983204   -0.23025394     0             -0.1989303     -0.13405848   
    689000   0.049866486   -0.22971962     0             -0.18859617     0.21723535   
    689500   0.041152671   -0.2275813      0             -0.19364389    -0.12816731   
    690000   0.039114708   -0.23040044     0             -0.19814368    -0.38930332   
    690500   0.047118336   -0.22742469     0             -0.18856757     0.057337691  
    691000   0.049394774   -0.22528154     0             -0.1845471     -0.0040343835 
    691500   0.061421244   -0.22474109     0             -0.17408877     0.0490108    
    692000   0.043799751   -0.22488253     0             -0.18876214     0.0063254322 
    692500   0.047622474   -0.22233121     0             -0.18305833     0.23118092   
    693000   0.049569496   -0.22227474     0             -0.18139621     0.074040651  
    693500   0.058757601   -0.22018892     0             -0.17173323     0.078008154  
    694000   0.054255637   -0.22207388     0             -0.17733082    -0.027345698  
    694500   0.043816028   -0.22409126     0             -0.18795745     0.010322897  
    695000   0.037553146   -0.22521608     0             -0.19424709     0.13020735   
    695500   0.03508046    -0.2255647      0             -0.19663486     0.2891808    
    696000   0.038314213   -0.22743091     0             -0.19583429    -0.064193843  
    696500   0.039881008   -0.22735432     0             -0.19446561     0.29240225   
    697000   0.035831462   -0.22800553     0             -0.19845636     0.14116111   
    697500   0.041772337   -0.22704557     0             -0.19259713    -0.24836973   
    698000   0.038360772   -0.22643854     0             -0.19480352     0.46161044   
    698500   0.037164586   -0.22689399     0             -0.19624543     0.2036195    
    699000   0.037851208   -0.2270088      0             -0.19579401     0.1709948    
    699500   0.038511039   -0.22784461     0             -0.19608567     0.15549896   
    700000   0.043329795   -0.22887039     0             -0.19313756     0.18963523   
    700500   0.053102987   -0.22399909     0             -0.18020659    -0.10433267   
    701000   0.05126277    -0.22767458     0             -0.18539966     0.012214516  
    701500   0.044128924   -0.22865108     0             -0.19225923     0.1446405    
    702000   0.048513332   -0.22655769     0             -0.18655015    -0.32190403   
    702500   0.045982367   -0.22478486     0             -0.18686453     0.25616498   
    703000   0.043305007   -0.2242822      0             -0.18856982     0.68851088   
    703500   0.048601698   -0.22611797     0             -0.18603755     0.39030646   
    704000   0.042969106   -0.226459       0             -0.19102362    -0.044895408  
    704500   0.047592052   -0.22472681     0             -0.18547902     0.20026999   
    705000   0.038132071   -0.2252154      0             -0.19376898    -0.0092472549 
    705500   0.042057527   -0.230238       0             -0.19555438     0.21824379   
    706000   0.051313704   -0.22733348     0             -0.18501655    -0.19968645   
    706500   0.045486525   -0.22775395     0             -0.19024252    -0.0018756548 
    707000   0.041898354   -0.22828602     0             -0.19373366    -0.1159931    
    707500   0.049978158   -0.22704951     0             -0.18583397    -0.12164249   
    708000   0.056276815   -0.22590058     0             -0.17949072    -0.23344445   
    708500   0.040772697   -0.22506321     0             -0.19143915    -0.26007129   
    709000   0.037035391   -0.22649629     0             -0.19595428    -0.23956639   
    709500   0.037020989   -0.22741617     0             -0.19688603     0.55134348   
    710000   0.042093529   -0.22657601     0             -0.19186269     0.23636479   
    710500   0.051571741   -0.22859644     0             -0.18606672    -0.35215239   
    711000   0.054886862   -0.22822076     0             -0.18295715    -0.022076674  
    711500   0.044088763   -0.22839488     0             -0.19203616     0.053620939  
    712000   0.045643241   -0.22727219     0             -0.18963153    -0.35565219   
    712500   0.0759093     -0.22246238     0             -0.15986218     0.54459719   
    713000   0.057211112   -0.22238023     0             -0.17519988     0.15399328   
    713500   0.044447485   -0.22347957     0             -0.18682502    -0.074441618  
    714000   0.039743953   -0.22611776     0             -0.19334207    -0.14320567   
    714500   0.039990884   -0.22827775     0             -0.19529842     0.0098579645 
    715000   0.034983178   -0.22803318     0             -0.19918356     0.053069605  
    715500   0.035510296   -0.22919303     0             -0.19990872    -0.081152642  
    716000   0.03568807    -0.22925603     0             -0.19982511     0.065156602  
    716500   0.03626946    -0.22862531     0             -0.19871494    -0.048850365  
    717000   0.045315336   -0.22909627     0             -0.19172602    -0.16350048   
    717500   0.040454768   -0.23009628     0             -0.1967344     -0.22951437   
    718000   0.044410694   -0.23036588     0             -0.19374166     0.26643491   
    718500   0.039304887   -0.22856933     0             -0.19615572    -0.39475978   
    719000   0.03809303    -0.23249515     0             -0.20108093    -0.37723956   
    719500   0.049170052   -0.22992963     0             -0.18938051     0.19047815   
    720000   0.043028111   -0.23191646     0             -0.19643242    -0.21197199   
    720500   0.042231358   -0.2301924      0             -0.19536542     0.20210466   
    721000   0.050016165   -0.2305734      0             -0.18932652     0.29824173   
    721500   0.051318283   -0.22759745     0             -0.18527675    -0.13371232   
    722000   0.042910174   -0.2296342      0             -0.19424742    -0.58764798   
    722500   0.041372267   -0.23375502     0             -0.19963651     0.32365955   
    723000   0.038227612   -0.23291502     0             -0.20138981     0.19946229   
    723500   0.060009242   -0.23085634     0             -0.18136845     0.12247754   
    724000   0.042601684   -0.2299465      0             -0.19481412     0.41391847   
    724500   0.039572269   -0.23062063     0             -0.19798652     0.2538811    
    725000   0.058938747   -0.22808557     0             -0.17948049    -0.54706      
    725500   0.0456914     -0.22912481     0             -0.19144443     0.2767692    
    726000   0.042762444   -0.22955954     0             -0.19429459    -0.22905749   
    726500   0.037589335   -0.22670327     0             -0.19570443     0.24111346   
    727000   0.042210419   -0.22669488     0             -0.19188517     0.15047416   
    727500   0.05175641    -0.22676798     0             -0.18408596     0.091459551  
    728000   0.041375855   -0.22774304     0             -0.19362157     0.025664738  
    728500   0.048292537   -0.22742967     0             -0.18760421     0.081290365  
    729000   0.039143024   -0.22691065     0             -0.19463053    -0.41069572   
    729500   0.03646113    -0.22816238     0             -0.19809394     0.47557068   
    730000   0.037494031   -0.22877594     0             -0.1978557     -0.4574248    
    730500   0.03509716    -0.22964293     0             -0.20069932    -0.39350656   
    731000   0.050569861   -0.22756222     0             -0.18585872     0.087803351  
    731500   0.041382668   -0.22881595     0             -0.19468886     0.17616798   
    732000   0.04427912    -0.22585763     0             -0.18934192    -0.12473159   
    732500   0.040059737   -0.22734266     0             -0.19430655    -0.13783649   
    733000   0.036859918   -0.23035879     0             -0.19996148     0.11215563   
    733500   0.040015382   -0.2278555      0             -0.19485597     0.14168253   
    734000   0.042607137   -0.22868406     0             -0.19354718     0.16057446   
    734500   0.040293184   -0.2291716      0             -0.19594297    -0.12614756   
    735000   0.040774869   -0.23067469     0             -0.19704884     0.22169524   
    735500   0.04737562    -0.22978375     0             -0.19071444    -0.078558769  
    736000   0.064413041   -0.22530884     0             -0.17218927    -0.058849927  
    736500   0.048203516   -0.22680223     0             -0.18705018     0.49965165   
    737000   0.045593756   -0.23029095     0             -0.19269109     0.35519238   
    737500   0.04782804    -0.22788141     0             -0.18843901     0.14904331   
    738000   0.057458676   -0.22536429     0             -0.17797978     0.077141166  
    738500   0.04391222    -0.22754879     0             -0.19133565    -0.24664123   
    739000   0.041028984   -0.22799793     0             -0.19416252    -0.069430154  
    739500   0.056910558   -0.22670781     0             -0.17977532     0.21667146   
    740000   0.042265203   -0.229186       0             -0.19433111    -0.15393831   
    740500   0.041660469   -0.2304369      0             -0.19608071     0.029464522  
    741000   0.040644596   -0.23095324     0             -0.19743482     0.40660905   
    741500   0.040326137   -0.23298201     0             -0.19972621    -0.047239649  
    742000   0.047231721   -0.23096829     0             -0.19201766    -0.068966355  
    742500   0.041349656   -0.2331511      0             -0.19905124     0.086104127  
    743000   0.039062075   -0.23163292     0             -0.19941956    -0.17577269   
    743500   0.04014335    -0.233071       0             -0.19996594     0.07916304   
    744000   0.03639288    -0.23333287     0             -0.20332071     0.39484749   
    744500   0.035310353   -0.23434003     0             -0.2052206     -0.23544072   
    745000   0.036078825   -0.23501411     0             -0.20526095     0.063155679  
    745500   0.037216832   -0.23382119     0             -0.20312955    -0.35242508   
    746000   0.053511475   -0.23216468     0             -0.18803532     0.14250182   
    746500   0.047624964   -0.22894191     0             -0.18966698     0.36320506   
    747000   0.046261141   -0.22982083     0             -0.19167061     0.061903399  
    747500   0.047812493   -0.23298468     0             -0.1935551     -0.59825098   
    748000   0.043503772   -0.23259493     0             -0.19671863     0.15069855   
    748500   0.050808734   -0.22872264     0             -0.18682215     0.94849604   
    749000   0.050211657   -0.22940339     0             -0.18799529     0.11037855   
    749500   0.045698823   -0.23039192     0             -0.19270542     0.036300321  
    750000   0.044508319   -0.22676794     0             -0.19006322    -0.55834869   
    750500   0.05571953    -0.2254501      0             -0.17949982     0.1182455    
    751000   0.049045352   -0.2249824      0             -0.18453612    -0.18166391   
    751500   0.040293677   -0.22601372     0             -0.19278469    -0.2147591    
    752000   0.040527092   -0.22575223     0             -0.19233071     0.054759139  
    752500   0.047085114   -0.22605724     0             -0.18722751     0.32374703   
    753000   0.040978022   -0.22640118     0             -0.19260779    -0.38144631   
    753500   0.053289962   -0.22605        0             -0.18210331    -0.10372499   
    754000   0.050185411   -0.22631191     0             -0.18492546     0.31898614   
    754500   0.057267726   -0.22067178     0             -0.17344474     0.18007006   
    755000   0.05229109    -0.22486863     0             -0.18174568     0.12228966   
    755500   0.042672328   -0.22745493     0             -0.19226429    -0.22098122   
    756000   0.048117372   -0.22413897     0             -0.18445797    -0.12541316   
    756500   0.041978437   -0.22475173     0             -0.19013332     0.31240027   
    757000   0.039749343   -0.2278941      0             -0.19511397    -0.22923578   
    757500   0.044115994   -0.2257183      0             -0.18933711     0.1659708    
    758000   0.043590606   -0.2266022      0             -0.19065429    -0.40918389   
    758500   0.04642238    -0.22397374     0             -0.18569055    -0.19533793   
    759000   0.045221503   -0.22430754     0             -0.18701468    -0.54934071   
    759500   0.045908431   -0.22525012     0             -0.18739077     0.19765295   
    760000   0.039050457   -0.22625897     0             -0.19405519     0.19274833   
    760500   0.038874784   -0.22698143     0             -0.19492252     0.10290666   
    761000   0.036825839   -0.22859307     0             -0.19822387     0.44328124   
    761500   0.038531582   -0.22894478     0             -0.1971689     -0.16587043   
    762000   0.038610635   -0.22872691     0             -0.19688583    -0.20586041   
    762500   0.040188894   -0.22953776     0             -0.19639515    -0.30215685   
    763000   0.043718395   -0.22983156     0             -0.19377827     0.071343623  
    763500   0.039845045   -0.23075147     0             -0.19789241     0.090684628  
    764000   0.051314732   -0.22883807     0             -0.1865203      0.026460007  
    764500   0.057338061   -0.22579087     0             -0.17850583     0.20512891   
    765000   0.059550116   -0.22540931     0             -0.17630006    -0.76353699   
    765500   0.047515797   -0.22781305     0             -0.18862814     0.049613223  
    766000   0.052705107   -0.2281363      0             -0.18467193    -0.4226044    
    766500   0.044379353   -0.22989207     0             -0.1932937     -0.025147929  
    767000   0.041857802   -0.230262       0             -0.19574308    -0.18986546   
    767500   0.046713677   -0.22933069     0             -0.19080727     0.13706795   
    768000   0.040984928   -0.23014358     0             -0.1963445      0.048434956  
    768500   0.042558441   -0.23105107     0             -0.19595435    -0.49619297   
    769000   0.055511474   -0.23102956     0             -0.18525085     0.6497062    
    769500   0.051261888   -0.23176886     0             -0.18949467     0.31533358   
    770000   0.043424433   -0.23151837     0             -0.1957075      0.19216686   
    770500   0.0400946     -0.2332095      0             -0.20014464    -0.11462217   
    771000   0.040424995   -0.23239697     0             -0.19905965    -0.025404689  
    771500   0.039841319   -0.23383818     0             -0.2009822     -0.32071126   
    772000   0.036719493   -0.23362972     0             -0.20334821     0.098862319  
    772500   0.037077751   -0.235548       0             -0.20497106    -0.42337506   
    773000   0.038915611   -0.23733997     0             -0.2052474      0.35631611   
    773500   0.038263881   -0.23882093     0             -0.20726582    -0.53427939   
    774000   0.036238384   -0.23843791     0             -0.20855317    -0.16356106   
    774500   0.036324301   -0.23877644     0             -0.20882084    -0.099996004  
    775000   0.035889651   -0.23861474     0             -0.20901758     0.034383178  
    775500   0.038685203   -0.23827579     0             -0.20637322     0.014753896  
    776000   0.037309245   -0.23932484     0             -0.20855699    -0.39960727   
    776500   0.040464841   -0.23913762     0             -0.20576744    -0.13157617   
    777000   0.041973813   -0.23860523     0             -0.20399064    -0.54815513   
    777500   0.039927859   -0.23968041     0             -0.20675306    -0.20588698   
    778000   0.038784219   -0.24183192     0             -0.2098477      0.20920979   
    778500   0.038523704   -0.24179415     0             -0.21002477    -0.2201078    
    779000   0.040046908   -0.24167563     0             -0.20865011    -0.28750241   
    779500   0.046371287   -0.24024454     0             -0.20200348    -0.30861818   
    780000   0.059401851   -0.23817509     0             -0.18918811     0.23135559   
    780500   0.068972797   -0.23113948     0             -0.17425961     0.15750567   
    781000   0.061389447   -0.23337321     0             -0.18274711     0.10346998   
    781500   0.057590025   -0.23116816     0             -0.18367533    -0.27980546   
    782000   0.059097939   -0.23207698     0             -0.18334062     0.21522344   
    782500   0.058540268   -0.2286507      0             -0.18037423     0.22690204   
    783000   0.053440399   -0.2307476      0             -0.18667685     0.17823572   
    783500   0.050294663   -0.22864013     0             -0.18716358     0.16477654   
    784000   0.052067155   -0.22864578     0             -0.1857075     -0.46198024   
    784500   0.042806304   -0.229146       0             -0.19384488     0.24880949   
    785000   0.041199579   -0.23055464     0             -0.19657854     0.33568825   
    785500   0.043223674   -0.23115534     0             -0.19551003    -0.4133482    
    786000   0.03891054    -0.23225308     0             -0.20016468    -0.15476853   
    786500   0.040157775   -0.23280591     0             -0.19968896    -0.00068509133
    787000   0.0381988     -0.23528584     0             -0.20378439     0.035366014  
    787500   0.039159916   -0.23616588     0             -0.20387183     0.55395867   
    788000   0.040764479   -0.23530125     0             -0.20168397    -0.021258904  
    788500   0.051783832   -0.23487434     0             -0.19216971    -0.50910471   
    789000   0.048587408   -0.23406194     0             -0.19399332    -0.37266826   
    789500   0.043005959   -0.23408461     0             -0.19861884    -0.25735116   
    790000   0.04374509    -0.23415396     0             -0.19807865    -0.29219604   
    790500   0.049322154   -0.23338036     0             -0.19270581    -0.054470048  
    791000   0.042246006   -0.23365247     0             -0.19881341    -0.26801027   
    791500   0.039430337   -0.23448973     0             -0.20197267     0.23705975   
    792000   0.045023864   -0.23128023     0             -0.19415036     0.06432264   
    792500   0.057063942   -0.23131577     0             -0.18425679     0.36067885   
    793000   0.047407408   -0.23085119     0             -0.19175567    -0.38277677   
    793500   0.043752188   -0.23035524     0             -0.19427407    -0.29525482   
    794000   0.041720169   -0.2313431      0             -0.19693768     0.26468235   
    794500   0.041457967   -0.23308055     0             -0.19889137     0.34087827   
    795000   0.043256606   -0.23616132     0             -0.20048885    -0.033380499  
    795500   0.04110968    -0.23589177     0             -0.20198981    -0.32824046   
    796000   0.039254078   -0.23539269     0             -0.20302099     0.31156079   
    796500   0.045747426   -0.23640029     0             -0.19867371    -0.21548817   
    797000   0.04559955    -0.23399016     0             -0.19638554     0.41646572   
    797500   0.041106256   -0.23492961     0             -0.20103047    -0.32750807   
    798000   0.042510314   -0.23465555     0             -0.19959852    -0.3859731    
    798500   0.051578321   -0.2326564      0             -0.19012125    -0.24492691   
    799000   0.060775418   -0.23311345     0             -0.18299372     0.0064284767 
    799500   0.047879945   -0.2311256      0             -0.1916404     -0.24481822   
    800000   0.052095713   -0.23309182     0             -0.19012999     0.085436648  
    800500   0.044102272   -0.23474776     0             -0.19837789    -0.064865827  
    801000   0.063145985   -0.23187993     0             -0.17980526    -0.23010203   
    801500   0.048916774   -0.23083369     0             -0.19049344    -0.33978922   
    802000   0.060072118   -0.23198972     0             -0.18244998     0.2727018    
    802500   0.059027144   -0.22872946     0             -0.18005148    -0.032322697  
    803000   0.060815468   -0.22862713     0             -0.17847437     0.15012811   
    803500   0.049472521   -0.22916801     0             -0.18836945     0.25676802   
    804000   0.046011371   -0.22987942     0             -0.19193518    -0.34255789   
    804500   0.060508876   -0.22896793     0             -0.17906801     0.1541298    
    805000   0.05450071    -0.2280026      0             -0.18305744     0.21061152   
    805500   0.053435544   -0.22670639     0             -0.18263964    -0.3905476    
    806000   0.065841952   -0.22690985     0             -0.1726119     -0.33598638   
    806500   0.048735467   -0.22826948     0             -0.18807875     0.29123094   
    807000   0.055253219   -0.22759872     0             -0.18203299     0.081186526  
    807500   0.054075418   -0.22439954     0             -0.1798051      0.10401143   
    808000   0.04657392    -0.22387449     0             -0.18546633    -0.52799613   
    808500   0.040944337   -0.2266086      0             -0.19284299     0.14545468   
    809000   0.05203416    -0.22499141     0             -0.18208035     0.21038325   
    809500   0.055603321   -0.22414521     0             -0.17829076     0.19577169   
    810000   0.047242001   -0.22364562     0             -0.18468651     0.36807563   
    810500   0.042304053   -0.22704107     0             -0.19215414    -0.14066325   
    811000   0.050933283   -0.22717066     0             -0.18516746     0.076369152  
    811500   0.044832546   -0.22610854     0             -0.18913643     0.065672626  
    812000   0.047642404   -0.22574995     0             -0.18646063     0.071371729  
    812500   0.043350902   -0.22673159     0             -0.19098135    -0.37023559   
    813000   0.052677827   -0.22583257     0             -0.18239069     0.20083266   
    813500   0.045695012   -0.22507803     0             -0.18739468    -0.03835815   
    814000   0.052096651   -0.22607879     0             -0.18311619    -0.14743832   
    814500   0.048758989   -0.22442407     0             -0.18421395    -0.29283245   
    815000   0.044556746   -0.22626595     0             -0.18952129     0.12126733   
    815500   0.04639242    -0.22595251     0             -0.18769402    -0.11596306   
    816000   0.042595986   -0.22635255     0             -0.19122488    -0.26790373   
    816500   0.042232137   -0.22842843     0             -0.19360081    -0.30617256   
    817000   0.054796645   -0.22577713     0             -0.18058793    -0.16144966   
    817500   0.046761658   -0.2274553      0             -0.18889232     0.11253745   
    818000   0.061571046   -0.22722289     0             -0.17644703     0.33754225   
    818500   0.060502538   -0.22486562     0             -0.17497093     0.10217888   
    819000   0.048672499   -0.22528177     0             -0.18514297    -0.13008419   
    819500   0.0566456     -0.22625608     0             -0.17954209    -0.58179316   
    820000   0.068470687   -0.22234568     0             -0.16587988     0.14408298   
    820500   0.05425793    -0.22470258     0             -0.17995763     0.10120607   
    821000   0.044568661   -0.22614774     0             -0.18939325    -0.17720928   
    821500   0.046119016   -0.22526299     0             -0.18722997    -0.48494847   
    822000   0.052803709   -0.22338986     0             -0.17984417     0.029668649  
    822500   0.058624672   -0.22211503     0             -0.17376896    -0.0024796644 
    823000   0.04742432    -0.22165626     0             -0.18254679    -0.19541709   
    823500   0.064525268   -0.2177731      0             -0.16456098     0.095283433  
    824000   0.054387986   -0.21809202     0             -0.17323982    -0.34531087   
    824500   0.047539681   -0.22124288     0             -0.18203828     0.071459143  
    825000   0.061658761   -0.22064442     0             -0.16979622     0.18946099   
    825500   0.04528697    -0.22225768     0             -0.18491083    -0.036770917  
    826000   0.054769532   -0.22081227     0             -0.17564542    -0.054448856  
    826500   0.045025868   -0.21946098     0             -0.18232945    -0.051396544  
    827000   0.050587283   -0.22325573     0             -0.18153787    -0.053844664  
    827500   0.043834548   -0.22495937     0             -0.18881029     0.21946325   
    828000   0.050524138   -0.22341961     0             -0.18175381     0.44631733   
    828500   0.057830096   -0.22385614     0             -0.17616533    -0.138231     
    829000   0.069072925   -0.2205394      0             -0.16357696    -0.18957378   
    829500   0.06308592    -0.21828745     0             -0.16626231     0.16460411   
    830000   0.048613662   -0.21685322     0             -0.17676294     0.097757498  
    830500   0.057143221   -0.21622127     0             -0.16909691     0.018161256  
    831000   0.061629796   -0.21894965     0             -0.16812534     0.02552731   
    831500   0.064706781   -0.2171575      0             -0.16379569    -0.18280659   
    832000   0.049955214   -0.21821532     0             -0.1770187     -0.24433224   
    832500   0.062201317   -0.21975234     0             -0.16845672     0.24550701   
    833000   0.073079607   -0.21982363     0             -0.15955699    -0.0037988667 
    833500   0.059478879   -0.2186624      0             -0.16961189     0.39709895   
    834000   0.054025739   -0.21850834     0             -0.17395488     0.071056886  
    834500   0.044965994   -0.22052569     0             -0.18344353     0.20072785   
    835000   0.046934894   -0.22189058     0             -0.18318473    -0.4622697    
    835500   0.043885933   -0.22552004     0             -0.18932858    -0.092577303  
    836000   0.053803513   -0.22494649     0             -0.1805763      0.27458546   
    836500   0.060161536   -0.22277071     0             -0.17315723    -0.058855725  
    837000   0.047560312   -0.22411112     0             -0.1848895      0.52901943   
    837500   0.043121276   -0.22430979     0             -0.18874892    -0.12256808   
    838000   0.050521653   -0.2229217      0             -0.18125795     0.33163356   
    838500   0.042808281   -0.22400207     0             -0.18869932    -0.041868853  
    839000   0.039758951   -0.22657126     0             -0.1937832      0.0099907501 
    839500   0.040463299   -0.22851824     0             -0.19514933    -0.52118915   
    840000   0.052492223   -0.23013305     0             -0.18684423     0.39920429   
    840500   0.042846055   -0.22940554     0             -0.19407164     0.16392445   
    841000   0.046477005   -0.22885011     0             -0.19052187     0.072342897  
    841500   0.040150483   -0.22887672     0             -0.19576578    -0.15540233   
    842000   0.056019408   -0.22914573     0             -0.18294815     0.54965822   
    842500   0.045610133   -0.22879616     0             -0.1911828      0.42310353   
    843000   0.049928166   -0.22995388     0             -0.18877957    -0.087661266  
    843500   0.044671371   -0.22865251     0             -0.19181332    -0.20325518   
    844000   0.048600019   -0.22841746     0             -0.18833843     0.31130675   
    844500   0.059570363   -0.22593212     0             -0.17680617    -0.0041026845 
    845000   0.054586364   -0.22851045     0             -0.18349465     0.016476674  
    845500   0.052703768   -0.22951563     0             -0.18605236     0.0040647115 
    846000   0.057570326   -0.22719414     0             -0.17971756     0.28707211   
    846500   0.048321084   -0.22741672     0             -0.18756772     0.18702066   
    847000   0.054872352   -0.22701182     0             -0.18176018     0.027074966  
    847500   0.05919433    -0.22787112     0             -0.17905527     0.019704979  
    848000   0.049065611   -0.22831546     0             -0.18785248     0.038199923  
    848500   0.055881764   -0.22432134     0             -0.17823727    -0.085023627  
    849000   0.046894529   -0.22656172     0             -0.18788916     0.052272699  
    849500   0.04440563    -0.22675058     0             -0.19013055    -0.26067701   
    850000   0.047504997   -0.22622209     0             -0.1870461      0.071775635  
    850500   0.046388198   -0.22798865     0             -0.18973365    -0.19234052   
    851000   0.054497871   -0.22698158     0             -0.18203877     0.023707403  
    851500   0.059095104   -0.2252205      0             -0.17648648     0.26758635   
    852000   0.050054537   -0.22776018     0             -0.18648165     0.26405216   
    852500   0.044897873   -0.22976793     0             -0.19274195     0.52887442   
    853000   0.043619262   -0.23022631     0             -0.19425477     0.14185997   
    853500   0.042021227   -0.23095457     0             -0.19630088    -0.13214907   
    854000   0.050115519   -0.22870624     0             -0.18737742     0.15834689   
    854500   0.053972881   -0.2310838      0             -0.18657392     0.021133504  
    855000   0.047774879   -0.22990235     0             -0.19050379    -0.0037446628 
    855500   0.075495681   -0.22590341     0             -0.16364431     0.015826195  
    856000   0.053922289   -0.22808718     0             -0.18361903    -0.078203948  
    856500   0.061952293   -0.22315234     0             -0.17206208    -0.1453268    
    857000   0.048779226   -0.2264368      0             -0.18620998    -0.23495416   
    857500   0.050321181   -0.22449081     0             -0.18299239    -0.24544842   
    858000   0.047225803   -0.22340477     0             -0.18445902    -0.21524008   
    858500   0.047171371   -0.22450614     0             -0.18560527    -0.16697353   
    859000   0.045119759   -0.22454897     0             -0.18734001    -0.17832172   
    859500   0.040571693   -0.22335419     0             -0.18989589     0.078269123  
    860000   0.0482724     -0.22146655     0             -0.1816577     -0.18033199   
    860500   0.054052813   -0.2224232      0             -0.17784741    -0.089345347  
    861000   0.050868492   -0.22258042     0             -0.18063065     0.25738874   
    861500   0.048769671   -0.22325231     0             -0.18303337    -0.41101584   
    862000   0.048558217   -0.22388581     0             -0.18384126     0.20837728   
    862500   0.083593327   -0.22000177     0             -0.15106477    -0.22933182   
    863000   0.064552619   -0.22134598     0             -0.1681113     -0.365873     
    863500   0.054861027   -0.21922078     0             -0.17397848     0.31894378   
    864000   0.046628023   -0.22383683     0             -0.18538405     0.65743337   
    864500   0.045401916   -0.22294992     0             -0.18550827     0.29241956   
    865000   0.044143458   -0.22383944     0             -0.18743561    -0.12937305   
    865500   0.040953351   -0.22477827     0             -0.19100523     0.05756452   
    866000   0.044667562   -0.22380184     0             -0.18696579     0.33651413   
    866500   0.05455233    -0.227064       0             -0.18207628     0.13266272   
    867000   0.056565047   -0.22344448     0             -0.17679693     0.39017463   
    867500   0.049956618   -0.2261894      0             -0.18499162    -0.3641417    
    868000   0.068813953   -0.22142883     0             -0.16467996     0.33506025   
    868500   0.057596807   -0.22393117     0             -0.17643275     0.16132145   
    869000   0.067935314   -0.22058205     0             -0.16455776    -0.26514368   
    869500   0.077533494   -0.22109446     0             -0.15715483     0.1869868    
    870000   0.0646662     -0.22160297     0             -0.16827463    -0.078281145  
    870500   0.051635125   -0.22253541     0             -0.17995342    -0.010703145  
    871000   0.047727484   -0.22341539     0             -0.18405592     0.066372954  
    871500   0.091975616   -0.21948308     0             -0.14363345    -0.03452911   
    872000   0.060770798   -0.22041407     0             -0.17029816    -0.2752833    
    872500   0.057440496   -0.22301423     0             -0.17564472    -0.13866171   
    873000   0.055183662   -0.22458327     0             -0.1790749      0.041837673  
    873500   0.06934528    -0.2212756      0             -0.16408855    -0.22827859   
    874000   0.057222139   -0.21918125     0             -0.17199181    -0.065084457  
    874500   0.051369479   -0.21924575     0             -0.17688282    -0.23034678   
    875000   0.045289679   -0.22208202     0             -0.18473294    -0.2828798    
    875500   0.042627412   -0.22175501     0             -0.18660142    -0.5179013    
    876000   0.041863171   -0.22330619     0             -0.18878284     0.025535683  
    876500   0.052053134   -0.22244834     0             -0.17952163    -0.078643034  
    877000   0.055645344   -0.22298873     0             -0.17709963    -0.0059051641 
    877500   0.04821498    -0.22383418     0             -0.18407268     0.11013427   
    878000   0.043893192   -0.22538958     0             -0.18919214     0.089311695  
    878500   0.053911272   -0.22142417     0             -0.1769651      0.065585669  
    879000   0.052840654   -0.22328875     0             -0.17971259     0.48438985   
    879500   0.04721343    -0.22709945     0             -0.1881639      0.17389565   
    880000   0.044372797   -0.22561848     0             -0.18902552     0.11944979   
    880500   0.04398841    -0.22692598     0             -0.19065001     0.023604388  
    881000   0.051597233   -0.22676295     0             -0.1842122      0.028691446  
    881500   0.050569957   -0.2307691      0             -0.18906552    -0.26859301   
    882000   0.055431973   -0.22916597     0             -0.18345283    -0.035510711  
    882500   0.050788005   -0.2284954      0             -0.186612       0.2371394    
    883000   0.04511801    -0.22728756     0             -0.19008004    -0.5392134    
    883500   0.043699086   -0.22950676     0             -0.19346938    -0.35409652   
    884000   0.051638856   -0.229737       0             -0.18715193    -0.0061072538 
    884500   0.052022498   -0.22714951     0             -0.18424806     0.10500019   
    885000   0.06249466    -0.22501603     0             -0.17347849    -0.017271855  
    885500   0.059981285   -0.22516099     0             -0.17569616     0.085009362  
    886000   0.079481423   -0.21991595     0             -0.15436992     0.22470341   
    886500   0.064339398   -0.22173383     0             -0.16867499     0.39813893   
    887000   0.057040296   -0.22556447     0             -0.17852499     0.29477081   
    887500   0.052258129   -0.22498379     0             -0.18188802    -0.15013638   
    888000   0.046415346   -0.22748884     0             -0.18921145    -0.059386088  
    888500   0.069686922   -0.22262688     0             -0.1651581     -0.18531247   
    889000   0.070511672   -0.22206581     0             -0.16391687     0.20778858   
    889500   0.059998744   -0.22494589     0             -0.17546667     0.28958407   
    890000   0.062099644   -0.22138642     0             -0.17017464    -0.095997747  
    890500   0.083276102   -0.22119989     0             -0.1525245     -0.27207324   
    891000   0.07479128    -0.21995182     0             -0.15827362    -0.15501637   
    891500   0.07130864    -0.21599298     0             -0.15718681     0.30885919   
    892000   0.063456614   -0.2173833      0             -0.16505247     0.015729494  
    892500   0.06111257    -0.21675872     0             -0.16636096     0.16664618   
    893000   0.060840607   -0.21722986     0             -0.16705637    -0.076739841  
    893500   0.056188129   -0.21734471     0             -0.17100799     0.37370219   
    894000   0.050184931   -0.21550009     0             -0.17411403     0.20265884   
    894500   0.052034441   -0.21493783     0             -0.17202654    -0.15227077   
    895000   0.051748467   -0.21715026     0             -0.1744748      0.38197856   
    895500   0.050009664   -0.21602915     0             -0.17478763     0.066820666  
    896000   0.073281584   -0.21295848     0             -0.15252528     0.28731738   
    896500   0.075063184   -0.21233649     0             -0.15043405     0.014006737  
    897000   0.067101197   -0.21257834     0             -0.15724193    -0.071460541  
    897500   0.061815717   -0.21306231     0             -0.16208468     0.14437088   
    898000   0.061630414   -0.21241991     0             -0.16159509     0.24720423   
    898500   0.054278676   -0.21400066     0             -0.16923861    -0.57569212   
    899000   0.070654783   -0.21115834     0             -0.15289139     0.1268665    
    899500   0.059207672   -0.21142361     0             -0.16259676     0.20038073   
    900000   0.054323231   -0.21356413     0             -0.16876533     0.026631523  
    900500   0.047747379   -0.21512459     0             -0.17574871     0.041456696  
    901000   0.046622836   -0.21434985     0             -0.17590134     0.091966943  
    901500   0.044993052   -0.21620605     0             -0.17910158    -0.10059085   
    902000   0.064995971   -0.2131002      0             -0.1594999      0.23553163   
    902500   0.05971797    -0.21406689     0             -0.1648192     -0.10096324   
    903000   0.058816351   -0.21626256     0             -0.16775842    -0.2012468    
    903500   0.053178369   -0.21937139     0             -0.17551673    -0.049599151  
    904000   0.051786599   -0.21855482     0             -0.17584791    -0.4307328    
    904500   0.047959473   -0.21922319     0             -0.1796724     -0.057742566  
    905000   0.050195823   -0.21906542     0             -0.17767037     0.16595763   
    905500   0.049654802   -0.22130652     0             -0.18035765    -0.1957491    
    906000   0.056975823   -0.2209546      0             -0.17396829     0.32699611   
    906500   0.047628399   -0.22043023     0             -0.18115247    -0.45766917   
    907000   0.044266303   -0.22089939     0             -0.18439425    -0.37741729   
    907500   0.04637599    -0.22217058     0             -0.18392564    -0.29047228   
    908000   0.051769332   -0.22283267     0             -0.18014       -0.051349451  
    908500   0.059097003   -0.22083485     0             -0.17209926     0.087449602  
    909000   0.061081477   -0.21958451     0             -0.16921239     0.24284031   
    909500   0.067366281   -0.21982689     0             -0.16427186     0.061648399  
    910000   0.052713096   -0.21992534     0             -0.17645438    -0.22420576   
    910500   0.045975489   -0.22034607     0             -0.18243142     0.42126976   
    911000   0.045981128   -0.2211768      0             -0.1832575      0.19628891   
    911500   0.067945148   -0.21866704     0             -0.16263464    -0.2223442    
    912000   0.053266799   -0.21713317     0             -0.17320558    -0.15244252   
    912500   0.046623095   -0.21785557     0             -0.17940686     0.45513692   
    913000   0.044318969   -0.21877724     0             -0.18222867    -0.22209955   
    913500   0.046646263   -0.21889892     0             -0.18043109    -0.25776948   
    914000   0.05878213    -0.22003953     0             -0.17156361     0.26355732   
    914500   0.048772817   -0.22075842     0             -0.18053689     0.15831387   
    915000   0.04598936    -0.22083793     0             -0.18291184    -0.31129162   
    915500   0.054225154   -0.22087254     0             -0.17615462    -0.030827606  
    916000   0.049733109   -0.22240033     0             -0.18138687    -0.16988354   
    916500   0.058029434   -0.22006575     0             -0.17221055     0.056059786  
    917000   0.069289424   -0.22055498     0             -0.163414      -0.19713497   
    917500   0.059901609   -0.2229024      0             -0.17350328     0.02201482   
    918000   0.059867949   -0.21624081     0             -0.16686944     0.11966857   
    918500   0.087395946   -0.21777049     0             -0.14569758     0.28377523   
    919000   0.10923553    -0.21192422     0             -0.12184084    -0.080494978  
    919500   0.080094697   -0.21246886     0             -0.14641708     0.21745407   
    920000   0.057843132   -0.21524009     0             -0.16753854    -0.057746869  
    920500   0.051363405   -0.21639475     0             -0.17403684    -0.14029269   
    921000   0.057007901   -0.21760118     0             -0.17058841     0.1762555    
    921500   0.069813967   -0.21561549     0             -0.15804193     0.30812809   
    922000   0.070933331   -0.21447591     0             -0.15597924     0.29290364   
    922500   0.0593193     -0.21790962     0             -0.16899071     0.25465853   
    923000   0.05362397    -0.21703453     0             -0.17281239    -0.30459721   
    923500   0.070232787   -0.21575044     0             -0.15783149    -0.38044744   
    924000   0.063483039   -0.2175087      0             -0.16515608     0.33672799   
    924500   0.065365583   -0.21834935     0             -0.16444425     0.0024817961 
    925000   0.05572525    -0.21908317     0             -0.17312817     0.32960296   
    925500   0.061368239   -0.21796005     0             -0.16735144     0.15660882   
    926000   0.068543084   -0.2176522      0             -0.1611267      0.074446601  
    926500   0.060669192   -0.21947391     0             -0.16944179    -0.034958508  
    927000   0.052189106   -0.22134187     0             -0.17830303    -0.34256253   
    927500   0.052522917   -0.22172139     0             -0.17840726    -0.024222943  
    928000   0.051522742   -0.22377779     0             -0.18128847    -0.017100766  
    928500   0.060563764   -0.22330185     0             -0.17335667    -0.26864842   
    929000   0.063747369   -0.22109922     0             -0.16852861    -0.11318135   
    929500   0.054571102   -0.22281421     0             -0.177811       0.32227183   
    930000   0.067050863   -0.22150227     0             -0.16620736    -0.045578935  
    930500   0.056346769   -0.22063869     0             -0.17417114    -0.15098469   
    931000   0.060068701   -0.22115216     0             -0.17161524    -0.079262291  
    931500   0.056327989   -0.22066089     0             -0.17420883     0.33721964   
    932000   0.050540877   -0.22346392     0             -0.18178433    -0.33635266   
    932500   0.061439592   -0.22256189     0             -0.17189444    -0.06955659   
    933000   0.050638366   -0.22120141     0             -0.17944141     0.30360092   
    933500   0.055764332   -0.22103191     0             -0.17504468    -0.40416287   
    934000   0.049713632   -0.22301511     0             -0.18201772    -0.25772193   
    934500   0.054823347   -0.22030661     0             -0.17509538     0.30735776   
    935000   0.04821771    -0.22357827     0             -0.18381452    -0.33883427   
    935500   0.048491019   -0.22477365     0             -0.18478451     0.043228153  
    936000   0.048071554   -0.22519662     0             -0.18555341     0.46888725   
    936500   0.063992692   -0.2245361      0             -0.17176318    -0.081167119  
    937000   0.05304026    -0.22526817     0             -0.1815274     -0.4338531    
    937500   0.048633396   -0.22486093     0             -0.18475438     0.19156726   
    938000   0.050765255   -0.22663119     0             -0.18476656    -0.053503385  
    938500   0.063415999   -0.22319915     0             -0.17090181    -0.2994696    
    939000   0.063398878   -0.22018309     0             -0.16789987    -0.4189122    
    939500   0.062516401   -0.22028961     0             -0.16873415    -0.418257     
    940000   0.063162398   -0.22090583     0             -0.16881762     0.03338191   
    940500   0.059765408   -0.22284297     0             -0.17355616    -0.21402344   
    941000   0.069882279   -0.22025993     0             -0.16263004    -0.06920216   
    941500   0.055040983   -0.22275827     0             -0.17736756     0.083399348  
    942000   0.068881384   -0.21858172     0             -0.16177724    -0.24146213   
    942500   0.062254062   -0.21982698     0             -0.16848786     0.042193522  
    943000   0.06325306    -0.21689147     0             -0.1647285     -0.18293385   
    943500   0.059420042   -0.21720692     0             -0.16820493    -0.39489253   
    944000   0.053462012   -0.21903905     0             -0.17495047    -0.32997497   
    944500   0.053611191   -0.21738943     0             -0.17317783     0.14043273   
    945000   0.067488143   -0.21680047     0             -0.16114495     0.20655232   
    945500   0.069896035   -0.21676549     0             -0.15912425    -0.0038337213 
    946000   0.063522079   -0.21729452     0             -0.1649097      0.040193174  
    946500   0.056095254   -0.2148098      0             -0.16854967     0.17282053   
    947000   0.051570776   -0.21730288     0             -0.17477395     0.48113577   
    947500   0.051776997   -0.21629882     0             -0.17359983     0.36343148   
    948000   0.049599912   -0.21835131     0             -0.1774477     -0.18546449   
    948500   0.050180237   -0.21732891     0             -0.17594672     0.15750251   
    949000   0.063120318   -0.21572958     0             -0.16367608     0.012776517  
    949500   0.057836948   -0.21654525     0             -0.16884879     0.069929055  
    950000   0.053294632   -0.21607414     0             -0.1721236     -0.022162435  
    950500   0.052304312   -0.21644684     0             -0.17331299     0.075378608  
    951000   0.053194559   -0.2169775      0             -0.17310949    -0.38872774   
    951500   0.050194794   -0.21640683     0             -0.17501264    -0.13312024   
    952000   0.070750562   -0.215197       0             -0.15685106     0.19145872   
    952500   0.059621143   -0.21281846     0             -0.16365063    -0.10094011   
    953000   0.055521813   -0.21552029     0             -0.16973305    -0.00067298395
    953500   0.071060185   -0.21275242     0             -0.15415115    -0.11549444   
    954000   0.057523485   -0.21173668     0             -0.16429873    -0.022743459  
    954500   0.05194062    -0.21464742     0             -0.1718135      0.092112093  
    955000   0.051224005   -0.21384055     0             -0.1715976     -0.524927     
    955500   0.063506077   -0.21330841     0             -0.16093679    -0.44684228   
    956000   0.068170629   -0.21126977     0             -0.15505142     0.10795522   
    956500   0.069129504   -0.2093434      0             -0.1523343      0.41969421   
    957000   0.059437671   -0.2083424      0             -0.15932587    -0.21040028   
    957500   0.054422284   -0.21236636     0             -0.16748587    -0.21701109   
    958000   0.0599755     -0.21068072     0             -0.16122066     0.72854273   
    958500   0.065628314   -0.21143549     0             -0.15731372     0.19968101   
    959000   0.056234716   -0.21099713     0             -0.16462198    -0.083713393  
    959500   0.066635158   -0.21308962     0             -0.15813753     0.18440592   
    960000   0.060173473   -0.20944213     0             -0.15981881     0.18400049   
    960500   0.055035471   -0.20924647     0             -0.16386031    -0.04799662   
    961000   0.067452748   -0.20967727     0             -0.15405094    -0.49919721   
    961500   0.052584752   -0.21175757     0             -0.16839245     0.3405102    
    962000   0.067282207   -0.20929211     0             -0.15380643     0.023286243  
    962500   0.059861216   -0.20955692     0             -0.16019111    -0.77683841   
    963000   0.051844438   -0.21276639     0             -0.17001178    -0.13134822   
    963500   0.05294505    -0.21123716     0             -0.16757491     0.18463205   
    964000   0.070121276   -0.21071534     0             -0.15288836    -0.013722688  
    964500   0.068606268   -0.21069755     0             -0.15411995    -0.03605501   
    965000   0.056824518   -0.21113394     0             -0.16427241    -0.11260795   
    965500   0.054180631   -0.21303246     0             -0.16835127     0.018097819  
    966000   0.051241528   -0.21428884     0             -0.17203143     0.54370322   
    966500   0.06677851    -0.21311804     0             -0.15804774     0.076977944  
    967000   0.072706405   -0.21128268     0             -0.15132381    -0.38023577   
    967500   0.072955777   -0.21084482     0             -0.15068031    -0.18434056   
    968000   0.062618507   -0.20987131     0             -0.15823164     0.1349997    
    968500   0.065396402   -0.20989383     0             -0.15596331     0.076845598  
    969000   0.058892097   -0.21094348     0             -0.16237687    -0.12660092   
    969500   0.05564066    -0.21003641     0             -0.16415117    -0.025477412  
    970000   0.049392354   -0.21041318     0             -0.16968074     0.32828542   
    970500   0.04871066    -0.21263764     0             -0.17246737     0.062083346  
    971000   0.051280567   -0.21485132     0             -0.17256172    -0.12013006   
    971500   0.049732776   -0.21493831     0             -0.17392513    -0.12337883   
    972000   0.050528203   -0.21289689     0             -0.17122774    -0.4466211    
    972500   0.070480851   -0.21409924     0             -0.15597572    -0.43090475   
    973000   0.069127218   -0.21177848     0             -0.15477126     0.28764546   
    973500   0.054960992   -0.21427416     0             -0.16894942     0.1188926    
    974000   0.056249066   -0.21271358     0             -0.1663266     -0.099563256  
    974500   0.058676542   -0.21224562     0             -0.16385677    -0.056797445  
    975000   0.060270089   -0.21424427     0             -0.16454127    -0.18343416   
    975500   0.057653874   -0.21521104     0             -0.16766556    -0.0015860885 
    976000   0.053054825   -0.21706953     0             -0.17331675     0.25700731   
    976500   0.054924574   -0.21393678     0             -0.16864208     0.47412554   
    977000   0.063885857   -0.21366661     0             -0.1609818      0.0032104906 
    977500   0.069114275   -0.21301839     0             -0.15602185     0.14534497   
    978000   0.071028465   -0.21311992     0             -0.1545448      0.26424696   
    978500   0.061492026   -0.21481442     0             -0.16410373     0.086741444  
    979000   0.058785807   -0.21472764     0             -0.16624868     0.38592048   
    979500   0.071422502   -0.20943001     0             -0.15052994    -0.131976     
    980000   0.066272214   -0.21024171     0             -0.15558894     0.079323411  
    980500   0.058777251   -0.20758931     0             -0.15911741    -0.84263606   
    981000   0.058980911   -0.21057783     0             -0.16193798    -0.25098344   
    981500   0.056411789   -0.20806518     0             -0.16154401    -0.35792983   
    982000   0.057880347   -0.20753435     0             -0.1598021      0.30506385   
    982500   0.067862213   -0.20737668     0             -0.15141268    -0.1099935    
    983000   0.07456271    -0.2084325      0             -0.14694279    -0.23457021   
    983500   0.057581281   -0.20982391     0             -0.1623383     -0.22397901   
    984000   0.062655668   -0.20806747     0             -0.15639715     0.32338633   
    984500   0.063246919   -0.20927734     0             -0.15711943     0.39246306   
    985000   0.053628724   -0.2095499      0             -0.16532384     0.41455111   
    985500   0.052642987   -0.21153451     0             -0.16812136    -0.66386466   
    986000   0.059721247   -0.21079429     0             -0.1615439      0.22918693   
    986500   0.053054042   -0.21285236     0             -0.16910022    -0.048587283  
    987000   0.059841076   -0.21361203     0             -0.16426283    -0.67606015   
    987500   0.064720595   -0.21485941     0             -0.16148621    -0.33258723   
    988000   0.056321563   -0.2097963      0             -0.16334954     0.2876213    
    988500   0.080107781   -0.20797361     0             -0.14191104    -0.26216384   
    989000   0.078137077   -0.20781042     0             -0.14337303     0.1581295    
    989500   0.063161379   -0.20791719     0             -0.15582983    -0.019405167  
    990000   0.060426685   -0.20902179     0             -0.15918965     0.57971069   
    990500   0.052447455   -0.21076108     0             -0.16750918     0.21144248   
    991000   0.050093402   -0.21331402     0             -0.17200344     0.027277923  
    991500   0.07045483    -0.21129095     0             -0.1531889      0.10426173   
    992000   0.07019052    -0.21384789     0             -0.1559638     -0.42170746   
    992500   0.054902945   -0.21322771     0             -0.16795084     0.21487235   
    993000   0.058505895   -0.21231247     0             -0.16406435     0.087278869  
    993500   0.062131021   -0.21255274     0             -0.16131509    -0.38964483   
    994000   0.054084937   -0.21615532     0             -0.17155304     0.36673303   
    994500   0.070312134   -0.21172406     0             -0.15373968     0.22418157   
    995000   0.060691713   -0.21478186     0             -0.16473116    -0.10367413   
    995500   0.066208316   -0.21382477     0             -0.15922469    -0.0060300904 
    996000   0.054939565   -0.21280786     0             -0.16750079    -0.38229257   
    996500   0.051795787   -0.21737981     0             -0.17466532    -0.31704186   
    997000   0.05712628    -0.21738815     0             -0.17027776    -0.23057891   
    997500   0.05167336    -0.21768469     0             -0.17507116     0.16689889   
    998000   0.058890488   -0.21880555     0             -0.17024027     0.1599792    
    998500   0.057175259   -0.21944035     0             -0.17228957     0.028138635  
    999000   0.053918085   -0.21984012     0             -0.17537543    -0.23668424   
    999500   0.065306513   -0.21491121     0             -0.16105482    -0.150168     
   1000000   0.056378501   -0.21953959     0             -0.17304587     0.18920911   
   1000001   0.05665133    -0.21953522     0             -0.1728165     -0.48701856   
Loop time of 480.816 on 4 procs for 1000000 steps with 1520 atoms

Performance: 179694.353 tau/day, 2079.796 timesteps/s, 3.161 Matom-step/s
91.4% CPU use with 4 MPI tasks x 1 OpenMP threads

MPI task timing breakdown:
Section |  min time  |  avg time  |  max time  |%varavg| %total
---------------------------------------------------------------
Pair    | 74.183     | 76.357     | 78.822     |  19.7 | 15.88
Bond    | 0.18766    | 0.20572    | 0.21839    |   2.6 |  0.04
Neigh   | 7.7779     | 7.7897     | 7.8001     |   0.3 |  1.62
Comm    | 54.477     | 57.092     | 59.317     |  23.4 | 11.87
Output  | 1.8467     | 1.8992     | 1.9502     |   2.8 |  0.39
Modify  | 322.46     | 322.85     | 323.24     |   1.7 | 67.15
Other   |            | 14.62      |            |       |  3.04

Nlocal:            380 ave         435 max         330 min
Histogram: 1 0 0 1 0 1 0 0 0 1
Nghost:            971 ave        1022 max         923 min
Histogram: 2 0 0 0 0 0 0 0 0 2
Neighs:              0 ave           0 max           0 min
Histogram: 4 0 0 0 0 0 0 0 0 0

Total # of neighbors = 0
Ave neighs/atom = 0
Ave special neighs/atom = 2.0657895
Neighbor list builds = 3466
Dangerous builds = 0

unfix ThermoLng

# Now we let the system to create the polymeric network
fix ThermoLng all langevin ${temp} ${temp} ${damp} 12345 # Brownian Dynamics: langevin + nve
fix ThermoLng all langevin 0.05 ${temp} ${damp} 12345 
fix ThermoLng all langevin 0.05 0.05 ${damp} 12345 
fix ThermoLng all langevin 0.05 0.05 1 12345 
run ${steps}
run 1000000
WARNING: Using a manybody potential with bonds/angles/dihedrals and special_bond exclusions (src/pair.cpp:243)
Hybrid pair style last /omp style table/omp
Last active /omp style is pair_style table/omp
WARNING: More than one fix rigid command (src/RIGID/fix_rigid_small.cpp:529)
WARNING: More than one fix rigid command (src/RIGID/fix_rigid_small.cpp:529)
WARNING: One or more atoms are time integrated more than once (src/modify.cpp:296)
WARNING: Computing temperature of portions of rigid bodies (src/RIGID/fix_rigid_small.cpp:1178)
WARNING: Computing temperature of portions of rigid bodies (src/RIGID/fix_rigid_small.cpp:1178)
Per MPI rank memory allocation (min/avg/max) = 21.34 | 21.35 | 21.35 Mbytes
   Step          Temp          E_pair         E_mol          TotEng         Press     
   1000001   0.056629132   -0.21953522     0             -0.17283481     0.10367412   
   1000500   0.07341594    -0.21544466     0             -0.15490065    -0.18273667   
   1001000   0.058170657   -0.21704749     0             -0.16907583    -0.1277599    
   1001500   0.061525608   -0.21659384     0             -0.16585545     0.19303283   
   1002000   0.062602814   -0.21573706     0             -0.16411033    -0.17930244   
   1002500   0.05649924    -0.21585393     0             -0.16926065     0.00023583432
   1003000   0.074561732   -0.21392301     0             -0.15243411     0.094036797  
   1003500   0.065431363   -0.21510103     0             -0.16114168    -0.12014176   
   1004000   0.075209806   -0.2108161      0             -0.14879275     0.17447289   
   1004500   0.065566552   -0.21230915     0             -0.15823831     0.25658623   
   1005000   0.076091152   -0.21104738     0             -0.14829721     0.052012982  
   1005500   0.057117925   -0.21313089     0             -0.16602739     0.016681099  
   1006000   0.053632913   -0.21195106     0             -0.16772155    -0.05034599   
   1006500   0.071210051   -0.20877867     0             -0.1500538     -0.27210692   
   1007000   0.064750476   -0.2108905      0             -0.15749266    -0.091332162  
   1007500   0.063281936   -0.20856221     0             -0.15637543     0.19829949   
   1008000   0.052570158   -0.21051629     0             -0.1671632     -0.38661927   
   1008500   0.055477971   -0.2113747      0             -0.16562362     0.028639034  
   1009000   0.054158577   -0.21266747     0             -0.16800446     0.1251736    
   1009500   0.058787828   -0.21445204     0             -0.16597142    -0.11461113   
   1010000   0.051418524   -0.21439786     0             -0.17199449     0.10774631   
   1010500   0.055206104   -0.21595315     0             -0.17042627    -0.13883231   
   1011000   0.057787108   -0.21639575     0             -0.16874039    -0.48362078   
   1011500   0.056612534   -0.2148843      0             -0.16819758     0.096380627  
   1012000   0.054461553   -0.21459169     0             -0.16967883     0.10442883   
   1012500   0.053087546   -0.21664065     0             -0.17286088     0.32751704   
   1013000   0.062155589   -0.2148667      0             -0.16360878     0.093713012  
   1013500   0.069967523   -0.21304092     0             -0.15534072     0.10800426   
   1014000   0.066223667   -0.21164754     0             -0.1570348      0.24204327   
   1014500   0.059074067   -0.21250712     0             -0.16379045     0.50412403   
   1015000   0.052549549   -0.21379712     0             -0.17046102     0.23375943   
   1015500   0.057676416   -0.21280559     0             -0.16524151     0.085258613  
   1016000   0.067257513   -0.21168196     0             -0.15621664    -0.1912943    
   1016500   0.067131433   -0.2130096      0             -0.15764825     0.25129628   
   1017000   0.062631276   -0.21108067     0             -0.15943047    -0.096148185  
   1017500   0.063959227   -0.21277752     0             -0.1600322     -0.019024379  
   1018000   0.053337816   -0.21232129     0             -0.16833513     0.069242675  
   1018500   0.051971857   -0.21138539     0             -0.1685257      0.046797192  
   1019000   0.0518794     -0.21385487     0             -0.17107143    -0.32783446   
   1019500   0.057261676   -0.21085327     0             -0.16363123     0.2411398    
   1020000   0.065019992   -0.20974686     0             -0.15612676     0.21447431   
   1020500   0.059286952   -0.21008723     0             -0.16119499     0.42250968   
   1021000   0.062261156   -0.21068297     0             -0.159338      -0.52040662   
   1021500   0.062944888   -0.21081562     0             -0.1589068     -0.089259118  
   1022000   0.057888911   -0.21157245     0             -0.16383314    -0.28879626   
   1022500   0.053209723   -0.21363434     0             -0.16975383    -0.058821458  
   1023000   0.072519016   -0.2139085      0             -0.15410416     0.3623218    
   1023500   0.059796563   -0.2128144      0             -0.1635019      0.11187928   
   1024000   0.060616868   -0.2102168      0             -0.16022782    -0.19928342   
   1024500   0.056061906   -0.21193434     0             -0.16570171    -0.16227835   
   1025000   0.06033244    -0.21071388     0             -0.16095946     0.16115326   
   1025500   0.060015809   -0.21150849     0             -0.16201519    -0.11054063   
   1026000   0.055401034   -0.21387842     0             -0.16819079     0.17821745   
   1026500   0.053047946   -0.21293556     0             -0.16918845    -0.29132782   
   1027000   0.054089061   -0.21465194     0             -0.17004626     0.17440935   
   1027500   0.062872767   -0.21534464     0             -0.16349529     0.11129855   
   1028000   0.075638691   -0.21444636     0             -0.15206932    -0.63961594   
   1028500   0.061157716   -0.21524623     0             -0.16481124     0.03176925   
   1029000   0.056654284   -0.2158238      0             -0.16910265    -0.042649408  
   1029500   0.059059313   -0.21368703     0             -0.16498252    -0.33912964   
   1030000   0.05650256    -0.2166301      0             -0.17003407     0.26311277   
   1030500   0.05986193    -0.21697018     0             -0.16760378     0.33469558   
   1031000   0.057249027   -0.21713184     0             -0.16992023     0.19274021   
   1031500   0.053890051   -0.21771884     0             -0.17327727     0.32841229   
   1032000   0.070963703   -0.21352194     0             -0.15500023     0.075009558  
   1032500   0.080775378   -0.21509178     0             -0.14847866    -0.040125965  
   1033000   0.061377846   -0.21525951     0             -0.16464298     0.39316271   
   1033500   0.053794987   -0.21616357     0             -0.1718004      0.11563401   
   1034000   0.051960506   -0.21881104     0             -0.17596072    -0.25340818   
   1034500   0.050703324   -0.21947835     0             -0.17766479    -0.30933845   
   1035000   0.049798387   -0.21962153     0             -0.17855424     0.44163287   
   1035500   0.055108038   -0.21873343     0             -0.17328743     0.32403749   
   1036000   0.05391617    -0.2214581      0             -0.176995       0.82451789   
   1036500   0.059794172   -0.22352795     0             -0.17421742     0.038927228  
   1037000   0.056950726   -0.22691323     0             -0.17994761    -0.1302486    
   1037500   0.054184049   -0.22734102     0             -0.182657       0.34239924   
   1038000   0.064253097   -0.22660426     0             -0.17361659    -0.36563976   
   1038500   0.073183224   -0.22371081     0             -0.16335872    -0.18918395   
   1039000   0.065895708   -0.22440549     0             -0.17006321    -0.046267853  
   1039500   0.075147794   -0.2236257      0             -0.16165349    -0.40512822   
   1040000   0.068871261   -0.22319447     0             -0.16639834    -0.1083129    
   1040500   0.072122435   -0.22252846     0             -0.16305117    -0.3955568    
   1041000   0.071002093   -0.22217715     0             -0.16362378     0.14576625   
   1041500   0.0779062     -0.2214642      0             -0.15721722    -0.13191983   
   1042000   0.05971024    -0.22019418     0             -0.17095288     0.12107022   
   1042500   0.064474353   -0.21886152     0             -0.16569138     0.08520658   
   1043000   0.057321542   -0.22317163     0             -0.17590022     0.22219783   
   1043500   0.053413387   -0.22012899     0             -0.17608052     0.43092205   
   1044000   0.074595214   -0.2195678      0             -0.15805129     0.33174026   
   1044500   0.059058423   -0.22053839     0             -0.17183462     0.085097355  
   1045000   0.059839786   -0.22021672     0             -0.17086858    -0.29037022   
   1045500   0.057429979   -0.22222504     0             -0.1748642     -0.12946599   
   1046000   0.0574674     -0.22164492     0             -0.17425322    -0.14020459   
   1046500   0.054825675   -0.22090323     0             -0.17569008     0.12611516   
   1047000   0.054249347   -0.22130732     0             -0.17656946    -0.41627773   
   1047500   0.054157478   -0.22249298     0             -0.17783088    -0.31112767   
   1048000   0.065318968   -0.21789626     0             -0.16402959     0.2165038    
   1048500   0.068733894   -0.21802464     0             -0.16134178     0.23204812   
   1049000   0.079295626   -0.21494372     0             -0.14955091     0.050869261  
   1049500   0.069694829   -0.21875835     0             -0.16128304    -0.080976506  
   1050000   0.064191208   -0.21653285     0             -0.16359622    -0.12528285   
   1050500   0.087060114   -0.21067238     0             -0.13887642     0.14500947   
   1051000   0.070329781   -0.21439242     0             -0.15639349     0.11898503   
   1051500   0.061452544   -0.21430258     0             -0.16362445     0.31787901   
   1052000   0.057840522   -0.21568359     0             -0.16798419    -0.15405632   
   1052500   0.058475402   -0.21695795     0             -0.16873498     0.26662812   
   1053000   0.058361176   -0.21805933     0             -0.16993056    -0.30096917   
   1053500   0.054987405   -0.21838602     0             -0.17303949    -0.26973665   
   1054000   0.05999807    -0.21967044     0             -0.17019177     0.18784123   
   1054500   0.070349518   -0.21799009     0             -0.15997488    -0.13028067   
   1055000   0.080092654   -0.21731369     0             -0.15126359     0.20983222   
   1055500   0.062083149   -0.21801552     0             -0.16681734    -0.35622099   
   1056000   0.059982255   -0.21962735     0             -0.17016172    -0.090706755  
   1056500   0.061875039   -0.21758973     0             -0.16656318     0.38395936   
   1057000   0.057046318   -0.22170946     0             -0.17466502    -0.2289968    
   1057500   0.06181366    -0.2199411      0             -0.16896517     0.2002076    
   1058000   0.065422478   -0.21910746     0             -0.16515543     0.42372295   
   1058500   0.069077382   -0.21554859     0             -0.15858247    -0.25934143   
   1059000   0.05974933    -0.21582082     0             -0.16654728    -0.38507815   
   1059500   0.064007589   -0.21468584     0             -0.16190063    -0.20998942   
   1060000   0.057624017   -0.21764183     0             -0.17012097     0.51478032   
   1060500   0.067941983   -0.21913547     0             -0.16310568     0.35936957   
   1061000   0.0601961     -0.21849136     0             -0.16884938     0.4069057    
   1061500   0.063048791   -0.22046364     0             -0.16846913    -0.52206385   
   1062000   0.057105474   -0.22063207     0             -0.17353884    -0.85067949   
   1062500   0.054646122   -0.22243232     0             -0.17736724     0.11387138   
   1063000   0.057822179   -0.22387372     0             -0.17618945     0.17128931   
   1063500   0.052120636   -0.22775922     0             -0.18477684    -0.15484125   
   1064000   0.072055592   -0.22405412     0             -0.16463196    -0.066752687  
   1064500   0.07085931    -0.22178007     0             -0.16334444     0.51163858   
   1065000   0.065274597   -0.22176244     0             -0.16793236    -0.068996191  
   1065500   0.063269024   -0.219112       0             -0.16693587    -0.23937853   
   1066000   0.070195985   -0.21416982     0             -0.15628122     0.361848     
   1066500   0.065616817   -0.21738941     0             -0.16327712    -0.11841355   
   1067000   0.067249024   -0.21358902     0             -0.15813069    -0.60016986   
   1067500   0.059214882   -0.21403683     0             -0.16520403    -0.11727316   
   1068000   0.060298361   -0.21510963     0             -0.16538332     0.31031217   
   1068500   0.067859616   -0.21403262     0             -0.15807076     0.31023762   
   1069000   0.077489483   -0.21207989     0             -0.14817656     0.25292006   
   1069500   0.085425912   -0.21236161     0             -0.14191334     0.093376768  
   1070000   0.07700627    -0.21140019     0             -0.14789535     0.0083640187 
   1070500   0.070509589   -0.21023791     0             -0.15209069    -0.079070345  
   1071000   0.058560691   -0.21251659     0             -0.16422328     0.31855643   
   1071500   0.054362793   -0.21357397     0             -0.16874255     0.41930155   
   1072000   0.058777982   -0.21041899     0             -0.16194649     0.074702298  
   1072500   0.058470598   -0.21156949     0             -0.16335048    -0.03761835   
   1073000   0.064806379   -0.21315446     0             -0.15971052     0.16360273   
   1073500   0.076389594   -0.20851249     0             -0.14551621    -0.093412045  
   1074000   0.070312416   -0.20772998     0             -0.14974537     0.015456652  
   1074500   0.057349326   -0.20618476     0             -0.15889043     0.36394007   
   1075000   0.067397117   -0.20804339     0             -0.15246293     0.28820257   
   1075500   0.063128351   -0.20951739     0             -0.15745726    -0.11533685   
   1076000   0.059512121   -0.21039936     0             -0.16132143     0.019376371  
   1076500   0.065200223   -0.20908112     0             -0.15531239    -0.11424187   
   1077000   0.072497039   -0.20920986     0             -0.14942365    -0.26485815   
   1077500   0.05879859    -0.21173421     0             -0.16324472    -0.35733812   
   1078000   0.050585758   -0.21208146     0             -0.17036485    -0.31664541   
   1078500   0.050235772   -0.21214299     0             -0.17071501    -0.3815024    
   1079000   0.070029153   -0.21063051     0             -0.15287949     0.16870613   
   1079500   0.07764191    -0.21309083     0             -0.14906179    -0.56859861   
   1080000   0.069580208   -0.21005589     0             -0.15267511    -0.21865096   
   1080500   0.078846297   -0.21116582     0             -0.14614357    -0.31492659   
   1081000   0.062495404   -0.21447586     0             -0.16293771    -0.018137635  
   1081500   0.066562945   -0.21150821     0             -0.15661567    -0.1041205    
   1082000   0.055796923   -0.21402694     0             -0.16801283     0.1993931    
   1082500   0.062122156   -0.21235029     0             -0.16111994    -0.17695298   
   1083000   0.071143856   -0.21003714     0             -0.15136686    -0.1200721    
   1083500   0.058043654   -0.20845902     0             -0.1605921      0.085641086  
   1084000   0.04991694    -0.20912142     0             -0.16795636    -0.01181197   
   1084500   0.049947237   -0.21132224     0             -0.1701322      0.057408681  
   1085000   0.065971788   -0.20982926     0             -0.15542423     0.067373289  
   1085500   0.06314026    -0.20939168     0             -0.15732173    -0.025073067  
   1086000   0.063018422   -0.21106636     0             -0.1590969      0.52401467   
   1086500   0.05501651    -0.21086372     0             -0.1654932      0.28015491   
   1087000   0.061238714   -0.21295506     0             -0.16245327     0.16343946   
   1087500   0.054396478   -0.21574842     0             -0.17088922     0.078921806  
   1088000   0.076043431   -0.2093322      0             -0.14662138     0.45403151   
   1088500   0.067258318   -0.20913389     0             -0.15366791    -0.0087069718 
   1089000   0.057980186   -0.21208515     0             -0.16427057     0.57589606   
   1089500   0.083074562   -0.20809227     0             -0.13958308     0.11650812   
   1090000   0.083881889   -0.20345299     0             -0.13427803    -0.33635755   
   1090500   0.0724458     -0.2038775      0             -0.14413354    -0.15267436   
   1091000   0.069227965   -0.200365       0             -0.1432747      0.26674443   
   1091500   0.057839993   -0.20658939     0             -0.15889042    -0.18219747   
   1092000   0.060134856   -0.20957324     0             -0.15998177     0.12885741   
   1092500   0.068827817   -0.20904736     0             -0.15228705     0.23892694   
   1093000   0.065033862   -0.20832014     0             -0.1546886      0.32535069   
   1093500   0.056861926   -0.20903048     0             -0.16213809     0.27806401   
   1094000   0.069377206   -0.20818835     0             -0.15097497    -0.57465805   
   1094500   0.065882707   -0.20794222     0             -0.15361066     0.21959584   
   1095000   0.055857949   -0.20847598     0             -0.16241155    -0.13124803   
   1095500   0.063728108   -0.20858475     0             -0.15603003     0.48972358   
   1096000   0.062632247   -0.21070957     0             -0.15905857     0.1497049    
   1096500   0.059163253   -0.20962292     0             -0.1608327     -0.75187834   
   1097000   0.084490566   -0.20418256     0             -0.13450564     0.1095837    
   1097500   0.090257972   -0.20455143     0             -0.13011829    -0.28502514   
   1098000   0.078070612   -0.20247719     0             -0.13809461     0.34523281   
   1098500   0.074990001   -0.20414441     0             -0.14230232    -0.13271048   
   1099000   0.058433165   -0.20837262     0             -0.16018448     0.21714519   
   1099500   0.051437557   -0.21063412     0             -0.16821506    -0.15484513   
   1100000   0.073462242   -0.21263516     0             -0.15205298    -0.0941951    
   1100500   0.063563829   -0.21329403     0             -0.16087478    -0.072060566  
   1101000   0.059170551   -0.20938059     0             -0.16058435    -0.014870794  
   1101500   0.074837953   -0.21037045     0             -0.14865376    -0.63534676   
   1102000   0.081303228   -0.2086913      0             -0.14164288    -0.56064276   
   1102500   0.063937532   -0.20990733     0             -0.1571799      0.055793089  
   1103000   0.053846907   -0.21075672     0             -0.16635074     0.068881466  
   1103500   0.07543118    -0.21082376     0             -0.14861785    -0.016410727  
   1104000   0.058020454   -0.21303204     0             -0.16518425     0.014664867  
   1104500   0.051686525   -0.21481986     0             -0.17219548     0.00055429052
   1105000   0.050676056   -0.21667385     0             -0.17488278     0.11808763   
   1105500   0.051764922   -0.21553868     0             -0.17284964     0.043832247  
   1106000   0.049837591   -0.21656249     0             -0.17546287    -0.34300844   
   1106500   0.058839654   -0.2159408      0             -0.16741744    -0.006745254  
   1107000   0.054658778   -0.217095       0             -0.17201949     0.20679414   
   1107500   0.057989856   -0.21469675     0             -0.16687419     0.18494886   
   1108000   0.060202919   -0.21259413     0             -0.16294653    -0.12843503   
   1108500   0.067032253   -0.21345491     0             -0.15817535    -0.10290687   
   1109000   0.057059641   -0.2118654      0             -0.16480996     0.022370087  
   1109500   0.053306365   -0.21320845     0             -0.16924823     0.61508505   
   1110000   0.05804596    -0.21278163     0             -0.16491281     0.6431337    
   1110500   0.054884758   -0.21405794     0             -0.16879607    -0.19297148   
   1111000   0.052570154   -0.21728609     0             -0.17393301    -0.11731539   
   1111500   0.057455194   -0.21637678     0             -0.16899515    -0.23712473   
   1112000   0.065041838   -0.21508021     0             -0.16144209    -0.24479341   
   1112500   0.058714181   -0.21802899     0             -0.1696091      0.16475459   
   1113000   0.053441286   -0.22143113     0             -0.17735965     0.88388533   
   1113500   0.065102381   -0.21927058     0             -0.16558253     0.53087581   
   1114000   0.062672955   -0.22120656     0             -0.16952199    -0.33145734   
   1114500   0.054336281   -0.22142963     0             -0.17662007    -0.38831663   
   1115000   0.061518829   -0.22272662     0             -0.17199382    -0.18757138   
   1115500   0.063703204   -0.21921389     0             -0.1666797      0.52475782   
   1116000   0.06056194    -0.21843017     0             -0.16848649    -0.25117136   
   1116500   0.06036839    -0.21779811     0             -0.16801404    -0.014531039  
   1117000   0.064647572   -0.2203294      0             -0.16701642     0.36684051   
   1117500   0.056458736   -0.21978602     0             -0.17322613    -0.49495912   
   1118000   0.090797567   -0.21385953     0             -0.13898141     0.14451024   
   1118500   0.07004958    -0.21638286     0             -0.158615       0.1438513    
   1119000   0.070204223   -0.21800079     0             -0.1601054      0.044826306  
   1119500   0.058843409   -0.22025326     0             -0.17172681     0.23988355   
   1120000   0.064040552   -0.21891326     0             -0.16610087    -0.27084472   
   1120500   0.064056241   -0.21895021     0             -0.16612488    -0.39423455   
   1121000   0.06334524    -0.21881736     0             -0.16657838    -0.3145731    
   1121500   0.064643574   -0.21522176     0             -0.16191207     0.15148518   
   1122000   0.059329248   -0.21716095     0             -0.16823384     0.57017966   
   1122500   0.055951744   -0.21694402     0             -0.17080223     0.13836625   
   1123000   0.084253261   -0.2160867      0             -0.14660547     0.34777233   
   1123500   0.071037601   -0.21478829     0             -0.15620564     0.073434689  
   1124000   0.073740961   -0.21460228     0             -0.15379025     0.59109975   
   1124500   0.065756858   -0.21518735     0             -0.16095957    -0.25857633   
   1125000   0.058038956   -0.21761654     0             -0.1697535     -0.7249195    
   1125500   0.059996916   -0.21442571     0             -0.16494799    -0.1752126    
   1126000   0.072715537   -0.21402882     0             -0.15406242    -0.059212366  
   1126500   0.063525111   -0.21435037     0             -0.16196305     0.042498925  
   1127000   0.087957215   -0.21053155     0             -0.13799578     0.42830284   
   1127500   0.061605564   -0.21095749     0             -0.16015316    -0.0040400094 
   1128000   0.064057732   -0.21258649     0             -0.15975993    -0.22539196   
   1128500   0.063995875   -0.21363462     0             -0.16085907     0.41993149   
   1129000   0.05780369    -0.21470193     0             -0.1670329     -0.6059012    
   1129500   0.062930315   -0.21197444     0             -0.16007763     0.30274568   
   1130000   0.056640524   -0.21477954     0             -0.16806974     0.22874802   
   1130500   0.063983901   -0.21278794     0             -0.16002227    -0.13982949   
   1131000   0.059432164   -0.21106491     0             -0.16205293     0.11285062   
   1131500   0.066357715   -0.21172156     0             -0.15699827    -0.079448512  
   1132000   0.07180245    -0.20696302     0             -0.14774962     0.14953887   
   1132500   0.064109399   -0.2110735      0             -0.15820434    -0.46572536   
   1133000   0.058748514   -0.20936487     0             -0.16091667     0.27136093   
   1133500   0.064897778   -0.20910214     0             -0.15558282     0.35382671   
   1134000   0.054369515   -0.21206086     0             -0.1672239     -0.096298962  
   1134500   0.078325358   -0.20948345     0             -0.14489079    -0.1161084    
   1135000   0.076012555   -0.20518374     0             -0.14249839     0.021132833  
   1135500   0.063120476   -0.20582022     0             -0.15376659    -0.010591944  
   1136000   0.078288338   -0.20594386     0             -0.14138173     0.37113125   
   1136500   0.080296864   -0.20334997     0             -0.13713147    -0.30809374   
   1137000   0.062135062   -0.20505384     0             -0.15381286     0.37997915   
   1137500   0.054409429   -0.20790909     0             -0.16303921     0.20895513   
   1138000   0.053723382   -0.20888856     0             -0.16458444     0.22996015   
   1138500   0.050059003   -0.21250484     0             -0.17122263     0.21263726   
   1139000   0.058435763   -0.20996709     0             -0.16177681    -0.070046249  
   1139500   0.070421306   -0.21050193     0             -0.15242752    -0.047493625  
   1140000   0.085108018   -0.20692329     0             -0.13673717     0.18162071   
   1140500   0.061897501   -0.20657894     0             -0.15553386    -0.83611321   
   1141000   0.061725147   -0.2105461      0             -0.15964315     0.071516752  
   1141500   0.072383666   -0.20339444     0             -0.14370173     0.11112984   
   1142000   0.076420951   -0.20640095     0             -0.14337881    -0.25332293   
   1142500   0.062385368   -0.20680605     0             -0.15535865     0.081458111  
   1143000   0.062145898   -0.20919818     0             -0.15794826     0.030504734  
   1143500   0.069144411   -0.20702045     0             -0.14999906    -0.20747676   
   1144000   0.057477097   -0.20822319     0             -0.16082349     0.24109073   
   1144500   0.05166203    -0.20917692     0             -0.16657274    -0.70832668   
   1145000   0.056205706   -0.21254344     0             -0.16619222     0.40130314   
   1145500   0.06767652    -0.20862151     0             -0.15281064    -0.016839378  
   1146000   0.069544895   -0.20984778     0             -0.15249612     0.2153711    
   1146500   0.07126173    -0.2123461      0             -0.15357861     0.37383058   
   1147000   0.085970235   -0.20840942     0             -0.13751226     0.35010991   
   1147500   0.069602769   -0.20771914     0             -0.15031975     0.2256596    
   1148000   0.057967691   -0.20988914     0             -0.16208486     0.15376847   
   1148500   0.058559741   -0.21042164     0             -0.16212911     0.14444461   
   1149000   0.052423545   -0.21374181     0             -0.17050963     0.16935312   
   1149500   0.059822138   -0.21332041     0             -0.16398683     0.63535241   
   1150000   0.057904859   -0.21496715     0             -0.16721469    -0.032112741  
   1150500   0.05471163    -0.21745631     0             -0.17233721     0.05111956   
   1151000   0.073171904   -0.21460345     0             -0.1542607      0.1679865    
   1151500   0.05932221    -0.21902869     0             -0.17010738     0.20711086   
   1152000   0.057246403   -0.21816435     0             -0.1709549     -0.13307029   
   1152500   0.054544031   -0.2196985      0             -0.17471762    -0.41374208   
   1153000   0.070807488   -0.21927247     0             -0.16087959    -0.089263172  
   1153500   0.06616592    -0.21502763     0             -0.16046251    -0.018214216  
   1154000   0.064188439   -0.21895107     0             -0.16601672     0.55761318   
   1154500   0.066029065   -0.2178546      0             -0.16340234     0.18362349   
   1155000   0.074037301   -0.21347713     0             -0.15242071     0.13487549   
   1155500   0.077099351   -0.2121888      0             -0.1486072      0.23677472   
   1156000   0.068022905   -0.21634344     0             -0.16024692     0.051910803  
   1156500   0.057070816   -0.21548489     0             -0.16842024     0.15532409   
   1157000   0.062658057   -0.21732104     0             -0.16564875     0.14195352   
   1157500   0.069829623   -0.21379691     0             -0.15621044    -0.29306032   
   1158000   0.068505601   -0.21190579     0             -0.15541121     0.29824044   
   1158500   0.076867415   -0.21061333     0             -0.147223       0.31573417   
   1159000   0.065590486   -0.21193523     0             -0.15784466    -0.4999513    
   1159500   0.063926934   -0.21130735     0             -0.15858866    -0.02114675   
   1160000   0.059406932   -0.21329874     0             -0.16430757     0.037341658  
   1160500   0.053287336   -0.2171071      0             -0.17316257     0.37912041   
   1161000   0.051087007   -0.21687141     0             -0.17474144    -0.074082149  
   1161500   0.053066357   -0.21822223     0             -0.17445994     0.18899134   
   1162000   0.04908288    -0.21872338     0             -0.17824615    -0.35722532   
   1162500   0.048554513   -0.22019541     0             -0.18015391     0.098090119  
   1163000   0.052222038   -0.22087018     0             -0.17780418    -0.61686578   
   1163500   0.05259591    -0.2212229      0             -0.17784857    -0.15160387   
   1164000   0.053114367   -0.22305902     0             -0.17925714     0.42721247   
   1164500   0.078287493   -0.21940714     0             -0.15484571     0.037311927  
   1165000   0.065005449   -0.21997093     0             -0.16636282    -0.58118907   
   1165500   0.070847192   -0.22106239     0             -0.16263676     0.11885579   
   1166000   0.092987879   -0.21591164     0             -0.13922722    -0.45247056   
   1166500   0.084603707   -0.21618651     0             -0.14641628    -0.041807283  
   1167000   0.065635339   -0.2172119      0             -0.16308434    -0.29783669   
   1167500   0.065114608   -0.21552418     0             -0.16182605     0.067767911  
   1168000   0.054485689   -0.21854955     0             -0.17361678     0.10132815   
   1168500   0.049661483   -0.21771964     0             -0.17676526    -0.23626754   
   1169000   0.048697376   -0.22000945     0             -0.17985014     0.063623564  
   1169500   0.055735227   -0.21568394     0             -0.16972071    -0.039980334  
   1170000   0.070089179   -0.2147941      0             -0.15699359     0.098539304  
   1170500   0.055806417   -0.21475122     0             -0.16872928     0.47176779   
   1171000   0.054089203   -0.21796752     0             -0.17336172    -0.25152332   
   1171500   0.067458774   -0.21643968     0             -0.16080839    -0.11796474   
   1172000   0.067755619   -0.2151241      0             -0.159248       0.27869755   
   1172500   0.060699791   -0.21737222     0             -0.16731486     0.40221927   
   1173000   0.055484087   -0.22118228     0             -0.17542616    -0.086550701  
   1173500   0.067458138   -0.21769394     0             -0.16206316    -0.23400557   
   1174000   0.057639668   -0.21844532     0             -0.17091155    -0.0083999367 
   1174500   0.057769032   -0.21758759     0             -0.16994714     0.023017107  
   1175000   0.062761332   -0.21936913     0             -0.16761167     0.22547647   
   1175500   0.07463401    -0.21631204     0             -0.15476353     0.38363448   
   1176000   0.07087899    -0.21936367     0             -0.16091182     0.25628861   
   1176500   0.05840588    -0.21996084     0             -0.1717952     -0.30226272   
   1177000   0.05532618    -0.22197195     0             -0.17634605     0.18012512   
   1177500   0.055019705   -0.22215208     0             -0.17677892     0.07722686   
   1178000   0.071461133   -0.22087914     0             -0.16194721    -0.15648707   
   1178500   0.059118649   -0.22380037     0             -0.17504693    -0.41034008   
   1179000   0.054289807   -0.22409678     0             -0.17932555     0.07512646   
   1179500   0.053713993   -0.22160746     0             -0.17731109     0.31213158   
   1180000   0.057753283   -0.22340858     0             -0.17578112    -0.066885522  
   1180500   0.057333847   -0.2230181      0             -0.17573653     0.037748685  
   1181000   0.060274532   -0.22649999     0             -0.17679333     0.012557019  
   1181500   0.060318441   -0.22508306     0             -0.17534019     0.0038221816 
   1182000   0.053699597   -0.22502033     0             -0.18073583     0.35588055   
   1182500   0.052425857   -0.22528482     0             -0.18205073     0.13773087   
   1183000   0.05234353    -0.22746353     0             -0.18429733     0.23680422   
   1183500   0.049233178   -0.2279993      0             -0.18739812    -0.019634688  
   1184000   0.059380358   -0.22831459     0             -0.17934533     0.25242373   
   1184500   0.059120285   -0.2275968      0             -0.17884201     0.2967362    
   1185000   0.052755828   -0.22723369     0             -0.18372749     0.15848783   
   1185500   0.053715826   -0.22803371     0             -0.18373582     0.65757962   
   1186000   0.065791894   -0.22791533     0             -0.17365866    -0.27181122   
   1186500   0.076125441   -0.22611373     0             -0.16333528     0.087433253  
   1187000   0.062668797   -0.22627005     0             -0.1745889     -0.12219949   
   1187500   0.061811469   -0.22809883     0             -0.1771247     -0.2975974    
   1188000   0.054722431   -0.22790224     0             -0.18277424    -0.25779326   
   1188500   0.061945941   -0.22617541     0             -0.17509038    -0.25509586   
   1189000   0.074296971   -0.22741165     0             -0.16614109    -0.18739559   
   1189500   0.062672164   -0.22744173     0             -0.17575781     0.070157052  
   1190000   0.058570882   -0.2288105      0             -0.18050879    -0.16328287   
   1190500   0.059512838   -0.22629727     0             -0.17721875    -0.01495741   
   1191000   0.063146612   -0.22787287     0             -0.17579768    -0.10810571   
   1191500   0.065850643   -0.22563405     0             -0.17132893     0.25399681   
   1192000   0.058015904   -0.22549715     0             -0.17765312     0.26006643   
   1192500   0.077902033   -0.22232869     0             -0.15808514    -0.4330049    
   1193000   0.076004119   -0.22400239     0             -0.161324       0.043943721  
   1193500   0.056672903   -0.22612235     0             -0.17938585    -0.60180703   
   1194000   0.052342059   -0.22678544     0             -0.18362046     0.071210144  
   1194500   0.058232374   -0.22543019     0             -0.17740764    -0.30975391   
   1195000   0.05294757    -0.22706199     0             -0.18339766     0.20863149   
   1195500   0.061488148   -0.22455645     0             -0.17384896    -0.30246672   
   1196000   0.054569861   -0.22475412     0             -0.17975194    -0.48157953   
   1196500   0.053878599   -0.22517394     0             -0.18074182     0.22418735   
   1197000   0.051692863   -0.22698813     0             -0.18435852    -0.56738358   
   1197500   0.055278565   -0.22587564     0             -0.18028901     0.053683245  
   1198000   0.066058474   -0.22583391     0             -0.1713574      1.0114739e-05
   1198500   0.064812124   -0.22432984     0             -0.17088116     0.24219548   
   1199000   0.062069412   -0.2246776      0             -0.17349075    -0.05928304   
   1199500   0.066304654   -0.22447395     0             -0.16979442     0.048995679  
   1200000   0.0600939     -0.2241302      0             -0.1745725     -0.14066343   
   1200500   0.056422871   -0.22580774     0             -0.17927743    -0.51276629   
   1201000   0.050820351   -0.22694726     0             -0.18503718    -0.05572595   
   1201500   0.059009414   -0.2269032      0             -0.17823985     0.024436082  
   1202000   0.062903527   -0.22674113     0             -0.17486641    -0.078892642  
   1202500   0.060963663   -0.22523236     0             -0.1749574     -0.090440456  
   1203000   0.056790726   -0.22432057     0             -0.1774869     -0.12249899   
   1203500   0.051438517   -0.22626677     0             -0.18384691    -0.47417458   
   1204000   0.052334461   -0.22360896     0             -0.18045024    -0.10206351   
   1204500   0.062757149   -0.22135709     0             -0.16960309     0.10621738   
   1205000   0.061395318   -0.22171831     0             -0.17108737    -0.51081915   
   1205500   0.054248845   -0.22251226     0             -0.1777748     -0.13645532   
   1206000   0.084325076   -0.22181659     0             -0.15227614    -0.31438319   
   1206500   0.06303349    -0.22041109     0             -0.1684292     -0.6028108    
   1207000   0.055131685   -0.22301258     0             -0.17754708     0.41394606   
   1207500   0.0661036     -0.21784942     0             -0.1633357      0.23423114   
   1208000   0.062722623   -0.21988227     0             -0.16815674    -0.37007758   
   1208500   0.054166626   -0.21932851     0             -0.17465886     0.011641906  
   1209000   0.064696729   -0.21990255     0             -0.16654903    -0.0054288982 
   1209500   0.057820429   -0.21893791     0             -0.17125508     0.074506511  
   1210000   0.057603759   -0.22057753     0             -0.17307338    -0.26396258   
   1210500   0.061229529   -0.22010487     0             -0.16961065     0.18935721   
   1211000   0.062790815   -0.21687356     0             -0.16509179     0.10062124   
   1211500   0.060324037   -0.21396034     0             -0.16421285    -0.11298903   
   1212000   0.055328724   -0.21673821     0             -0.17111022    -0.0061442512 
   1212500   0.068782105   -0.21269148     0             -0.15596887    -0.43438122   
   1213000   0.0551161     -0.21685592     0             -0.17140326    -0.39810853   
   1213500   0.05924801    -0.21133672     0             -0.1624766      0.22084024   
   1214000   0.064945876   -0.21232603     0             -0.15876704    -0.54420866   
   1214500   0.085618581   -0.20680019     0             -0.13619303    -0.16061692   
   1215000   0.075024662   -0.20564151     0             -0.14377084     0.16045196   
   1215500   0.061964009   -0.2075849      0             -0.15648498    -0.19084973   
   1216000   0.053428033   -0.20637447     0             -0.16231392     0.60501199   
   1216500   0.054539469   -0.20992557     0             -0.16494845     0.30672466   
   1217000   0.059174197   -0.20948994     0             -0.16069069     0.23830973   
   1217500   0.052338003   -0.21127033     0             -0.16810869     0.57770544   
   1218000   0.051226002   -0.21286509     0             -0.17062049    -0.13877199   
   1218500   0.049127954   -0.21199867     0             -0.17148427     0.36325798   
   1219000   0.050584953   -0.21325256     0             -0.17153661     0.037383742  
   1219500   0.051268497   -0.21693883     0             -0.17465918     0.17581946   
   1220000   0.056301575   -0.21566367     0             -0.16923339    -0.39461105   
   1220500   0.05059933    -0.21424078     0             -0.17251298    -0.12648933   
   1221000   0.072581498   -0.21216373     0             -0.15230787     0.27371739   
   1221500   0.065396644   -0.21546208     0             -0.16153136    -0.43861335   
   1222000   0.070279017   -0.21543578     0             -0.15747871    -0.1306675    
   1222500   0.06260719    -0.21451974     0             -0.16288941     0.078661579  
   1223000   0.067394774   -0.21542608     0             -0.15984756     0.22966218   
   1223500   0.057092905   -0.21461189     0             -0.16752902     0.24338779   
   1224000   0.058290408   -0.21532613     0             -0.16725572    -0.084241251  
   1224500   0.064405699   -0.21272136     0             -0.15960784     0.14095601   
   1225000   0.065462264   -0.2113649      0             -0.15738007     0.26030296   
   1225500   0.065603802   -0.21385268     0             -0.15975113     0.10299449   
   1226000   0.065826404   -0.21306821     0             -0.15878308     0.29418763   
   1226500   0.0661653     -0.2135182      0             -0.15895359     0.12761792   
   1227000   0.060797488   -0.2162034      0             -0.16606547    -0.11745984   
   1227500   0.053768438   -0.21520596     0             -0.17086469     0.0073327237 
   1228000   0.060718822   -0.21475445     0             -0.16468139    -0.20989879   
   1228500   0.059478771   -0.21461671     0             -0.16556629    -0.11182876   
   1229000   0.073258317   -0.21391277     0             -0.15349876    -0.13989713   
   1229500   0.058868545   -0.21666578     0             -0.16811859     0.25978678   
   1230000   0.063565211   -0.21514893     0             -0.16272854     0.46486715   
   1230500   0.055903166   -0.22013883     0             -0.1740371     -0.13733089   
   1231000   0.052824016   -0.22077587     0             -0.17721343     0.096217098  
   1231500   0.062129925   -0.22030467     0             -0.16906792    -0.13578139   
   1232000   0.090800255   -0.21686385     0             -0.14198351    -0.19956122   
   1232500   0.073482956   -0.22031688     0             -0.15971761     0.25215322   
   1233000   0.059333282   -0.21839795     0             -0.16946751     0.42818229   
   1233500   0.062479047   -0.22056945     0             -0.16904479    -0.27236391   
   1234000   0.055725874   -0.22206941     0             -0.17611389    -0.072597535  
   1234500   0.054778151   -0.22603227     0             -0.18085832     0.076514339  
   1235000   0.050873297   -0.2255376      0             -0.18358386     0.24491042   
   1235500   0.070316085   -0.2247687      0             -0.16678106     0.34262789   
   1236000   0.067704993   -0.22306804     0             -0.1672337     -0.3606234    
   1236500   0.060116939   -0.22415924     0             -0.17458254     0.0086620964 
   1237000   0.056280108   -0.22430028     0             -0.1778877     -0.17397221   
   1237500   0.059818448   -0.22502864     0             -0.1756981     -0.1662141    
   1238000   0.05550471    -0.22430747     0             -0.17853434     0.049234783  
   1238500   0.052070347   -0.2244525      0             -0.1815116     -0.21948888   
   1239000   0.04982342    -0.22657232     0             -0.18548439    -0.20171657   
   1239500   0.058169501   -0.22732625     0             -0.17935555     0.2010199    
   1240000   0.083466595   -0.21940472     0             -0.15057223     0.056328099  
   1240500   0.070097263   -0.22292816     0             -0.16512098     0.22532441   
   1241000   0.059272618   -0.22447636     0             -0.17559595     0.065286531  
   1241500   0.070060156   -0.21986315     0             -0.16208657    -0.35757414   
   1242000   0.062849556   -0.22135128     0             -0.16952107    -0.17479982   
   1242500   0.056676598   -0.22201        0             -0.17527045     0.18839213   
   1243000   0.053959002   -0.22367632     0             -0.1791779     -0.12607534   
   1243500   0.070732121   -0.21947443     0             -0.16114369    -0.066640883  
   1244000   0.056864503   -0.21967309     0             -0.17277858     0.31356146   
   1244500   0.051646319   -0.22186047     0             -0.17926924     0.16473643   
   1245000   0.059053979   -0.22181026     0             -0.17311015     0.23140977   
   1245500   0.05710416    -0.22179959     0             -0.17470744    -0.45149996   
   1246000   0.056598866   -0.2247231      0             -0.17804765    -0.24773292   
   1246500   0.054573778   -0.22449989     0             -0.17949447    -0.07821666   
   1247000   0.048895949   -0.22298205     0             -0.18265897     0.33022629   
   1247500   0.051305214   -0.22538076     0             -0.18307083    -0.11718811   
   1248000   0.062359943   -0.22472306     0             -0.17329662     0.13852607   
   1248500   0.055785257   -0.22493114     0             -0.17892665    -0.3380504    
   1249000   0.051413483   -0.22629708     0             -0.18389787    -0.094187726  
   1249500   0.054469655   -0.22695        0             -0.18203046     0.020671437  
   1250000   0.062964209   -0.22568794     0             -0.17376318    -0.24557587   
   1250500   0.07212101    -0.22623478     0             -0.16675867     0.10250429   
   1251000   0.069069804   -0.22226422     0             -0.16530435    -0.022624087  
   1251500   0.080154666   -0.22247908     0             -0.15637785     0.20146332   
   1252000   0.0679697     -0.22381522     0             -0.16776258     0.12093996   
   1252500   0.069315317   -0.22213807     0             -0.16497573    -0.12253102   
   1253000   0.069510089   -0.22363511     0             -0.16631215    -0.28393816   
   1253500   0.05954569    -0.22240444     0             -0.17329884     0.053952149  
   1254000   0.058422465   -0.22232732     0             -0.17414801     0.26644698   
   1254500   0.053759248   -0.22499686     0             -0.18066316    -0.16202738   
   1255000   0.074931726   -0.22101219     0             -0.15921816    -0.23411583   
   1255500   0.063774875   -0.22119268     0             -0.16859939    -0.35304666   
   1256000   0.0630164     -0.22234632     0             -0.17037851    -0.16071394   
   1256500   0.055355224   -0.22125989     0             -0.17561004     0.45315105   
   1257000   0.052816821   -0.2222088      0             -0.1786523      0.13701512   
   1257500   0.050700915   -0.22079948     0             -0.1789879     -0.11554511   
   1258000   0.057173433   -0.2234134      0             -0.17626413    -0.13126547   
   1258500   0.054578479   -0.2216693      0             -0.17666001    -0.24271904   
   1259000   0.056016383   -0.22320498     0             -0.17700989    -0.042216049  
   1259500   0.060174818   -0.22282892     0             -0.17320449    -0.16189595   
   1260000   0.070937188   -0.22443479     0             -0.16593495     0.61433873   
   1260500   0.064141568   -0.22605543     0             -0.17315974     0.066156069  
   1261000   0.055982501   -0.22113745     0             -0.1749703      0.57288553   
   1261500   0.055985427   -0.22228955     0             -0.17611999     0.63096823   
   1262000   0.051073263   -0.22551527     0             -0.18339662    -0.31735027   
   1262500   0.053780148   -0.22655991     0             -0.18220898    -0.61073056   
   1263000   0.05034504    -0.22428519     0             -0.18276709     0.42003986   
   1263500   0.05364562    -0.2300575      0             -0.18581751     0.15967942   
   1264000   0.079678659   -0.22509644     0             -0.15938776     0.37481414   
   1264500   0.061294581   -0.22298758     0             -0.17243972     0.33877748   
   1265000   0.053748559   -0.22286481     0             -0.17853993    -0.45292707   
   1265500   0.050228905   -0.22270849     0             -0.18128617     0.069181668  
   1266000   0.053665587   -0.2236225      0             -0.17936604     0.44941717   
   1266500   0.053923688   -0.22860757     0             -0.18413826     0.11798709   
   1267000   0.057842634   -0.22411192     0             -0.17641078    -0.24639451   
   1267500   0.060922025   -0.22230716     0             -0.17206653    -0.14683406   
   1268000   0.064153304   -0.22014661     0             -0.16724124     0.74749245   
   1268500   0.056556424   -0.22333235     0             -0.1766919     -0.39096376   
   1269000   0.069164399   -0.22060401     0             -0.16356613     0.025908646  
   1269500   0.066165093   -0.22224921     0             -0.16768477     0.18385504   
   1270000   0.056665278   -0.2243031      0             -0.17757288    -0.062319238  
   1270500   0.053578391   -0.22642192     0             -0.18223737     0.20864215   
   1271000   0.048722795   -0.22685475     0             -0.18667447     0.27043748   
   1271500   0.050076318   -0.22350189     0             -0.1822054      0.079903301  
   1272000   0.067759435   -0.22410241     0             -0.16822316     0.52927149   
   1272500   0.073073464   -0.2221326      0             -0.16187103     0.10106906   
   1273000   0.07699348    -0.21724291     0             -0.15374862    -0.052085167  
   1273500   0.064539227   -0.22078143     0             -0.1675578      0.50144796   
   1274000   0.064412891   -0.2192998      0             -0.16618036     0.010826544  
   1274500   0.064231286   -0.22114154     0             -0.16817185    -0.28608461   
   1275000   0.069651408   -0.21869625     0             -0.16125675    -0.13632184   
   1275500   0.075121836   -0.21642831     0             -0.1544775      0.25461303   
   1276000   0.065915687   -0.21589515     0             -0.16153639    -0.13260719   
   1276500   0.057046996   -0.21645512     0             -0.16941011    -0.06354531   
   1277000   0.058909492   -0.21786273     0             -0.16928177    -0.090468549  
   1277500   0.065485829   -0.2181752      0             -0.16417094    -0.25490667   
   1278000   0.058283977   -0.21870647     0             -0.17064136     0.40543534   
   1278500   0.053917817   -0.21829219     0             -0.17382773     0.54464783   
   1279000   0.063557279   -0.21644337     0             -0.16402952    -0.34171745   
   1279500   0.059459145   -0.21988321     0             -0.17084898    -0.14491345   
   1280000   0.066763282   -0.21736599     0             -0.16230825     0.17304798   
   1280500   0.063152388   -0.21579102     0             -0.16371107    -0.30463711   
   1281000   0.061360881   -0.21364453     0             -0.16304199     0.63230351   
   1281500   0.055011247   -0.215676       0             -0.17030981     0.19767859   
   1282000   0.055176439   -0.21412552     0             -0.1686231      0.65116722   
   1282500   0.06585399    -0.21244027     0             -0.15813239    -0.81674411   
   1283000   0.056920022   -0.21396807     0             -0.16702777     0.0081108746 
   1283500   0.064799019   -0.21321448     0             -0.1597766      0.46140471   
   1284000   0.065846627   -0.21152709     0             -0.15722528     0.091642046  
   1284500   0.083752425   -0.21632549     0             -0.14725729    -0.13541143   
   1285000   0.062098844   -0.21183402     0             -0.1606229     -0.1352652    
   1285500   0.070822253   -0.20878117     0             -0.1503761      0.25205736   
   1286000   0.087736934   -0.20802232     0             -0.13566821    -0.44690751   
   1286500   0.069297625   -0.2078343      0             -0.15068656    -0.26540539   
   1287000   0.066098136   -0.20873462     0             -0.1542254      0.11547555   
   1287500   0.053405089   -0.20871111     0             -0.16466948     0.30669245   
   1288000   0.059324201   -0.20864814     0             -0.15972519    -0.22855369   
   1288500   0.055990153   -0.20823685     0             -0.16206339    -0.27509543   
   1289000   0.05729752    -0.20959669     0             -0.16234509     0.056596931  
   1289500   0.054253459   -0.2111246      0             -0.16638334    -0.39614744   
   1290000   0.052482311   -0.21005828     0             -0.16677764    -0.11871289   
   1290500   0.056092311   -0.21519421     0             -0.1689365      0.2207014    
   1291000   0.058557804   -0.21238217     0             -0.16409124     0.16963407   
   1291500   0.057881514   -0.21371984     0             -0.16598663     0.077728134  
   1292000   0.051920432   -0.21170238     0             -0.1688851     -0.019487463  
   1292500   0.051818228   -0.2174416      0             -0.1747086      0.015087862  
   1293000   0.064805735   -0.21630224     0             -0.16285882    -0.12224937   
   1293500   0.064891423   -0.21379482     0             -0.16028074    -0.43655236   
   1294000   0.073516623   -0.21451722     0             -0.15389019    -0.068358652  
   1294500   0.083095462   -0.21448446     0             -0.14595804     0.24998288   
   1295000   0.071919507   -0.21203101     0             -0.15272107     0.29911988   
   1295500   0.067654727   -0.21240723     0             -0.15661433     0.025855957  
   1296000   0.063021392   -0.21068926     0             -0.15871734    -0.024500269  
   1296500   0.088655788   -0.20848115     0             -0.13536929     0.25847595   
   1297000   0.077954075   -0.20593628     0             -0.14164981     0.20587248   
   1297500   0.065436707   -0.20920717     0             -0.15524341     0.13323324   
   1298000   0.061835085   -0.20791852     0             -0.15692491    -0.31088833   
   1298500   0.075305469   -0.20699448     0             -0.14489224     0.47598487   
   1299000   0.08003118    -0.202019       0             -0.1360196     -0.17105917   
   1299500   0.072318856   -0.20295419     0             -0.14331492    -0.31613141   
   1300000   0.06397291    -0.20158779     0             -0.14883119    -0.96323219   
   1300500   0.074265689   -0.20088262     0             -0.13963786     0.041741491  
   1301000   0.057294509   -0.20012089     0             -0.15287176     0.071520552  
   1301500   0.050283559   -0.20340649     0             -0.16193909    -0.21599033   
   1302000   0.051988671   -0.20433877     0             -0.16146522     0.65471404   
   1302500   0.057283921   -0.20236317     0             -0.15512278    -0.0741727    
   1303000   0.055390736   -0.20159672     0             -0.15591758     0.32584104   
   1303500   0.052082039   -0.20511959     0             -0.16216904     0.058064702  
   1304000   0.055758014   -0.20875127     0             -0.16276925    -0.093018699  
   1304500   0.063081255   -0.21052072     0             -0.15849944     0.31533628   
   1305000   0.069332055   -0.20754117     0             -0.15036503     0.12786616   
   1305500   0.066427723   -0.20603547     0             -0.15125445    -0.28494378   
   1306000   0.086049806   -0.20401415     0             -0.13305137     0.096039863  
   1306500   0.063423721   -0.20685379     0             -0.15455008     0.029610596  
   1307000   0.063109305   -0.20802457     0             -0.15598015     0.068567886  
   1307500   0.063078164   -0.2065633      0             -0.15454456    -0.31615904   
   1308000   0.060183028   -0.20765541     0             -0.15802421    -0.41653115   
   1308500   0.058780434   -0.20519411     0             -0.15671959     0.37692894   
   1309000   0.050810548   -0.20942625     0             -0.16752426    -0.014399315  
   1309500   0.049852263   -0.21039355     0             -0.16928184     0.38454495   
   1310000   0.048575754   -0.21153002     0             -0.171471      -0.098066218  
   1310500   0.04695493    -0.21351086     0             -0.17478848    -0.15356444   
   1311000   0.049599532   -0.21401015     0             -0.17310685     0.11465705   
   1311500   0.057208831   -0.21337507     0             -0.16619661    -0.097228103  
   1312000   0.066588831   -0.21215956     0             -0.15724568     0.13713027   
   1312500   0.05560704    -0.2125037      0             -0.16664618    -0.046767185  
   1313000   0.050494791   -0.2135004      0             -0.17185881    -0.49613738   
   1313500   0.060979897   -0.21294992     0             -0.16266157    -0.24131302   
   1314000   0.063673152   -0.21143153     0             -0.15892212     0.11650598   
   1314500   0.062845664   -0.21194761     0             -0.16012061     0.18842867   
   1315000   0.057964682   -0.21590898     0             -0.16810719    -0.1325003    
   1315500   0.052894898   -0.21915143     0             -0.17553054    -0.044351578  
   1316000   0.059503035   -0.21948611     0             -0.17041568     0.20810349   
   1316500   0.056627945   -0.21998587     0             -0.17328644    -0.22108644   
   1317000   0.063403601   -0.21764677     0             -0.16535965    -0.18892304   
   1317500   0.054166708   -0.22075635     0             -0.17608663     0.46434927   
   1318000   0.055165391   -0.21912588     0             -0.17363258    -0.22361316   
   1318500   0.05115906    -0.21906724     0             -0.17687784    -0.094774757  
   1319000   0.048268155   -0.21956367     0             -0.17975832     0.0043422373 
   1319500   0.057486341   -0.21944623     0             -0.17203891     0.7415877    
   1320000   0.051823912   -0.22109212     0             -0.17835444    -0.092994585  
   1320500   0.056039171   -0.2225364      0             -0.17632252    -0.31998535   
   1321000   0.072385824   -0.22069401     0             -0.16099951    -0.10783551   
   1321500   0.057564442   -0.22176116     0             -0.17428943     0.023982812  
   1322000   0.081111404   -0.22097592     0             -0.15408569     0.17627972   
   1322500   0.062196166   -0.22228931     0             -0.17099794     0.1683934    
   1323000   0.068380034   -0.21991552     0             -0.16352449    -0.18903379   
   1323500   0.058529124   -0.22035859     0             -0.17209131     0.14464845   
   1324000   0.055887724   -0.22426207     0             -0.17817309     0.20817496   
   1324500   0.065346363   -0.22034002     0             -0.16645077    -0.019873669  
   1325000   0.059836138   -0.22516177     0             -0.17581664     0.48366748   
   1325500   0.050886975   -0.22458019     0             -0.18261518    -0.59809222   
   1326000   0.05459703    -0.22074083     0             -0.17571624    -0.16705162   
   1326500   0.062173191   -0.22422718     0             -0.17295475     0.42011624   
   1327000   0.073715852   -0.21861758     0             -0.15782625     0.11470983   
   1327500   0.064870554   -0.21976898     0             -0.16627211     0.12999834   
   1328000   0.070483768   -0.2182101      0             -0.16008418    -0.10363699   
   1328500   0.061995832   -0.21865072     0             -0.16752456    -0.56383377   
   1329000   0.056663484   -0.21973637     0             -0.17300764     0.19275333   
   1329500   0.055787722   -0.22126928     0             -0.17526276     0.15879486   
   1330000   0.051720695   -0.22002685     0             -0.17737429     0.19668874   
   1330500   0.060929984   -0.21929612     0             -0.16904893     0.38155396   
   1331000   0.052768409   -0.22246544     0             -0.17894886    -0.2245867    
   1331500   0.048865763   -0.22150168     0             -0.1812035      0.23229188   
   1332000   0.056849375   -0.22003675     0             -0.17315471    -0.34287321   
   1332500   0.056764532   -0.22122975     0             -0.17441769    -0.42787738   
   1333000   0.079070727   -0.2193099      0             -0.15410256    -0.13123354   
   1333500   0.063358126   -0.21971016     0             -0.16746055     0.37417269   
   1334000   0.064153871   -0.22043661     0             -0.16753077    -0.13787983   
   1334500   0.070427225   -0.22012696     0             -0.16204767     0.55340731   
   1335000   0.067043803   -0.219521       0             -0.16423192     0.089173287  
   1335500   0.059979868   -0.21768613     0             -0.16822247    -0.039480513  
   1336000   0.071088539   -0.21662251     0             -0.15799785     0.14713302   
   1336500   0.06505579    -0.21619817     0             -0.16254854    -0.21704871   
   1337000   0.059951864   -0.21855659     0             -0.16911602    -0.076089372  
   1337500   0.053288864   -0.22088606     0             -0.17694028    -0.1112967    
   1338000   0.068000526   -0.21864369     0             -0.16256563    -0.29832518   
   1338500   0.059025228   -0.22017691     0             -0.17150051     0.40192084   
   1339000   0.056368489   -0.22188306     0             -0.1753976     -0.026312179  
   1339500   0.073890594   -0.22036793     0             -0.1594325     -0.53424693   
   1340000   0.060076732   -0.22330788     0             -0.17376434     0.023996157  
   1340500   0.057259213   -0.2223885      0             -0.17516849    -0.021781033  
   1341000   0.062392742   -0.22466632     0             -0.17321283     0.45198293   
   1341500   0.055774257   -0.22360166     0             -0.17760624    -0.20532884   
   1342000   0.052214345   -0.22523693     0             -0.18217727    -0.048845133  
   1342500   0.054457352   -0.22641405     0             -0.18150465     0.16051146   
   1343000   0.052620353   -0.22706678     0             -0.1836723     -0.03198853   
   1343500   0.060514285   -0.22619522     0             -0.17629084    -0.60069502   
   1344000   0.053485767   -0.22838602     0             -0.18427785    -0.081714839  
   1344500   0.063720956   -0.22510681     0             -0.17255798     0.51663939   
   1345000   0.058577567   -0.22582533     0             -0.17751811     0.07742265   
   1345500   0.054106715   -0.22537086     0             -0.18075061    -0.11504852   
   1346000   0.056699528   -0.22690804     0             -0.18014958    -0.39418135   
   1346500   0.054478735   -0.22584128     0             -0.18091424     0.30016767   
   1347000   0.057156766   -0.22545584     0             -0.17832031    -0.082700073  
   1347500   0.05150846    -0.22743086     0             -0.18495332     0.3185876    
   1348000   0.05562884    -0.22587598     0             -0.18000049     0.10784729   
   1348500   0.058713774   -0.22685817     0             -0.17843862    -0.12991121   
   1349000   0.051652482   -0.22616132     0             -0.18356502    -0.32645458   
   1349500   0.055451884   -0.228406       0             -0.18267644    -0.099545111  
   1350000   0.063225404   -0.22279176     0             -0.1706516      0.14290405   
   1350500   0.064704747   -0.2245976      0             -0.17123747     0.037861465  
   1351000   0.07057906    -0.22126514     0             -0.16306063    -0.24094163   
   1351500   0.059010221   -0.223743       0             -0.17507898     0.072336924  
   1352000   0.077831204   -0.21829748     0             -0.15411234     0.078884598  
   1352500   0.058427411   -0.22096226     0             -0.17277887    -0.17041221   
   1353000   0.0522681     -0.21926261     0             -0.17615863    -0.043993939  
   1353500   0.061193912   -0.21886506     0             -0.16840021    -0.19626049   
   1354000   0.063374891   -0.22134291     0             -0.16907947     0.17864296   
   1354500   0.058347554   -0.21790842     0             -0.16979088    -0.51677212   
   1355000   0.071868767   -0.21171071     0             -0.15244262     0.17049266   
   1355500   0.076985579   -0.21246077     0             -0.14897299     0.12931746   
   1356000   0.066017472   -0.21144108     0             -0.15699838     0.14935098   
   1356500   0.065332659   -0.20988993     0             -0.15601197     0.0055099642 
   1357000   0.060243309   -0.21263053     0             -0.16294962    -0.30323848   
   1357500   0.06415277    -0.21212836     0             -0.15922343     0.089764965  
   1358000   0.054892424   -0.21119546     0             -0.16592727     0.039282465  
   1358500   0.050938189   -0.21225197     0             -0.17024473     0.68307648   
   1359000   0.054454508   -0.21237321     0             -0.16746615    -0.25927081   
   1359500   0.053593621   -0.2151401      0             -0.170943       0.49353934   
   1360000   0.058475135   -0.21547011     0             -0.16724736     0.24087997   
   1360500   0.053121046   -0.21691346     0             -0.17310607     0.15975182   
   1361000   0.048194889   -0.21901586     0             -0.17927093     0.091790776  
   1361500   0.052530064   -0.21811858     0             -0.17479856    -0.031762413  
   1362000   0.050933173   -0.22054409     0             -0.17854097    -0.33176132   
   1362500   0.051919677   -0.21965992     0             -0.17684326    -0.26426761   
   1363000   0.072177673   -0.21842638     0             -0.15890354     0.48383889   
   1363500   0.068398234   -0.21645436     0             -0.16004832     0.39109029   
   1364000   0.062539922   -0.21864457     0             -0.16706971     0.19742467   
   1364500   0.055316351   -0.21975936     0             -0.17414157     0.16902504   
   1365000   0.052161946   -0.21848849     0             -0.17547204     0.029126018  
   1365500   0.050172465   -0.2202914      0             -0.17891562     0.15707207   
   1366000   0.053028406   -0.22172727     0             -0.17799628    -0.32340188   
   1366500   0.050259935   -0.21879024     0             -0.17734233    -0.077126496  
   1367000   0.055401179   -0.22101263     0             -0.17532488     0.65981064   
   1367500   0.059538423   -0.22153804     0             -0.17243843    -0.1397131    
   1368000   0.05970909    -0.22003317     0             -0.17079281    -0.47670503   
   1368500   0.07404543    -0.22263643     0             -0.1615733     -0.30563273   
   1369000   0.059242729   -0.22051431     0             -0.17165855    -0.40190629   
   1369500   0.06409476    -0.21845477     0             -0.16559768    -0.45118776   
   1370000   0.082528778   -0.21676032     0             -0.14870123    -0.24290237   
   1370500   0.068555825   -0.21908478     0             -0.16254877     0.26371802   
   1371000   0.058459157   -0.22245985     0             -0.17425028     0.054075414  
   1371500   0.051820282   -0.22280918     0             -0.18007449     0.39057431   
   1372000   0.057859551   -0.22476774     0             -0.17705264     0.053860053  
   1372500   0.064122294   -0.22058252     0             -0.16770272    -0.005769069  
   1373000   0.058670091   -0.22199286     0             -0.17360933     0.41697767   
   1373500   0.0583849     -0.22108114     0             -0.1729328      0.20679516   
   1374000   0.061402867   -0.22436982     0             -0.17373266     0.21987333   
   1374500   0.056693944   -0.2255765      0             -0.17882265    -0.25741971   
   1375000   0.051159801   -0.22634293     0             -0.18415292     0.33240913   
   1375500   0.047482543   -0.22843476     0             -0.18927728    -0.18720844   
   1376000   0.04625034    -0.22974361     0             -0.19160229    -0.2306314    
   1376500   0.049936308   -0.23122306     0             -0.19004203     0.026782078  
   1377000   0.052049879   -0.23197949     0             -0.18905546    -0.20977137   
   1377500   0.053218561   -0.23079248     0             -0.18690467     0.0040787463 
   1378000   0.055186652   -0.23014317     0             -0.18463234    -0.14102728   
   1378500   0.060418149   -0.22806793     0             -0.17824283    -0.22800636   
   1379000   0.057597114   -0.22814764     0             -0.18064897    -0.4082788    
   1379500   0.055040217   -0.22903142     0             -0.18364135     0.25243885   
   1380000   0.054210672   -0.22644852     0             -0.18174255    -0.51612914   
   1380500   0.066669296   -0.22734543     0             -0.17236519    -0.43350693   
   1381000   0.056812929   -0.22960594     0             -0.18275396     0.0023110104 
   1381500   0.070205144   -0.22787413     0             -0.16997798    -0.34355139   
   1382000   0.081028562   -0.22742344     0             -0.16060153     0.070751909  
   1382500   0.059970095   -0.2256671      0             -0.1762115     -0.036601381  
   1383000   0.06345115    -0.22507643     0             -0.1727501      0.20553522   
   1383500   0.057870879   -0.22508495     0             -0.17736051    -0.31931114   
   1384000   0.056484734   -0.22632579     0             -0.17974446    -0.34847809   
   1384500   0.054786768   -0.22625572     0             -0.18107466    -0.13457368   
   1385000   0.050776717   -0.22812772     0             -0.18625363     0.077717122  
   1385500   0.062799313   -0.22371948     0             -0.1719307     -0.048793061  
   1386000   0.068171344   -0.22386654     0             -0.1676476     -0.11243319   
   1386500   0.069555331   -0.22107833     0             -0.16371806     0.044781114  
   1387000   0.055234638   -0.2272546      0             -0.18170419    -0.18430914   
   1387500   0.066292574   -0.22405245     0             -0.16938288    -0.81149937   
   1388000   0.054500572   -0.22562129     0             -0.18067625    -0.11041035   
   1388500   0.056433912   -0.22346615     0             -0.17692673    -0.028525546  
   1389000   0.072935744   -0.22257764     0             -0.16242964    -0.23829106   
   1389500   0.056311814   -0.22444307     0             -0.17800435     0.34744253   
   1390000   0.057991768   -0.22416201     0             -0.17633788     0.059890875  
   1390500   0.060150113   -0.22182504     0             -0.17222098     0.59223883   
   1391000   0.06654326    -0.22033332     0             -0.16545702     0.052407695  
   1391500   0.063266468   -0.22174273     0             -0.1695687     -0.084670158  
   1392000   0.057207366   -0.22200152     0             -0.17482426     0.38715551   
   1392500   0.061990868   -0.21980774     0             -0.16868567    -0.091557384  
   1393000   0.072032649   -0.22081755     0             -0.16141431     0.41456938   
   1393500   0.056581992   -0.22097137     0             -0.17430984    -0.068081208  
   1394000   0.068126388   -0.22127261     0             -0.16509075     0.0027977203 
   1394500   0.058921223   -0.22166017     0             -0.17306954     0.51899665   
   1395000   0.06269025    -0.22142964     0             -0.16973081     0.47298667   
   1395500   0.060011716   -0.21811028     0             -0.16862035    -0.31853053   
   1396000   0.069628534   -0.21641124     0             -0.1589906     -0.26480866   
   1396500   0.086227708   -0.21590383     0             -0.14479434     0.27400042   
   1397000   0.078398871   -0.2132611      0             -0.14860782     0.47696482   
   1397500   0.079395224   -0.21369027     0             -0.14821533    -0.061757019  
   1398000   0.080334725   -0.21166349     0             -0.14541376    -0.082905919  
   1398500   0.076386662   -0.21386265     0             -0.15086878    -0.15868947   
   1399000   0.059421563   -0.21863314     0             -0.16962989    -0.26135503   
   1399500   0.071378974   -0.21620064     0             -0.15733646    -0.25091656   
   1400000   0.058538741   -0.21851516     0             -0.17023996    -0.20194324   
   1400500   0.054394901   -0.21882514     0             -0.17396724     0.13194141   
   1401000   0.06284687    -0.21708145     0             -0.16525345    -0.2222407    
   1401500   0.064496902   -0.21875837     0             -0.16556964    -0.204528     
   1402000   0.057636304   -0.21867437     0             -0.17114338    -0.34251368   
   1402500   0.06810644    -0.21552225     0             -0.15935684     0.22247388   
   1403000   0.069809262   -0.21733628     0             -0.1597666      0.28521868   
   1403500   0.062200669   -0.21665095     0             -0.16535586    -0.52242922   
   1404000   0.061764714   -0.21897185     0             -0.16803628    -0.34892594   
   1404500   0.07138335    -0.21695902     0             -0.15809124     0.34149535   
   1405000   0.064077142   -0.21872664     0             -0.16588408    -0.5131923    
   1405500   0.054751945   -0.22011272     0             -0.17496037    -0.41169465   
   1406000   0.074188515   -0.21420907     0             -0.15302795    -0.3268691    
   1406500   0.073825694   -0.2128474      0             -0.15196549     0.1631487    
   1407000   0.061328186   -0.21441342     0             -0.16383784     0.025208963  
   1407500   0.053881717   -0.21439948     0             -0.16996479     0.75401719   
   1408000   0.08143217    -0.21460829     0             -0.14745353     0.4663849    
   1408500   0.066343135   -0.21225319     0             -0.15754193     0.18088916   
   1409000   0.06490599    -0.21371196     0             -0.16018587    -0.21254283   
   1409500   0.062861209   -0.2141604      0             -0.16232058     0.22012609   
   1410000   0.054697128   -0.21498833     0             -0.16988119     0.35141149   
   1410500   0.053191798   -0.21792317     0             -0.17405743    -0.19543087   
   1411000   0.059741929   -0.21965889     0             -0.17039145     0.66975327   
   1411500   0.051901737   -0.21950665     0             -0.17670479     0.021887451  
   1412000   0.056750871   -0.21613108     0             -0.16933028    -0.14871479   
   1412500   0.059337521   -0.21496631     0             -0.16603238    -0.066091595  
   1413000   0.055658277   -0.21641797     0             -0.1705182     -0.10448351   
   1413500   0.058955847   -0.21725433     0             -0.16863515    -0.2153071    
   1414000   0.063562287   -0.21549802     0             -0.16308004    -0.30322186   
   1414500   0.05404402    -0.21534645     0             -0.17077791     0.038793533  
   1415000   0.059731411   -0.21444332     0             -0.16518455    -0.10491349   
   1415500   0.069305398   -0.21445193     0             -0.15729777    -0.031768294  
   1416000   0.06389829    -0.21193071     0             -0.15923564     0.0096963102 
   1416500   0.092253437   -0.21062546     0             -0.13454672    -0.35038586   
   1417000   0.075007074   -0.20975488     0             -0.14789871     0.035968375  
   1417500   0.07153879    -0.20773303     0             -0.14873706     0.18137166   
   1418000   0.06452177    -0.20915794     0             -0.1559487      0.038740826  
   1418500   0.063909326   -0.20874359     0             -0.15603942    -0.33443331   
   1419000   0.056384493   -0.20910856     0             -0.1626099      0.40114565   
   1419500   0.071716521   -0.20894728     0             -0.14980474     0.080332983  
   1420000   0.063713386   -0.2046868      0             -0.15214422    -0.19704576   
   1420500   0.069937365   -0.20285817     0             -0.14518285     0.23969583   
   1421000   0.061045148   -0.20583378     0             -0.15549162     0.31593654   
   1421500   0.057162278   -0.20909076     0             -0.16195068     0.5017016    
   1422000   0.059479212   -0.20841203     0             -0.15936125     0.40127301   
   1422500   0.05315628    -0.20918642     0             -0.16534997    -0.12446025   
   1423000   0.063108605   -0.20778159     0             -0.15573775    -0.23989331   
   1423500   0.068944454   -0.21192202     0             -0.15506552     0.62564496   
   1424000   0.056120821   -0.21405674     0             -0.16777552     0.20456431   
   1424500   0.057054009   -0.21137458     0             -0.16432379    -0.1756409    
   1425000   0.065825616   -0.20921473     0             -0.15493025     0.3031442    
   1425500   0.062602835   -0.20840686     0             -0.15678012     0.53654983   
   1426000   0.066940106   -0.21082149     0             -0.15561792     0.4157594    
   1426500   0.064700144   -0.20796887     0             -0.15461254     0.82269554   
   1427000   0.058060613   -0.21200059     0             -0.16411968     0.19834172   
   1427500   0.06109438    -0.21188532     0             -0.16150255    -0.36588363   
   1428000   0.064994637   -0.20968655     0             -0.15608735    -0.40726325   
   1428500   0.068879847   -0.20759559     0             -0.15079237     0.26814144   
   1429000   0.058541958   -0.21126331     0             -0.16298545     0.30552668   
   1429500   0.057841087   -0.20891353     0             -0.16121366     0.45355564   
   1430000   0.052623812   -0.21158858     0             -0.16819124    -0.28275204   
   1430500   0.059786995   -0.20874366     0             -0.15943906     0.13037677   
   1431000   0.066187895   -0.20973848     0             -0.15515524    -0.36783924   
   1431500   0.058597974   -0.20896626     0             -0.1606422      0.20848907   
   1432000   0.063647835   -0.20866759     0             -0.15617906    -0.12326022   
   1432500   0.059817206   -0.20968052     0             -0.160351       0.024277034  
   1433000   0.062274555   -0.21047603     0             -0.15912        0.14064369   
   1433500   0.054004983   -0.21205195     0             -0.16751561    -0.22411328   
   1434000   0.054192436   -0.21214831     0             -0.16745738    -0.10393843   
   1434500   0.05741777    -0.21279152     0             -0.16544075    -0.038637797  
   1435000   0.059213101   -0.21298755     0             -0.16415622    -0.44495406   
   1435500   0.071584776   -0.21259052     0             -0.15355663    -0.022190322  
   1436000   0.065578723   -0.21325777     0             -0.15917689    -0.070542132  
   1436500   0.060536424   -0.21262042     0             -0.16269779    -0.10438757   
   1437000   0.065661393   -0.20900447     0             -0.15485542    -0.22613844   
   1437500   0.060785677   -0.21141043     0             -0.16128225    -0.061735013  
   1438000   0.053507644   -0.21386892     0             -0.16974271     0.4967598    
   1438500   0.04991573    -0.21647836     0             -0.1753143      0.13711885   
   1439000   0.051577071   -0.21900916     0             -0.17647504    -0.069852884  
   1439500   0.062316179   -0.21766254     0             -0.16627219     0.13125004   
   1440000   0.056820479   -0.22194709     0             -0.17508889    -0.1249452    
   1440500   0.054295346   -0.2211768      0             -0.176401      -0.33062604   
   1441000   0.052414171   -0.22414991     0             -0.18092546    -0.24366165   
   1441500   0.049329507   -0.22595298     0             -0.18527236     0.58787511   
   1442000   0.051107436   -0.22369326     0             -0.18154644    -0.16007897   
   1442500   0.053863335   -0.22465009     0             -0.18023056     0.18682091   
   1443000   0.049451617   -0.22530545     0             -0.18452414     0.44493172   
   1443500   0.048929094   -0.22514783     0             -0.18479742    -0.14097981   
   1444000   0.063645873   -0.22417115     0             -0.17168424     0.040343891  
   1444500   0.052281594   -0.22493954     0             -0.18182443    -0.032975113  
   1445000   0.054514999   -0.22637761     0             -0.18142066     0.22962062   
   1445500   0.051522271   -0.22711622     0             -0.18462729     0.010741712  
   1446000   0.051777544   -0.22771894     0             -0.1850195      0.050916931  
   1446500   0.053038857   -0.22579576     0             -0.18205615    -0.16802116   
   1447000   0.057177447   -0.22641492     0             -0.17926234     0.39832497   
   1447500   0.061906775   -0.22541555     0             -0.17436282    -0.43575668   
   1448000   0.055842233   -0.22614993     0             -0.18009846     0.175404     
   1448500   0.061360783   -0.22468345     0             -0.17408099    -0.08349537   
   1449000   0.061295352   -0.2258221      0             -0.17527359    -0.17158152   
   1449500   0.055147176   -0.22550317     0             -0.18002489     0.092463623  
   1450000   0.055941375   -0.22624968     0             -0.18011644     0.045303441  
   1450500   0.074402246   -0.22438131     0             -0.16302394    -0.19673661   
   1451000   0.061795761   -0.2238722      0             -0.17291103    -0.40076711   
   1451500   0.058634076   -0.2243052      0             -0.17595138     0.072675373  
   1452000   0.059372613   -0.22339783     0             -0.17443495     0.32023137   
   1452500   0.050791796   -0.22319792     0             -0.18131139    -0.2361484    
   1453000   0.062799931   -0.22446686     0             -0.17267758     0.11612434   
   1453500   0.051091077   -0.22495851     0             -0.18282517     0.11953941   
   1454000   0.050169567   -0.22589149     0             -0.1845181      0.16495607   
   1454500   0.055171048   -0.22766624     0             -0.18216827     0.07992554   
   1455000   0.06603083    -0.23030058     0             -0.17584686     0.36244235   
   1455500   0.068181509   -0.22819478     0             -0.17196747    -0.3587912    
   1456000   0.090662745   -0.22316475     0             -0.14839781     0.13381647   
   1456500   0.071223038   -0.22208667     0             -0.16335109     0.13808456   
   1457000   0.063241998   -0.22381297     0             -0.17165913     0.11802025   
   1457500   0.052660321   -0.22642502     0             -0.18299758    -0.028106657  
   1458000   0.064306719   -0.22556793     0             -0.17253604    -0.10636885   
   1458500   0.069246331   -0.22173454     0             -0.1646291     -0.18953427   
   1459000   0.079004848   -0.22111923     0             -0.15596622     0.0052406566 
   1459500   0.060168939   -0.22005783     0             -0.17043825     0.34748908   
   1460000   0.053261939   -0.22084432     0             -0.17692074     0.31779803   
   1460500   0.068435224   -0.21653562     0             -0.16009907     0.40418112   
   1461000   0.063236801   -0.22014906     0             -0.1679995     -0.010961052  
   1461500   0.061539985   -0.21668349     0             -0.16593325     0.68765129   
   1462000   0.071106064   -0.21490137     0             -0.15626226     0.19271404   
   1462500   0.062032933   -0.22011846     0             -0.1689617     -0.11011986   
   1463000   0.059964493   -0.21789818     0             -0.1684472      0.38188527   
   1463500   0.063109832   -0.21825246     0             -0.16620761    -0.38407898   
   1464000   0.067148044   -0.21463715     0             -0.1592621      0.032042533  
   1464500   0.062532372   -0.21662321     0             -0.16505457     0.040871769  
   1465000   0.05572749    -0.21575246     0             -0.16979561     0.72934196   
   1465500   0.051058986   -0.21633334     0             -0.17422647    -0.045549847  
   1466000   0.055527672   -0.21595935     0             -0.17016729     0.085742452  
   1466500   0.058784641   -0.21656256     0             -0.16808457     0.30867553   
   1467000   0.069602074   -0.21637523     0             -0.15897642    -0.11475547   
   1467500   0.057809555   -0.2167304      0             -0.16905653    -0.11522648   
   1468000   0.056633341   -0.21687004     0             -0.17016616    -0.21706283   
   1468500   0.05594242    -0.21744643     0             -0.17131234    -0.15294113   
   1469000   0.065846123   -0.2168076      0             -0.1625062     -0.10402686   
   1469500   0.064352814   -0.21670736     0             -0.16363745     0.13266056   
   1470000   0.060495419   -0.21710556     0             -0.16721674    -0.060890477  
   1470500   0.069042489   -0.21678213     0             -0.15984479     0.044095488  
   1471000   0.061039136   -0.21426063     0             -0.16392342     0.1508007    
   1471500   0.056562315   -0.21783928     0             -0.17119397     0.26162425   
   1472000   0.070689672   -0.21054719     0             -0.15225146     0.12338219   
   1472500   0.061868967   -0.21668023     0             -0.16565868    -0.074395181  
   1473000   0.06009673    -0.21410401     0             -0.16454398     0.32804651   
   1473500   0.076676383   -0.21379866     0             -0.15056586     0.14758862   
   1474000   0.064625142   -0.21513272     0             -0.16183824     0.18827804   
   1474500   0.070684481   -0.21453279     0             -0.15624134     0.45324786   
   1475000   0.059684216   -0.21639438     0             -0.16717454    -0.37054889   
   1475500   0.051895058   -0.21878781     0             -0.17599146    -0.12131663   
   1476000   0.057973768   -0.21980524     0             -0.17199595    -0.26294709   
   1476500   0.05387404    -0.22009841     0             -0.17567005    -0.1679129    
   1477000   0.058274094   -0.22246574     0             -0.17440878     0.61912104   
   1477500   0.05579886    -0.22336        0             -0.1773443     -0.78321177   
   1478000   0.055659946   -0.22533353     0             -0.17943238    -0.20608053   
   1478500   0.053039437   -0.22614711     0             -0.18240702     0.27269486   
   1479000   0.05321352    -0.22452963     0             -0.18064598     0.13451375   
   1479500   0.055582192   -0.22310592     0             -0.1772689      0.35408142   
   1480000   0.059724636   -0.22338482     0             -0.17413164    -0.075555406  
   1480500   0.07698973    -0.22131238     0             -0.15782118     0.25593259   
   1481000   0.075219715   -0.21615954     0             -0.15412802    -0.15024544   
   1481500   0.061833675   -0.22030721     0             -0.16931477    -0.51274733   
   1482000   0.051102408   -0.21810465     0             -0.17596197    -0.15949305   
   1482500   0.047452436   -0.21950064     0             -0.18036799    -0.22733126   
   1483000   0.067512297   -0.21793047     0             -0.16225503     0.0622659    
   1483500   0.059825946   -0.2194901      0             -0.17015337     0.20449543   
   1484000   0.071882838   -0.21612129     0             -0.1568416     -0.13900431   
   1484500   0.063180829   -0.21821872     0             -0.16611532    -0.21813958   
   1485000   0.060617805   -0.21877125     0             -0.16878151     0.081006675  
   1485500   0.056413923   -0.21611403     0             -0.1695911      0.26207203   
   1486000   0.057965016   -0.21667621     0             -0.16887414     0.008309624  
   1486500   0.060909506   -0.21539304     0             -0.16516273    -0.25232546   
   1487000   0.058768671   -0.21806973     0             -0.16960491    -0.38491448   
   1487500   0.053003446   -0.22098873     0             -0.17727832    -0.15015161   
   1488000   0.05382386    -0.218001       0             -0.17361402    -0.16688803   
   1488500   0.059912928   -0.21701506     0             -0.1676066      0.082911212  
   1489000   0.076627738   -0.21151026     0             -0.14831758     0.34099472   
   1489500   0.071609321   -0.2119176      0             -0.15286346    -0.096615238  
   1490000   0.071902994   -0.2122817      0             -0.15298538     0.29469388   
   1490500   0.057971532   -0.21251411     0             -0.16470667     0.14429553   
   1491000   0.059859163   -0.21167627     0             -0.16231215     0.45174207   
   1491500   0.061275138   -0.21117461     0             -0.16064278    -0.26413354   
   1492000   0.059716745   -0.21133902     0             -0.16209235     0.60539167   
   1492500   0.056583414   -0.21554708     0             -0.16888437    -0.015182731  
   1493000   0.052738297   -0.21576622     0             -0.17227447     0.2137412    
   1493500   0.051854091   -0.21473723     0             -0.17197466    -0.13772299   
   1494000   0.055275653   -0.21470318     0             -0.16911895     0.023920629  
   1494500   0.061354331   -0.21528243     0             -0.16468529     0.07027243   
   1495000   0.053378641   -0.21468751     0             -0.17066769     0.27758775   
   1495500   0.054911      -0.21490412     0             -0.16962061    -0.13037524   
   1496000   0.056349261   -0.21574852     0             -0.16927891    -0.047512439  
   1496500   0.053718687   -0.21552102     0             -0.17122077     0.11567298   
   1497000   0.065334157   -0.21426457     0             -0.16038538    -0.1870162    
   1497500   0.061349313   -0.21307114     0             -0.16247813    -0.52013985   
   1498000   0.053320525   -0.21531639     0             -0.1713445      0.3044646    
   1498500   0.063554798   -0.21616666     0             -0.16375486     0.093165923  
   1499000   0.067063129   -0.20987681     0             -0.15457179    -0.098819103  
   1499500   0.064123312   -0.20998727     0             -0.15710664    -0.076966335  
   1500000   0.069545193   -0.21025503     0             -0.15290313    -0.25464526   
   1500500   0.059784706   -0.21136565     0             -0.16206293     0.13517086   
   1501000   0.057867281   -0.21108151     0             -0.16336004    -0.48871495   
   1501500   0.051018108   -0.2147874      0             -0.17271425     0.026382135  
   1502000   0.051915874   -0.21781054     0             -0.17499702     0.061709064  
   1502500   0.049999588   -0.21989283     0             -0.17865962     0.45366472   
   1503000   0.064245464   -0.2187498      0             -0.16576843     0.028291458  
   1503500   0.054824857   -0.22001761     0             -0.17480514    -0.22921753   
   1504000   0.053541858   -0.22085464     0             -0.17670022    -0.13308161   
   1504500   0.051754158   -0.22182887     0             -0.17914872    -0.34160394   
   1505000   0.053914014   -0.22331402     0             -0.17885269     0.5943287    
   1505500   0.062076468   -0.22084165     0             -0.16964898    -0.54384557   
   1506000   0.069425732   -0.2201311      0             -0.16287771    -0.27845416   
   1506500   0.05723273    -0.22131589     0             -0.17411771    -0.060661617  
   1507000   0.06280069    -0.21910921     0             -0.16731929     0.19438843   
   1507500   0.064521176   -0.21757243     0             -0.16436368    -0.20275353   
   1508000   0.06161429    -0.21827249     0             -0.16746097    -0.046938168  
   1508500   0.058695482   -0.21738322     0             -0.16897875    -0.018236121  
   1509000   0.052545634   -0.21879396     0             -0.17546109    -0.057937014  
   1509500   0.059683518   -0.21993311     0             -0.17071384     0.6498011    
   1510000   0.054703721   -0.2187029      0             -0.17359033     0.072378939  
   1510500   0.056856536   -0.22303623     0             -0.17614829    -0.1771517    
   1511000   0.056789886   -0.21994497     0             -0.17311199     0.33608453   
   1511500   0.060310915   -0.21773928     0             -0.16800262     0.77168038   
   1512000   0.072692276   -0.21691879     0             -0.15697158     0.20389731   
   1512500   0.078445558   -0.21504552     0             -0.15035374    -0.34032128   
   1513000   0.069430236   -0.2171824      0             -0.15992529     0.305547     
   1513500   0.062585835   -0.21444472     0             -0.162832      -0.026325677  
   1514000   0.055670558   -0.21552211     0             -0.16961221     0.15455257   
   1514500   0.056700661   -0.21565271     0             -0.16889332    -0.008417506  
   1515000   0.059173573   -0.21632547     0             -0.16752673     0.084052012  
   1515500   0.048675285   -0.21546384     0             -0.17532274     0.80875577   
   1516000   0.05829269    -0.21617847     0             -0.16810617    -0.025490899  
   1516500   0.058454702   -0.21595378     0             -0.16774788    -0.43924797   
   1517000   0.059151647   -0.21392217     0             -0.16514152    -0.30247656   
   1517500   0.057217638   -0.21177707     0             -0.16459134    -0.28522329   
   1518000   0.060399602   -0.21588307     0             -0.16607327     0.098973861  
   1518500   0.065085922   -0.21409653     0             -0.16042205    -0.17643691   
   1519000   0.068667258   -0.21292987     0             -0.15630197     0.37485413   
   1519500   0.057981834   -0.21723599     0             -0.16942005    -0.1610575    
   1520000   0.063477472   -0.21600534     0             -0.1636573      0.14243033   
   1520500   0.05564105    -0.21461507     0             -0.16872951     0.13548445   
   1521000   0.054774209   -0.21632983     0             -0.17115912    -0.081621306  
   1521500   0.057748905   -0.21489898     0             -0.16727513    -0.43009584   
   1522000   0.063450317   -0.21390222     0             -0.16157658    -0.12355361   
   1522500   0.058722414   -0.21548126     0             -0.16705459    -0.075714025  
   1523000   0.052720482   -0.21628708     0             -0.17281002    -0.10161427   
   1523500   0.051833161   -0.21644889     0             -0.17370359    -0.16102039   
   1524000   0.067911151   -0.21549372     0             -0.15948936     0.11730113   
   1524500   0.052725616   -0.2160462      0             -0.17256491     0.3343674    
   1525000   0.056957965   -0.21591739     0             -0.1689458      0.1392527    
   1525500   0.065444258   -0.21626996     0             -0.16229998    -0.50546654   
   1526000   0.056072319   -0.2175434      0             -0.17130218     0.17674499   
   1526500   0.049504747   -0.21608176     0             -0.17525663    -0.32043956   
   1527000   0.066166172   -0.21594622     0             -0.1613809      0.28986597   
   1527500   0.062487144   -0.21635985     0             -0.16482851    -0.079567018  
   1528000   0.053687154   -0.21451447     0             -0.17024023     0.28522457   
   1528500   0.058098136   -0.21807351     0             -0.17016166     0.32896345   
   1529000   0.066690976   -0.21429872     0             -0.1593006     -0.11501059   
   1529500   0.063396125   -0.21306722     0             -0.16078627    -0.39340258   
   1530000   0.062064552   -0.21525769     0             -0.16407485     0.075756994  
   1530500   0.060620941   -0.21428965     0             -0.16429731    -0.42563739   
   1531000   0.066547125   -0.21511074     0             -0.16023125     0.40094219   
   1531500   0.054759989   -0.21687017     0             -0.1717112      0.18644111   
   1532000   0.054480552   -0.2183762      0             -0.17344766    -0.27214221   
   1532500   0.056351513   -0.22177571     0             -0.17530425    -0.12034922   
   1533000   0.050731152   -0.22210533     0             -0.18026882     0.44809755   
   1533500   0.059065858   -0.22269461     0             -0.17398471    -0.4351948    
   1534000   0.061669015   -0.22260907     0             -0.17175242    -0.33879404   
   1534500   0.058225781   -0.22497256     0             -0.17695544     0.27241167   
   1535000   0.069336583   -0.22359568     0             -0.1664158      0.18250961   
   1535500   0.057806978   -0.22251703     0             -0.17484529     0.29430396   
   1536000   0.066521803   -0.22074066     0             -0.16588206     0.10590562   
   1536500   0.056643465   -0.22044293     0             -0.1737307      0.12250112   
   1537000   0.057558892   -0.22290928     0             -0.17544213     0.033669074  
   1537500   0.068160039   -0.22120235     0             -0.16499274     0.091772361  
   1538000   0.066086354   -0.22248608     0             -0.16798658     0.52207994   
   1538500   0.061353782   -0.22242137     0             -0.17182469     0.28841171   
   1539000   0.062324342   -0.2199463      0             -0.16854922     0.16333756   
   1539500   0.053488278   -0.2210578      0             -0.17694757    -0.41078652   
   1540000   0.065561268   -0.22000438     0             -0.1659379      0.11186649   
   1540500   0.056503829   -0.22045343     0             -0.17385636    -0.0058446722 
   1541000   0.065914548   -0.21964173     0             -0.16528391     0.52770205   
   1541500   0.056941635   -0.2218117      0             -0.17485358    -0.28504863   
   1542000   0.048293253   -0.22258851     0             -0.18276246    -0.41631317   
   1542500   0.05065729    -0.22331518     0             -0.18153958    -0.23398095   
   1543000   0.056373719   -0.22305437     0             -0.1765646     -0.1348809    
   1543500   0.058171463   -0.22314119     0             -0.17516887    -0.055655245  
   1544000   0.054224092   -0.22366184     0             -0.1789448     -0.52771406   
   1544500   0.073962049   -0.22130589     0             -0.16031152     0.0087727758 
   1545000   0.068108206   -0.22085192     0             -0.16468505    -0.096855331  
   1545500   0.054691751   -0.2231771      0             -0.1780744      0.45789093   
   1546000   0.050822791   -0.22407847     0             -0.18216639    -0.3210443    
   1546500   0.055892492   -0.22388961     0             -0.17779669    -0.13757636   
   1547000   0.053637025   -0.22640005     0             -0.18216715    -0.17673351   
   1547500   0.051982421   -0.22567335     0             -0.18280495    -0.35488325   
   1548000   0.080484764   -0.22499182     0             -0.15861836    -0.087970026  
   1548500   0.066075814   -0.22515579     0             -0.17066498    -0.068583071  
   1549000   0.062012736   -0.22515226     0             -0.17401215     0.081073789  
   1549500   0.059234842   -0.22474022     0             -0.17589096     0.22061854   
   1550000   0.051602482   -0.22473202     0             -0.18217694    -0.2518825    
   1550500   0.06311993    -0.22428041     0             -0.17222723     0.3855286    
   1551000   0.061833203   -0.22581491     0             -0.17482286     0.034629589  
   1551500   0.08124765    -0.22700566     0             -0.16000308    -0.14666664   
   1552000   0.063347194   -0.22329789     0             -0.1710573      0.33147639   
   1552500   0.060656994   -0.22381258     0             -0.17379051    -0.13766316   
   1553000   0.052591007   -0.22523075     0             -0.18186046     0.17019148   
   1553500   0.050847975   -0.22635456     0             -0.18442171    -0.52196744   
   1554000   0.052560275   -0.2264818      0             -0.18313686    -0.21495196   
   1554500   0.049453663   -0.22656986     0             -0.18578686     0.42374547   
   1555000   0.048162233   -0.22964255     0             -0.18992455    -0.42774705   
   1555500   0.04881162    -0.23098454     0             -0.19073101    -0.14053523   
   1556000   0.059079318   -0.22784299     0             -0.17912199     0.37637824   
   1556500   0.066258063   -0.22363821     0             -0.1689971     -0.12469401   
   1557000   0.056354732   -0.22333568     0             -0.17686157    -0.42391961   
   1557500   0.064768206   -0.22102856     0             -0.16761609     0.17170868   
   1558000   0.065380178   -0.22209223     0             -0.16817509    -0.085578214  
   1558500   0.06022313    -0.22453108     0             -0.17486681     0.18540475   
   1559000   0.077450238   -0.22027502     0             -0.15640405     0.11000272   
   1559500   0.059387721   -0.22065531     0             -0.17167998    -0.18051066   
   1560000   0.060911084   -0.2223513      0             -0.17211969     0.059292319  
   1560500   0.068812962   -0.2174786      0             -0.16073055     0.11685825   
   1561000   0.067607267   -0.21825181     0             -0.16249805     0.045756266  
   1561500   0.059491724   -0.21815655     0             -0.16909545     0.032624713  
   1562000   0.051690782   -0.21876713     0             -0.17613924     0.14743944   
   1562500   0.066902269   -0.21771949     0             -0.16254713    -0.13578435   
   1563000   0.053633541   -0.21692123     0             -0.1726912      0.23134651   
   1563500   0.060171097   -0.21567457     0             -0.16605321     0.41885943   
   1564000   0.054304368   -0.21746268     0             -0.17267944    -0.29574444   
   1564500   0.076143475   -0.21600985     0             -0.15321653     0.28289372   
   1565000   0.05929141    -0.21516688     0             -0.16627097     0.31347114   
   1565500   0.052164433   -0.21609637     0             -0.17307787     0.38202472   
   1566000   0.053339625   -0.21642743     0             -0.17243979     0.10313237   
   1566500   0.062825909   -0.21758566     0             -0.16577495    -0.18897855   
   1567000   0.056483163   -0.21481077     0             -0.16823074     0.39590532   
   1567500   0.058844838   -0.21369038     0             -0.16516274    -0.29040028   
   1568000   0.052305996   -0.21544549     0             -0.17231025     0.22847889   
   1568500   0.048712493   -0.21694366     0             -0.17677188    -0.648258     
   1569000   0.054215193   -0.2188743      0             -0.1741646      0.078608952  
   1569500   0.050439661   -0.2200149      0             -0.17841877     0.023503048  
   1570000   0.049026291   -0.22232228     0             -0.18189171    -0.365737     
   1570500   0.054485251   -0.22240042     0             -0.17746801    -0.33911914   
   1571000   0.052227112   -0.2234459      0             -0.18037571    -0.23179544   
   1571500   0.052331508   -0.22400028     0             -0.180844      -0.060729704  
   1572000   0.062245652   -0.22244598     0             -0.17111379    -0.49563319   
   1572500   0.058600627   -0.22192991     0             -0.17360367    -0.057135839  
   1573000   0.058410374   -0.221271       0             -0.17310166     0.048190007  
   1573500   0.075194369   -0.21253234     0             -0.15052172    -0.097862971  
   1574000   0.085912736   -0.21009242     0             -0.13924268     0.091242219  
   1574500   0.062822093   -0.21237353     0             -0.16056596    -0.10450196   
   1575000   0.058151782   -0.21255251     0             -0.16459642    -0.039118722  
   1575500   0.056831884   -0.213369       0             -0.16650139    -0.15813964   
   1576000   0.065133297   -0.21341857     0             -0.15970503     0.039627796  
   1576500   0.061683008   -0.21570091     0             -0.16483272    -0.21834569   
   1577000   0.057028024   -0.21540952     0             -0.16838016    -0.026490358  
   1577500   0.051784718   -0.21684059     0             -0.17413524    -0.062120869  
   1578000   0.056686121   -0.21522531     0             -0.1684779      0.21203619   
   1578500   0.065647991   -0.21702533     0             -0.16288733     0.68927634   
   1579000   0.05688615    -0.21702118     0             -0.17010882    -0.375843     
   1579500   0.061500929   -0.21644128     0             -0.16572324    -0.19217543   
   1580000   0.05905762    -0.21725102     0             -0.16854791     0.16226112   
   1580500   0.065977151   -0.21743603     0             -0.16302658    -0.17703121   
   1581000   0.057025638   -0.21870929     0             -0.1716819      0.39684983   
   1581500   0.060618339   -0.21648574     0             -0.16649555    -0.1851982    
   1582000   0.055540336   -0.21611842     0             -0.17031591    -0.04008529   
   1582500   0.061321381   -0.21789299     0             -0.16732303     0.079218209  
   1583000   0.060680666   -0.21872668     0             -0.16868509     0.33973134   
   1583500   0.05564376    -0.22047436     0             -0.17458656     0.16574346   
   1584000   0.067557403   -0.21987294     0             -0.1641603      0.58819281   
   1584500   0.063351873   -0.21971148     0             -0.16746702     0.10642354   
   1585000   0.053264105   -0.22209295     0             -0.17816758    -0.014007485  
   1585500   0.059040752   -0.22076897     0             -0.17207977     0.0071869784 
   1586000   0.054520974   -0.22247155     0             -0.17750968     0.25214466   
   1586500   0.054182998   -0.2243093      0             -0.17962615    -0.3242573    
   1587000   0.065029432   -0.21970821     0             -0.16608032     0.29505128   
   1587500   0.067134976   -0.22060988     0             -0.16524561     0.095226977  
   1588000   0.068895502   -0.21904376     0             -0.16222763     0.59929389   
   1588500   0.068775101   -0.21883054     0             -0.16211371    -0.35107552   
   1589000   0.061090919   -0.22091611     0             -0.17053619     0.23888986   
   1589500   0.065948569   -0.21838185     0             -0.16399598    -0.33148209   
   1590000   0.055038129   -0.22027687     0             -0.17488852     0.25945179   
   1590500   0.052393207   -0.22029698     0             -0.17708982    -0.054962659  
   1591000   0.051949803   -0.21854244     0             -0.17570094    -0.040376392  
   1591500   0.055914425   -0.2211588      0             -0.17504779    -0.25752261   
   1592000   0.069140527   -0.21480028     0             -0.15778208    -0.071115508  
   1592500   0.062336544   -0.21763188     0             -0.16622474     0.06556784   
   1593000   0.060322789   -0.21432241     0             -0.16457595     0.13226895   
   1593500   0.067559564   -0.21323652     0             -0.1575221     -0.080592531  
   1594000   0.056860393   -0.21620471     0             -0.16931359     0.090864817  
   1594500   0.057032392   -0.21617083     0             -0.16913786    -0.098194798  
   1595000   0.067524891   -0.21207165     0             -0.15638583     0.11161913   
   1595500   0.063730038   -0.21240387     0             -0.15984755    -0.024535722  
   1596000   0.06945727    -0.2134863      0             -0.1562069     -0.13486492   
   1596500   0.06607857    -0.21370988     0             -0.1592168      0.19396932   
   1597000   0.058068397   -0.21302882     0             -0.16514149     0.15768784   
   1597500   0.057259655   -0.21292529     0             -0.16570491     0.065748482  
   1598000   0.05581146    -0.21317089     0             -0.1671448     -0.29520172   
   1598500   0.062203178   -0.21260407     0             -0.16130691     0.36043126   
   1599000   0.053405823   -0.21230652     0             -0.16826428    -0.18227488   
   1599500   0.057346859   -0.21331827     0             -0.16602598     0.74022085   
   1600000   0.052374815   -0.21745627     0             -0.17426428    -0.212672     
   1600500   0.05305936    -0.21452882     0             -0.1707723     -0.092439191  
   1601000   0.054536679   -0.21578314     0             -0.17080832     0.26366056   
   1601500   0.050559987   -0.2151469      0             -0.17345154    -0.24177025   
   1602000   0.061274892   -0.21587162     0             -0.16533999     0.01167781   
   1602500   0.083016855   -0.21472887     0             -0.14626727     0.26465396   
   1603000   0.058852565   -0.21526828     0             -0.16673427    -0.041256913  
   1603500   0.052552917   -0.21588168     0             -0.17254281    -0.068516804  
   1604000   0.070581632   -0.21371209     0             -0.15550546    -0.28423362   
   1604500   0.068572697   -0.21522961     0             -0.15867969     0.051479956  
   1605000   0.055998685   -0.21779465     0             -0.17161416    -0.38400385   
   1605500   0.050253715   -0.21533625     0             -0.17389347    -0.48280555   
   1606000   0.055212673   -0.21638065     0             -0.17084836    -0.31454218   
   1606500   0.049662403   -0.21759796     0             -0.17664281     0.41731668   
   1607000   0.053802076   -0.21748986     0             -0.17312084    -0.11941568   
   1607500   0.054608098   -0.21740548     0             -0.17237177     0.40732443   
   1608000   0.050604122   -0.2205655      0             -0.17883375    -0.20626046   
   1608500   0.049142377   -0.22118398     0             -0.18065769    -0.17533708   
   1609000   0.068365892   -0.22152485     0             -0.16514547     0.40373344   
   1609500   0.055925685   -0.21844351     0             -0.17232322    -0.050499023  
   1610000   0.066899702   -0.21495534     0             -0.1597851      0.25695275   
   1610500   0.055300509   -0.21817752     0             -0.17257279     0.045202312  
   1611000   0.062675497   -0.21652476     0             -0.16483809    -0.71469837   
   1611500   0.055512807   -0.21777646     0             -0.17199666     0.076956802  
   1612000   0.074201391   -0.21654044     0             -0.1553487     -0.10250557   
   1612500   0.05918096    -0.21778035     0             -0.16897552    -0.33661938   
   1613000   0.054479244   -0.21880352     0             -0.17387607     0.49312392   
   1613500   0.073387239   -0.21763192     0             -0.15711159     0.071153566  
   1614000   0.074670919   -0.21519582     0             -0.15361688     0.36808665   
   1614500   0.064415306   -0.2152716      0             -0.16215017     0.35801022   
   1615000   0.076800851   -0.21317377     0             -0.14983833    -0.0086932789 
   1615500   0.089105695   -0.2115711      0             -0.13808822     0.34868848   
   1616000   0.092452544   -0.21082165     0             -0.13457871    -0.0034202691 
   1616500   0.07900107    -0.21178393     0             -0.14663403    -0.28253531   
   1617000   0.089446437   -0.2085059      0             -0.13474202     0.065091074  
   1617500   0.065122307   -0.20805831     0             -0.15435383    -0.041860367  
   1618000   0.058006587   -0.21133785     0             -0.1635015      0.0033785398 
   1618500   0.058061596   -0.21195421     0             -0.1640725     -0.32489272   
   1619000   0.068546498   -0.21073695     0             -0.15420864    -0.18676355   
   1619500   0.066572393   -0.21134096     0             -0.15644063    -0.24977643   
   1620000   0.063597687   -0.20981915     0             -0.15737197     0.50859829   
   1620500   0.064092991   -0.20763527     0             -0.15477964     0.052406846  
   1621000   0.064057878   -0.21280619     0             -0.15997951    -0.29595566   
   1621500   0.07148467    -0.21278195     0             -0.15383061     0.45311426   
   1622000   0.061599415   -0.21065422     0             -0.15985496    -0.30281335   
   1622500   0.05460979    -0.21471275     0             -0.16967764    -0.079285085  
   1623000   0.050006905   -0.21531577     0             -0.17407653     0.58686447   
   1623500   0.049789894   -0.21776713     0             -0.17670684     0.45446975   
   1624000   0.060465041   -0.21468815     0             -0.16482438     0.31619688   
   1624500   0.067721545   -0.21677131     0             -0.16092331    -0.0045678992 
   1625000   0.066127999   -0.21285784     0             -0.158324       0.22471273   
   1625500   0.066833483   -0.21465375     0             -0.15953811     0.016981615  
   1626000   0.067069131   -0.21604764     0             -0.16073767     0.2757439    
   1626500   0.073142634   -0.21281121     0             -0.1524926     -0.46278447   
   1627000   0.07160878    -0.21180862     0             -0.15275493     0.087572632  
   1627500   0.055620574   -0.21346094     0             -0.16759227    -0.19334901   
   1628000   0.055694415   -0.21374055     0             -0.16781097     0.011125465  
   1628500   0.051409063   -0.21232929     0             -0.16993372     0.2773896    
   1629000   0.05577525    -0.21190953     0             -0.16591329    -0.083294731  
   1629500   0.059687589   -0.21560453     0             -0.16638191     0.15495874   
   1630000   0.053897674   -0.21781216     0             -0.17336431     0.29704044   
   1630500   0.059365798   -0.21590109     0             -0.16694383    -0.26192852   
   1631000   0.072213639   -0.21601477     0             -0.15646228    -0.090094445  
   1631500   0.086374452   -0.2129987      0             -0.14176819    -0.042959189  
   1632000   0.071620821   -0.21335911     0             -0.1542955      0.049073794  
   1632500   0.086531474   -0.2117298      0             -0.14036979    -0.23915676   
   1633000   0.088236977   -0.20814642     0             -0.13537994     0.035486746  
   1633500   0.079904088   -0.20657991     0             -0.14068532     0.27849185   
   1634000   0.063454786   -0.20892815     0             -0.15659883     0.076305186  
   1634500   0.062584668   -0.21004822     0             -0.15843645     0.56183453   
   1635000   0.061394426   -0.21062672     0             -0.15999651     0.35882522   
   1635500   0.053323232   -0.21359041     0             -0.16961629    -0.019093252  
   1636000   0.053735477   -0.21335982     0             -0.16904573     0.032403143  
   1636500   0.061426059   -0.21274038     0             -0.16208408     0.52630598   
   1637000   0.068608625   -0.20820609     0             -0.15162654    -0.31961451   
   1637500   0.068235638   -0.21067846     0             -0.15440651    -0.20524174   
   1638000   0.065552223   -0.2118664      0             -0.15780738     0.2230691    
   1638500   0.064738892   -0.211262       0             -0.15787371     0.22767388   
   1639000   0.061213665   -0.21293244     0             -0.1624513      0.78410745   
   1639500   0.061409142   -0.21236064     0             -0.1617183     -0.70938325   
   1640000   0.05429341    -0.21281424     0             -0.16804003     0.18389696   
   1640500   0.066614281   -0.20919911     0             -0.15426424     0.12391529   
   1641000   0.060167609   -0.21372971     0             -0.16411123    -0.12232448   
   1641500   0.061049169   -0.21272347     0             -0.16237798    -0.2409126    
   1642000   0.056559926   -0.21295493     0             -0.16631159    -0.022912199  
   1642500   0.055992931   -0.21318875     0             -0.16701301    -0.49522928   
   1643000   0.065152735   -0.21178778     0             -0.1580582     -0.16716426   
   1643500   0.07264877    -0.20819615     0             -0.14828481    -0.071957664  
   1644000   0.060163539   -0.21350638     0             -0.16389126    -0.053441145  
   1644500   0.056859999   -0.21392357     0             -0.16703277    -0.067967321  
   1645000   0.064972867   -0.21318202     0             -0.15960078     0.57527766   
   1645500   0.056319244   -0.21698957     0             -0.17054472    -0.25712722   
   1646000   0.054497624   -0.21596543     0             -0.17102282    -0.15810504   
   1646500   0.081537918   -0.21034267     0             -0.14310071     0.3728087    
   1647000   0.083919711   -0.20954363     0             -0.14033747    -0.33724063   
   1647500   0.077063144   -0.20392714     0             -0.14037539    -0.44213522   
   1648000   0.071365017   -0.20600926     0             -0.14715659    -0.32907528   
   1648500   0.057288205   -0.20914556     0             -0.16190163     0.2020425    
   1649000   0.057299513   -0.20762172     0             -0.16036847    -0.2646799    
   1649500   0.065444972   -0.20798094     0             -0.15401037    -0.27124071   
   1650000   0.066689877   -0.20453227     0             -0.14953506     0.6922029    
   1650500   0.070682381   -0.2034902      0             -0.14520049     0.27592054   
   1651000   0.057313275   -0.20479196     0             -0.15752736     0.50132441   
   1651500   0.072273436   -0.20309412     0             -0.14349231    -0.59682503   
   1652000   0.070998393   -0.20223464     0             -0.14368433    -0.020562889  
   1652500   0.081437521   -0.20218563     0             -0.13502646     0.035642371  
   1653000   0.068628048   -0.20646245     0             -0.14986689     0.31659114   
   1653500   0.063236329   -0.20661703     0             -0.15446786     0.026708199  
   1654000   0.068163289   -0.20583246     0             -0.14962017    -0.34139543   
   1654500   0.067041841   -0.20460637     0             -0.1493189     -0.085418099  
   1655000   0.066830983   -0.20705051     0             -0.15193694    -0.402558     
   1655500   0.063795833   -0.20849552     0             -0.15588495     0.25795505   
   1656000   0.06655415    -0.20606754     0             -0.15118226     0.18012523   
   1656500   0.058095073   -0.210697       0             -0.16278768    -0.21745377   
   1657000   0.072247452   -0.20687174     0             -0.14729136     0.10892213   
   1657500   0.063385956   -0.20816848     0             -0.15589592    -0.21911281   
   1658000   0.075271628   -0.20420691     0             -0.14213258    -0.19111269   
   1658500   0.061577218   -0.20578868     0             -0.15500773     0.025436837  
   1659000   0.067790992   -0.20913474     0             -0.15322947     0.12093387   
   1659500   0.06116836    -0.20790335     0             -0.15745957    -0.39728947   
   1660000   0.055294141   -0.20855427     0             -0.16295479     0.13370176   
   1660500   0.05641163    -0.20754507     0             -0.16102403    -0.0022020497 
   1661000   0.070734311   -0.2061553      0             -0.14782277    -0.63617198   
   1661500   0.061855818   -0.2079264      0             -0.1569157      0.17538579   
   1662000   0.064560176   -0.20816394     0             -0.15492303     0.2168234    
   1662500   0.0576004     -0.20801754     0             -0.16051616     0.28157761   
   1663000   0.062667398   -0.20714059     0             -0.1554606     -0.19635151   
   1663500   0.07023484    -0.20637716     0             -0.14845652     0.29708201   
   1664000   0.072265427   -0.20425942     0             -0.14466421     0.11841316   
   1664500   0.058884597   -0.20887027     0             -0.16030985    -0.19863304   
   1665000   0.054182847   -0.21056706     0             -0.16588404    -0.20423494   
   1665500   0.055479843   -0.21048638     0             -0.16473376    -0.22007398   
   1666000   0.070443769   -0.20774055     0             -0.14964762    -0.16084446   
   1666500   0.077830934   -0.20755805     0             -0.14337313     0.42586703   
   1667000   0.06264167    -0.2083854      0             -0.15672663     0.31283711   
   1667500   0.081933997   -0.20830605     0             -0.14073745     0.18486863   
   1668000   0.056795241   -0.20888591     0             -0.16204852    -0.45462509   
   1668500   0.071435371   -0.20855261     0             -0.14964192    -0.44525183   
   1669000   0.068119519   -0.20808083     0             -0.15190464    -0.16217755   
   1669500   0.059252932   -0.20974254     0             -0.16087836    -0.12024027   
   1670000   0.059565452   -0.20998057     0             -0.16085867     0.065414     
   1670500   0.055628379   -0.21176608     0             -0.16589097     0.15588764   
   1671000   0.052324688   -0.21416486     0             -0.17101421    -0.21399999   
   1671500   0.051261415   -0.21416399     0             -0.17189019     0.17925174   
   1672000   0.059000268   -0.21267234     0             -0.16401653     0.25443017   
   1672500   0.067708372   -0.21195556     0             -0.15611843    -0.28697524   
   1673000   0.056763413   -0.21409123     0             -0.16728008     0.081150634  
   1673500   0.056391878   -0.21559435     0             -0.1690896     -0.09925044   
   1674000   0.06036271    -0.21444535     0             -0.16466597     0.24471097   
   1674500   0.060789172   -0.21433544     0             -0.16420437    -0.21316612   
   1675000   0.067440437   -0.21333076     0             -0.15771458     0.24974902   
   1675500   0.056672111   -0.21362426     0             -0.16688841    -0.46138845   
   1676000   0.059331436   -0.21063546     0             -0.16170654     0.22246243   
   1676500   0.074817853   -0.20854328     0             -0.14684316    -0.31409388   
   1677000   0.081062923   -0.20884785     0             -0.1419976      0.10408359   
   1677500   0.07753815    -0.2099748      0             -0.14603133     0.20585819   
   1678000   0.069179549   -0.20887014     0             -0.15181976     0.12571087   
   1678500   0.067498811   -0.20867912     0             -0.15301481     0.20886698   
   1679000   0.061066962   -0.21226771     0             -0.16190756    -0.23227921   
   1679500   0.055345307   -0.21150746     0             -0.16586578     0.63007341   
   1680000   0.073356937   -0.2107534      0             -0.15025806     0.011778636  
   1680500   0.064120253   -0.21162748     0             -0.15874937     0.022154006  
   1681000   0.063403423   -0.21221886     0             -0.15993189     0.11404947   
   1681500   0.063208292   -0.21226033     0             -0.16013428    -0.053075125  
   1682000   0.068773769   -0.21397685     0             -0.15726111     0.14348275   
   1682500   0.060679431   -0.21488706     0             -0.16484649    -0.10848812   
   1683000   0.073061969   -0.21106498     0             -0.15081289     0.27213989   
   1683500   0.091627993   -0.21016572     0             -0.13460277     0.094469973  
   1684000   0.066325181   -0.21031646     0             -0.15562        0.093281499  
   1684500   0.058560746   -0.20913322     0             -0.16083987     0.022188517  
   1685000   0.062160805   -0.21094108     0             -0.15967887     0.23393898   
   1685500   0.063468444   -0.20980654     0             -0.15746595     0.053357038  
   1686000   0.055991615   -0.20858474     0             -0.16241008     0.014141231  
   1686500   0.066755298   -0.20776582     0             -0.15271466    -0.016126142  
   1687000   0.056896662   -0.20828942     0             -0.16136839     0.15803265   
   1687500   0.071725932   -0.20519767     0             -0.14604737     0.26186309   
   1688000   0.057158211   -0.2093092      0             -0.16217248    -0.2136329    
   1688500   0.05818934    -0.21017956     0             -0.16219249     0.014932625  
   1689000   0.071794308   -0.20708372     0             -0.14787703    -0.33166326   
   1689500   0.065954334   -0.20877029     0             -0.15437966    -0.29528096   
   1690000   0.073041772   -0.20592142     0             -0.14568598    -0.1198157    
   1690500   0.064037775   -0.20650592     0             -0.15369582     0.14453297   
   1691000   0.059180133   -0.20700352     0             -0.15819937    -0.19352101   
   1691500   0.059548824   -0.20867324     0             -0.15956505    -0.052054891  
   1692000   0.082161473   -0.20375122     0             -0.13599504     0.360225     
   1692500   0.075519276   -0.20939445     0             -0.14711589     0.075749131  
   1693000   0.073083146   -0.20559149     0             -0.14532193    -0.11693846   
   1693500   0.067942655   -0.20793092     0             -0.15190057     0.26118974   
   1694000   0.056760116   -0.20753008     0             -0.16072166     0.10500688   
   1694500   0.059363007   -0.20965533     0             -0.16070038     0.38020043   
   1695000   0.053966624   -0.21131057     0             -0.16680586    -0.17685683   
   1695500   0.050778258   -0.21388457     0             -0.17200921     0.39256042   
   1696000   0.056947577   -0.21205866     0             -0.16509565    -0.24810496   
   1696500   0.063460019   -0.21609245     0             -0.16375881    -0.10847788   
   1697000   0.055432153   -0.21454023     0             -0.16882694    -0.024940291  
   1697500   0.051388161   -0.21317171     0             -0.17079338     0.13970149   
   1698000   0.061355531   -0.2146377      0             -0.16403957    -0.029784758  
   1698500   0.060034192   -0.21085647     0             -0.16134801     0.29118324   
   1699000   0.055756678   -0.21235823     0             -0.16637732     0.15169306   
   1699500   0.060016663   -0.21488745     0             -0.16539344     0.09435473   
   1700000   0.067948384   -0.21101728     0             -0.15498221    -0.14105526   
   1700500   0.070304522   -0.20696355     0             -0.14898544    -0.10618591   
   1701000   0.057532123   -0.20646599     0             -0.15902092     0.0064162393 
   1701500   0.066165339   -0.20671663     0             -0.152152      -0.39060716   
   1702000   0.059019193   -0.20776014     0             -0.15908872     0.56446108   
   1702500   0.053726368   -0.20673038     0             -0.1624238     -0.13014572   
   1703000   0.062624019   -0.20584917     0             -0.15420496    -0.6785967    
   1703500   0.056118592   -0.2063673      0             -0.16008792     0.24733149   
   1704000   0.068175358   -0.20776892     0             -0.15154667    -0.16038977   
   1704500   0.059072297   -0.20710411     0             -0.1583889     -0.03432509   
   1705000   0.055982855   -0.20730787     0             -0.16114043    -0.18955356   
   1705500   0.053236724   -0.20962453     0             -0.16572174    -0.15656705   
   1706000   0.058868098   -0.20734852     0             -0.1588017      0.30662614   
   1706500   0.057718769   -0.20450676     0             -0.15690776    -0.17573049   
   1707000   0.067981503   -0.20577769     0             -0.14971531    -0.13170207   
   1707500   0.062842635   -0.20469153     0             -0.15286703    -0.1254884    
   1708000   0.0577436     -0.20527924     0             -0.15765976    -0.55522202   
   1708500   0.052998608   -0.20657305     0             -0.16286663     0.066709648  
   1709000   0.052029566   -0.20636182     0             -0.16345455     0.102062     
   1709500   0.054562444   -0.20602547     0             -0.16102941     0.33716861   
   1710000   0.05239781    -0.206882       0             -0.16367104    -0.28335878   
   1710500   0.067138557   -0.20242644     0             -0.14705921     0.52712421   
   1711000   0.062042324   -0.20065081     0             -0.1494863     -0.11588861   
   1711500   0.057939498   -0.20156715     0             -0.15378613    -0.3087616    
   1712000   0.057097657   -0.20003405     0             -0.15294727    -0.54906074   
   1712500   0.064581648   -0.20082629     0             -0.14756768    -0.045447044  
   1713000   0.084133023   -0.19812909     0             -0.12874703     0.2109083    
   1713500   0.06645873    -0.19917061     0             -0.14436402    -0.03440141   
   1714000   0.07837154    -0.19619847     0             -0.13156773     0.1990616    
   1714500   0.063218558   -0.19705916     0             -0.14492464    -0.24062242   
   1715000   0.064102176   -0.19853388     0             -0.14567067    -0.10666226   
   1715500   0.058509738   -0.19739527     0             -0.14914398    -0.1878442    
   1716000   0.060528455   -0.19990136     0             -0.1499853     -0.29095751   
   1716500   0.053208136   -0.2005058      0             -0.15662659     0.13017457   
   1717000   0.058398945   -0.20106907     0             -0.15290915     0.073521296  
   1717500   0.063963002   -0.20284625     0             -0.15009781    -0.10565476   
   1718000   0.06661645    -0.20257274     0             -0.14763608    -0.081041679  
   1718500   0.065919417   -0.20211449     0             -0.14775265    -0.39276641   
   1719000   0.054222273   -0.20187691     0             -0.15716137     0.021037914  
   1719500   0.061117702   -0.20264414     0             -0.15224214     0.048028238  
   1720000   0.067359821   -0.20073469     0             -0.145185       0.23673151   
   1720500   0.064418957   -0.19940179     0             -0.14627734    -0.28889599   
   1721000   0.053177749   -0.20086089     0             -0.15700674     0.10310699   
   1721500   0.054716537   -0.20240695     0             -0.15728381     0.020727821  
   1722000   0.05186785    -0.20134698     0             -0.15857306    -0.1716231    
   1722500   0.075415156   -0.20033801     0             -0.13814531     0.084470661  
   1723000   0.071875612   -0.1989294      0             -0.13965566    -0.48810239   
   1723500   0.062050714   -0.19852395     0             -0.14735252    -0.66248148   
   1724000   0.065018097   -0.19820759     0             -0.14458904    -0.034244287  
   1724500   0.068100063   -0.20060484     0             -0.14444469    -0.10594083   
   1725000   0.081282488   -0.19917202     0             -0.13214071     0.5321082    
   1725500   0.061776534   -0.19916369     0             -0.14821837    -0.045505239  
   1726000   0.059844178   -0.19780917     0             -0.14845741    -0.20911351   
   1726500   0.058376107   -0.20060703     0             -0.15246594     0.11204755   
   1727000   0.064837039   -0.20000512     0             -0.14653589    -0.40555693   
   1727500   0.057649653   -0.20103321     0             -0.15349121    -0.18830726   
   1728000   0.053421742   -0.19963765     0             -0.15558229     0.42902702   
   1728500   0.057291523   -0.20102924     0             -0.15378258    -0.42853761   
   1729000   0.059338909   -0.2023871      0             -0.15345202    -0.16575755   
   1729500   0.05367948    -0.20198874     0             -0.15772083    -0.28410758   
   1730000   0.058760005   -0.20324726     0             -0.15478958    -0.27545469   
   1730500   0.059873156   -0.2018141      0             -0.15243845     0.12713023   
   1731000   0.053122857   -0.20647828     0             -0.1626694     -0.12223752   
   1731500   0.054315258   -0.2069155      0             -0.16212328    -0.037724043  
   1732000   0.061492132   -0.20552264     0             -0.15481186    -0.034101675  
   1732500   0.05109527    -0.20769177     0             -0.16555498    -0.21407995   
   1733000   0.053780632   -0.20973454     0             -0.16538321    -0.139415     
   1733500   0.050531822   -0.20955982     0             -0.16788769     0.33932083   
   1734000   0.056962974   -0.2081683      0             -0.16119258    -0.17945663   
   1734500   0.051761327   -0.21086483     0             -0.16817876    -0.32267838   
   1735000   0.061287215   -0.20590692     0             -0.15536513     0.20505991   
   1735500   0.066104632   -0.20710041     0             -0.15258583    -0.13959094   
   1736000   0.064841722   -0.20537969     0             -0.1519066      0.059986564  
   1736500   0.064478462   -0.20444816     0             -0.15127464    -0.094433618  
   1737000   0.057904594   -0.20759332     0             -0.15984108     0.036557921  
   1737500   0.064575929   -0.20991586     0             -0.15666196    -0.25656057   
   1738000   0.06394775    -0.20548975     0             -0.15275389     0.26276815   
   1738500   0.055933984   -0.20665018     0             -0.16052304    -0.20369769   
   1739000   0.059021564   -0.20461897     0             -0.1559456      0.0025654822 
   1739500   0.060454388   -0.20336877     0             -0.15351378     0.36408499   
   1740000   0.05743539    -0.20646218     0             -0.15909688     0.3107773    
   1740500   0.078838816   -0.20464487     0             -0.13962879    -0.097940224  
   1741000   0.059667549   -0.20697164     0             -0.15776554    -0.14459733   
   1741500   0.05338182    -0.20901044     0             -0.164988      -0.026993928  
   1742000   0.051188766   -0.2126955      0             -0.1704816      0.26286686   
   1742500   0.058744226   -0.21023994     0             -0.16179528     0.76038641   
   1743000   0.068194652   -0.21037235     0             -0.1541342      0.069978883  
   1743500   0.068415157   -0.21190787     0             -0.15548787     0.55040555   
   1744000   0.056881141   -0.21483785     0             -0.16792962     0.071777827  
   1744500   0.05205196    -0.21648799     0             -0.17356225     0.10535659   
   1745000   0.072359204   -0.21503229     0             -0.15535975    -0.65864041   
   1745500   0.061105952   -0.21610681     0             -0.1657145     -0.26432227   
   1746000   0.056580245   -0.21754432     0             -0.17088422     0.20341366   
   1746500   0.052884817   -0.21974573     0             -0.17613315    -0.37771561   
   1747000   0.052067458   -0.22123218     0             -0.17829366     0.16364939   
   1747500   0.051776368   -0.22083605     0             -0.17813758     0.30961455   
   1748000   0.049427321   -0.21927054     0             -0.17850926     0.052380101  
   1748500   0.056589098   -0.21970934     0             -0.17304194    -0.19320793   
   1749000   0.059176451   -0.21997279     0             -0.17117168    -0.3161503    
   1749500   0.056049398   -0.22201465     0             -0.17579233    -0.44686429   
   1750000   0.052279738   -0.22022301     0             -0.17710942     0.26937019   
   1750500   0.052649029   -0.22322005     0             -0.17980192    -0.09634776   
   1751000   0.075221094   -0.22020661     0             -0.15817396     0.16213221   
   1751500   0.060085189   -0.21986953     0             -0.17031902    -0.19563017   
   1752000   0.054746816   -0.21998244     0             -0.17483433    -0.33144665   
   1752500   0.056233714   -0.22011727     0             -0.17374296     0.72580746   
   1753000   0.058461196   -0.22260866     0             -0.1743974     -0.4038664    
   1753500   0.067577073   -0.22112976     0             -0.1654009      0.37974055   
   1754000   0.064028543   -0.21954889     0             -0.16674641     0.29584324   
   1754500   0.063236649   -0.21774917     0             -0.16559973    -0.096444067  
   1755000   0.061748468   -0.21799009     0             -0.16706792    -0.020927174  
   1755500   0.068489472   -0.21984919     0             -0.1633679     -0.31248476   
   1756000   0.065582663   -0.21948213     0             -0.16539801    -0.24294237   
   1756500   0.058925856   -0.22310201     0             -0.17450756     0.004344413  
   1757000   0.066019395   -0.2193183      0             -0.16487402    -0.21954216   
   1757500   0.065984093   -0.22050904     0             -0.16609387     0.12788051   
   1758000   0.065426091   -0.22018366     0             -0.16622865     0.47037074   
   1758500   0.073496795   -0.21561964     0             -0.15500896    -0.12184794   
   1759000   0.059025277   -0.21851809     0             -0.16984165     0.33448744   
   1759500   0.054519755   -0.21585673     0             -0.17089586     0.12968198   
   1760000   0.060885446   -0.21550012     0             -0.16528965     0.49044548   
   1760500   0.065081033   -0.21482157     0             -0.16115113    -0.34087416   
   1761000   0.078319208   -0.20958777     0             -0.14500018    -0.16491546   
   1761500   0.072200483   -0.21338597     0             -0.15384432    -0.31349994   
   1762000   0.061157455   -0.21574896     0             -0.16531418     0.1083244    
   1762500   0.059147814   -0.21389877     0             -0.16512128    -0.49157489   
   1763000   0.05374631    -0.21554323     0             -0.1712202     -0.092080081  
   1763500   0.080868979   -0.21210157     0             -0.14541126     0.45252682   
   1764000   0.064591705   -0.21240341     0             -0.1591365      0.35677729   
   1764500   0.054564712   -0.21373404     0             -0.16873611    -0.23189638   
   1765000   0.060024526   -0.21412351     0             -0.16462302    -0.84324149   
   1765500   0.06232363    -0.21533204     0             -0.16393554    -0.28637614   
   1766000   0.066493167   -0.21211142     0             -0.15727643     0.026115251  
   1766500   0.057479073   -0.21330965     0             -0.16590832     0.0024441771 
   1767000   0.067582824   -0.21306591     0             -0.15733231     0.13615177   
   1767500   0.059085663   -0.21042779     0             -0.16170155     0.025918461  
   1768000   0.058888903   -0.21181041     0             -0.16324643    -0.47299209   
   1768500   0.060425943   -0.20698352     0             -0.157152       0.68290702   
   1769000   0.060794832   -0.21093539     0             -0.16079965    -0.15743108   
   1769500   0.061421708   -0.20699208     0             -0.15633938     0.28629357   
   1770000   0.060934583   -0.21199311     0             -0.16174212     0.63870547   
   1770500   0.065833727   -0.20892175     0             -0.15463058     0.23298159   
   1771000   0.06474016    -0.20719236     0             -0.15380302     0.024426101  
   1771500   0.068991282   -0.20906213     0             -0.15216702     0.14400476   
   1772000   0.062769586   -0.21053153     0             -0.15876727     0.14391441   
   1772500   0.065184079   -0.20744544     0             -0.15369001     0.16835254   
   1773000   0.063947706   -0.20826561     0             -0.15552979     0.097656955  
   1773500   0.059329452   -0.20534874     0             -0.15642146     0.082460965  
   1774000   0.062605227   -0.20912038     0             -0.15749167    -0.50131668   
   1774500   0.053880191   -0.21084187     0             -0.16640844     0.20728167   
   1775000   0.075482714   -0.20675348     0             -0.14450507     0.13535017   
   1775500   0.069075829   -0.20540264     0             -0.14843781     0.063397688  
   1776000   0.056793196   -0.20650916     0             -0.15967346    -0.079306413  
   1776500   0.053901699   -0.20938049     0             -0.16492932     0.1524004    
   1777000   0.058403836   -0.21056956     0             -0.16240561    -0.32460014   
   1777500   0.052331214   -0.21063931     0             -0.16748327     0.32628749   
   1778000   0.050358508   -0.21173295     0             -0.17020374    -0.11850879   
   1778500   0.064507055   -0.21081974     0             -0.15762264    -0.25982113   
   1779000   0.059145121   -0.20945938     0             -0.16068411     0.075335891  
   1779500   0.055255904   -0.20940187     0             -0.16383392     0.011415773  
   1780000   0.056044084   -0.20921228     0             -0.16299435     0.45907688   
   1780500   0.052883893   -0.21083989     0             -0.16722808     0.017184262  
   1781000   0.063540511   -0.20966881     0             -0.15726879    -0.024959969  
   1781500   0.058737887   -0.21591203     0             -0.16747259     0.48023409   
   1782000   0.080740235   -0.21264577     0             -0.14606163     0.31353748   
   1782500   0.061105324   -0.21484914     0             -0.16445735     0.1509115    
   1783000   0.052462584   -0.21561736     0             -0.17235298     0.36182125   
   1783500   0.064650954   -0.21394076     0             -0.16062499     0.3269332    
   1784000   0.058551571   -0.21493534     0             -0.16664955     0.49778594   
   1784500   0.060180723   -0.21531485     0             -0.16568555    -0.30139534   
   1785000   0.057069419   -0.21324744     0             -0.16618394    -0.27403153   
   1785500   0.053722551   -0.21586609     0             -0.17156265    -0.29003026   
   1786000   0.06059116    -0.21265364     0             -0.16268587     0.12922259   
   1786500   0.054939911   -0.21415108     0             -0.16884373    -0.011567993  
   1787000   0.058599768   -0.21418441     0             -0.16585888    -0.24086683   
   1787500   0.052439464   -0.21556411     0             -0.1723188      0.12443395   
   1788000   0.052777413   -0.2152817      0             -0.17175769    -0.36630329   
   1788500   0.05215389    -0.21700091     0             -0.17399111    -0.29753684   
   1789000   0.061411703   -0.21371274     0             -0.16306829     0.028252223  
   1789500   0.053182134   -0.21579721     0             -0.17193945    -0.13217137   
   1790000   0.060099879   -0.21365368     0             -0.16409105     0.39934371   
   1790500   0.054896573   -0.2124424      0             -0.16717078     0.11475791   
   1791000   0.054959245   -0.21680073     0             -0.17147743     0.34606026   
   1791500   0.055172362   -0.21656408     0             -0.17106503     0.4002538    
   1792000   0.057979894   -0.21555279     0             -0.16773845     0.075860172  
   1792500   0.064342961   -0.2146392      0             -0.16157742    -0.3808725    
   1793000   0.076311467   -0.21333267     0             -0.15040081    -0.10091678   
   1793500   0.059229298   -0.21490355     0             -0.16605887    -0.18217266   
   1794000   0.057698852   -0.21754801     0             -0.16996544     0.074047783  
   1794500   0.053246928   -0.21763854     0             -0.17372734    -0.15071867   
   1795000   0.054061291   -0.21753959     0             -0.17295681    -0.182585     
   1795500   0.052338241   -0.21880451     0             -0.17564268    -0.29996848   
   1796000   0.057447122   -0.21684302     0             -0.16946805     0.10866448   
   1796500   0.052077697   -0.21928243     0             -0.17633546    -0.26787211   
   1797000   0.067211428   -0.22047649     0             -0.16504917     0.026764771  
   1797500   0.059119998   -0.2199323      0             -0.17117775    -0.043122392  
   1798000   0.056159984   -0.22241224     0             -0.17609872     0.51238525   
   1798500   0.059368914   -0.220519       0             -0.17155918    -0.5805583    
   1799000   0.055484508   -0.22221916     0             -0.1764627     -0.01665955   
   1799500   0.064165637   -0.21956581     0             -0.16665027    -0.16169729   
   1800000   0.065045855   -0.22135714     0             -0.1677157     -0.15489612   
   1800500   0.054305051   -0.22004563     0             -0.17526182     0.24619406   
   1801000   0.062515329   -0.2230531      0             -0.17149852     0.2371485    
   1801500   0.060755093   -0.22228529     0             -0.17218233    -0.2534468    
   1802000   0.059779552   -0.22620117     0             -0.1769027      0.67562276   
   1802500   0.057034784   -0.22099864     0             -0.1739637     -0.26825483   
   1803000   0.071301296   -0.22060635     0             -0.16180624     0.22649855   
   1803500   0.064088702   -0.21943595     0             -0.16658385     0.23245213   
   1804000   0.066554078   -0.22083935     0             -0.16595413    -0.055457007  
   1804500   0.056551871   -0.22255456     0             -0.17591787    -0.32084147   
   1805000   0.075248292   -0.22021111     0             -0.15815603    -0.1275857    
   1805500   0.061320517   -0.2211918      0             -0.17062254    -0.052831534  
   1806000   0.05516852    -0.22326003     0             -0.17776415    -0.053488575  
   1806500   0.063586877   -0.22096476     0             -0.1685265      0.17681434   
   1807000   0.055453293   -0.2233706      0             -0.17763987     0.17716846   
   1807500   0.063902411   -0.22348885     0             -0.17079038     0.8028874    
   1808000   0.063035239   -0.22191593     0             -0.16993259    -0.3566849    
   1808500   0.068398451   -0.21994098     0             -0.16353476    -0.12820033   
   1809000   0.059726473   -0.22179316     0             -0.17253846    -0.072199421  
   1809500   0.062098345   -0.22020382     0             -0.16899311    -0.026629793  
   1810000   0.073075396   -0.22195826     0             -0.1616951      0.65786826   
   1810500   0.061543021   -0.22156313     0             -0.17081039     0.16652276   
   1811000   0.063268851   -0.22353769     0             -0.1713617      0.14019697   
   1811500   0.053860513   -0.22539659     0             -0.18097938    -0.28820786   
   1812000   0.05501917    -0.22589197     0             -0.18051925     0.087371208  
   1812500   0.060142347   -0.22372078     0             -0.17412312     0.029566296  
   1813000   0.064590757   -0.22596543     0             -0.1726993     -0.040265089  
   1813500   0.066934244   -0.2239908      0             -0.16879207    -0.18990407   
   1814000   0.065726954   -0.22250333     0             -0.16830022     0.0026315557 
   1814500   0.075678144   -0.21957167     0             -0.15716209    -0.79855752   
   1815000   0.062258987   -0.21924581     0             -0.16790262    -0.14122823   
   1815500   0.066782969   -0.21912729     0             -0.1640533      0.27979865   
   1816000   0.067291502   -0.21955452     0             -0.16406117    -0.46761234   
   1816500   0.054492141   -0.22093673     0             -0.17599864     0.22466508   
   1817000   0.057022818   -0.22290011     0             -0.17587504    -0.41279451   
   1817500   0.061079503   -0.22191942     0             -0.17154892    -0.27904556   
   1818000   0.05304824    -0.22342259     0             -0.17967524     0.10521477   
   1818500   0.052137702   -0.21989256     0             -0.17689611     0.091358184  
   1819000   0.079842433   -0.21663039     0             -0.15078665     0.47074415   
   1819500   0.069322572   -0.21409162     0             -0.1569233     -0.41887814   
   1820000   0.057397798   -0.21681384     0             -0.16947954    -0.37445257   
   1820500   0.069723227   -0.21831903     0             -0.16082031    -0.42244023   
   1821000   0.056208829   -0.21846331     0             -0.17210951     0.55925659   
   1821500   0.066224371   -0.2185884      0             -0.16397508    -0.18924599   
   1822000   0.060774693   -0.21691772     0             -0.1667986      0.13228655   
   1822500   0.076703247   -0.21456745     0             -0.1513125      0.19795645   
   1823000   0.070603585   -0.21466064     0             -0.15643591     0.28440326   
   1823500   0.068307219   -0.21316386     0             -0.15683288     0.20861035   
   1824000   0.061434956   -0.21443838     0             -0.16377475    -0.021733248  
   1824500   0.063632848   -0.2128101      0             -0.16033393     0.17742318   
   1825000   0.063514713   -0.21552204     0             -0.1631433     -0.43367333   
   1825500   0.057784937   -0.21899606     0             -0.1713425     -0.16408742   
   1826000   0.059828938   -0.21753735     0             -0.16819816     0.020470318  
   1826500   0.053713245   -0.21989752     0             -0.17560176    -0.49282586   
   1827000   0.05120312    -0.21994845     0             -0.17772272    -0.047284436  
   1827500   0.051135003   -0.21825342     0             -0.17608386     0.41296595   
   1828000   0.048878759   -0.22054396     0             -0.18023507     0.52489437   
   1828500   0.050720255   -0.22089394     0             -0.17906641    -0.14942864   
   1829000   0.050918509   -0.22060058     0             -0.17860956    -0.15270507   
   1829500   0.052646756   -0.21946524     0             -0.17604899     0.22396807   
   1830000   0.051970024   -0.22248454     0             -0.17962637    -0.056866846  
   1830500   0.064343417   -0.22073152     0             -0.16766937    -0.046798404  
   1831000   0.053953913   -0.21959361     0             -0.17509938    -0.27491209   
   1831500   0.054786296   -0.22364445     0             -0.17846378    -0.05502359   
   1832000   0.054368096   -0.22083789     0             -0.17600209    -0.068918045  
   1832500   0.052701261   -0.22370171     0             -0.1802405     -0.17704619   
   1833000   0.049502849   -0.22396976     0             -0.18314619    -0.085953271  
   1833500   0.049653868   -0.22351659     0             -0.18256848    -0.29173231   
   1834000   0.061644253   -0.22160767     0             -0.17077144     0.0050923925 
   1834500   0.056057001   -0.2234464      0             -0.17721781     0.35395957   
   1835000   0.054710158   -0.22440738     0             -0.1792895     -0.11925189   
   1835500   0.086044016   -0.21869447     0             -0.14773647    -0.016493917  
   1836000   0.08087416    -0.21965042     0             -0.15295585    -0.20501047   
   1836500   0.073008899   -0.22071863     0             -0.1605103      0.15302397   
   1837000   0.063345755   -0.22120393     0             -0.16896452     0.34568104   
   1837500   0.063496711   -0.22101407     0             -0.16865017    -0.068618136  
   1838000   0.052249168   -0.22383119     0             -0.18074282     0.42530883   
   1838500   0.068902357   -0.21987405     0             -0.16305227     0.42991554   
   1839000   0.056364778   -0.22244367     0             -0.17596127    -0.11597628   
   1839500   0.063625328   -0.22165808     0             -0.16918811     0.10987973   
   1840000   0.054520458   -0.22272796     0             -0.17776651     0.14402833   
   1840500   0.055480721   -0.22482197     0             -0.17906863     0.035715643  
   1841000   0.06672289    -0.22156009     0             -0.16653565    -0.050783272  
   1841500   0.058685317   -0.22126798     0             -0.1728719      0.46644141   
   1842000   0.059152696   -0.22479274     0             -0.17601122    -0.26302357   
   1842500   0.054861497   -0.22572799     0             -0.1804853      0.70438015   
   1843000   0.066307844   -0.22019359     0             -0.16551143    -0.12182013   
   1843500   0.066646575   -0.2213372      0             -0.1663757     -0.32715528   
   1844000   0.058615288   -0.22278095     0             -0.17444262    -0.33783782   
   1844500   0.064176214   -0.22211722     0             -0.16919295    -0.15058155   
   1845000   0.055139676   -0.22304772     0             -0.17757562     0.048268445  
   1845500   0.066189882   -0.22024115     0             -0.16565627     0.40321346   
   1846000   0.061935531   -0.21976464     0             -0.1686882      0.40297116   
   1846500   0.062862126   -0.21913972     0             -0.16729915     0.56169395   
   1847000   0.062034347   -0.22083669     0             -0.16967876    -0.28766818   
   1847500   0.073217628   -0.2185244      0             -0.15814394    -0.0047283679 
   1848000   0.066760605   -0.21834222     0             -0.16328668     0.2417038    
   1848500   0.062932383   -0.22059192     0             -0.1686934     -0.13925793   
   1849000   0.073552474   -0.21601395     0             -0.15535736     0.039047103  
   1849500   0.074788864   -0.21594563     0             -0.15426942    -0.15954023   
   1850000   0.068376592   -0.2147104      0             -0.1583222     -0.19982039   
   1850500   0.07490696    -0.2147526      0             -0.152979      -0.02616782   
   1851000   0.076354012   -0.21571594     0             -0.15274899    -0.17247897   
   1851500   0.056385517   -0.21629587     0             -0.16979636     0.03325277   
   1852000   0.066284206   -0.21753428     0             -0.16287162    -0.46044167   
   1852500   0.054542264   -0.21809885     0             -0.17311942    -0.021848929  
   1853000   0.05699135    -0.21713438     0             -0.17013526    -0.13607234   
   1853500   0.05852173    -0.2145946      0             -0.16633343     0.0029526708 
   1854000   0.05925023    -0.21532648     0             -0.16646453    -0.38297764   
   1854500   0.09567737    -0.21284679     0             -0.13394443     0.012883231  
   1855000   0.069237566   -0.21428692     0             -0.15718871     0.35216084   
   1855500   0.059706497   -0.21588931     0             -0.16665109     0.35603463   
   1856000   0.057536743   -0.21459971     0             -0.16715082     0.46182218   
   1856500   0.052928647   -0.21683812     0             -0.1731894      0.25494695   
   1857000   0.049890054   -0.21877562     0             -0.17763274    -0.33176308   
   1857500   0.05274449    -0.21842641     0             -0.17492956     0.2552208    
   1858000   0.055268978   -0.22222821     0             -0.17664948     0.33038185   
   1858500   0.055558369   -0.22201831     0             -0.17620094    -0.33391111   
   1859000   0.06339759    -0.21863945     0             -0.1663573      0.51894851   
   1859500   0.05881139    -0.22289937     0             -0.17439932     0.10149907   
   1860000   0.062345273   -0.2203233      0             -0.16890896    -0.084608612  
   1860500   0.054797961   -0.2187324      0             -0.17354211     0.080827334  
   1861000   0.062676259   -0.21975082     0             -0.16806352    -0.24487625   
   1861500   0.060857248   -0.22201336     0             -0.17182615    -0.32222884   
   1862000   0.065798736   -0.21995162     0             -0.1656893     -0.19930949   
   1862500   0.058037289   -0.22100292     0             -0.17314125     0.03575611   
   1863000   0.062397384   -0.22223627     0             -0.17077895    -0.45078277   
   1863500   0.056852206   -0.22038138     0             -0.17349702     0.10451052   
   1864000   0.058678621   -0.2232582      0             -0.17486764    -0.13278793   
   1864500   0.051392368   -0.2250364      0             -0.1826546     -0.45328281   
   1865000   0.052565162   -0.2206648      0             -0.17731583    -0.40656174   
   1865500   0.054559116   -0.22117464     0             -0.17618131    -0.087437515  
   1866000   0.065314792   -0.22217172     0             -0.1683085      0.32747429   
   1866500   0.063079437   -0.21748162     0             -0.16546184    -0.52736115   
   1867000   0.068048539   -0.21746073     0             -0.16134307    -0.066102393  
   1867500   0.058273854   -0.21897427     0             -0.17091751    -0.17814508   
   1868000   0.052153912   -0.21822835     0             -0.17521853    -0.1762592    
   1868500   0.054228196   -0.22143522     0             -0.1767148      0.15940483   
   1869000   0.069455608   -0.21921309     0             -0.16193506    -0.055506805  
   1869500   0.070435814   -0.21962034     0             -0.16153396    -0.11664343   
   1870000   0.060346006   -0.2190033      0             -0.1692377     -0.36568064   
   1870500   0.068446363   -0.21576053     0             -0.15931479    -0.1342296    
   1871000   0.054820731   -0.22005162     0             -0.17484255     0.023504766  
   1871500   0.051116858   -0.22158549     0             -0.1794309     -0.083810078  
   1872000   0.062419682   -0.22023046     0             -0.16875476    -0.40468881   
   1872500   0.072904975   -0.21805911     0             -0.15793649    -0.11081321   
   1873000   0.073656664   -0.21884294     0             -0.15810042    -0.12397348   
   1873500   0.065282346   -0.2188988      0             -0.16506234    -0.30462326   
   1874000   0.077161199   -0.21685424     0             -0.15322163    -0.10449388   
   1874500   0.063221124   -0.22074438     0             -0.16860775    -0.49450678   
   1875000   0.055856047   -0.2217188      0             -0.17565594     0.44786876   
   1875500   0.049998771   -0.22235187     0             -0.18111933     0.31693668   
   1876000   0.052023957   -0.22317951     0             -0.18027686    -0.10955871   
   1876500   0.048880405   -0.22411764     0             -0.18380738     0.055437309  
   1877000   0.050283523   -0.22621211     0             -0.18474474    -0.12489817   
   1877500   0.07151094    -0.22328331     0             -0.16431031     0.2594748    
   1878000   0.069941879   -0.22294638     0             -0.16526734    -0.50779503   
   1878500   0.058857014   -0.2247319      0             -0.17619422    -0.33994638   
   1879000   0.062578132   -0.22261506     0             -0.17100868     0.23468175   
   1879500   0.059501863   -0.22501697     0             -0.17594751    -0.2159837    
   1880000   0.053853151   -0.22472606     0             -0.18031492    -0.22158231   
   1880500   0.066611107   -0.22426828     0             -0.16933603     0.048867229  
   1881000   0.059443675   -0.22547915     0             -0.17645767     0.0069680041 
   1881500   0.049768365   -0.22850464     0             -0.18746211     0.12615019   
   1882000   0.055536223   -0.22848809     0             -0.18268898    -0.15363697   
   1882500   0.063278501   -0.22518859     0             -0.17300464     0.058362964  
   1883000   0.075578302   -0.22316711     0             -0.16083987     0.58111245   
   1883500   0.07509869    -0.22337029     0             -0.16143857     0.023582556  
   1884000   0.058079496   -0.22393401     0             -0.17603753     0.51312799   
   1884500   0.064672599   -0.22083898     0             -0.16750536     0.031731085  
   1885000   0.071524769   -0.22434337     0             -0.16535897    -0.29640678   
   1885500   0.066984337   -0.22528953     0             -0.17004948    -0.066632811  
   1886000   0.057416019   -0.22560505     0             -0.17825572    -0.1947859    
   1886500   0.052547974   -0.225648       0             -0.18231321    -0.16955495   
   1887000   0.088359033   -0.22360376     0             -0.15073662     0.36182433   
   1887500   0.063014317   -0.2253033      0             -0.17333722    -0.23066004   
   1888000   0.063329556   -0.22213209     0             -0.16990604     0.081000424  
   1888500   0.057271686   -0.22343883     0             -0.17620852    -0.38597823   
   1889000   0.053388828   -0.22432614     0             -0.18029792    -0.023772369  
   1889500   0.057542133   -0.22344696     0             -0.17599363     0.040511293  
   1890000   0.071714125   -0.22232402     0             -0.16318346     0.19004988   
   1890500   0.054121892   -0.22333556     0             -0.1787028      0.14710393   
   1891000   0.050944755   -0.22337781     0             -0.18136515     0.48544509   
   1891500   0.050574351   -0.2255805      0             -0.1838733      0.47829386   
   1892000   0.056928531   -0.223694       0             -0.17674668    -0.38948315   
   1892500   0.070051032   -0.22319749     0             -0.16542843    -0.30220135   
   1893000   0.063671272   -0.22234322     0             -0.16983537     0.24048677   
   1893500   0.068874138   -0.2214229      0             -0.16462439     0.037862694  
   1894000   0.059471511   -0.21949312     0             -0.17044868    -0.038432563  
   1894500   0.069101681   -0.21826772     0             -0.16128156     0.049849383  
   1895000   0.059478094   -0.21935813     0             -0.17030827    -0.55999223   
   1895500   0.057723524   -0.22065945     0             -0.17305653     0.51863463   
   1896000   0.070812789   -0.21663868     0             -0.15824143    -0.10083973   
   1896500   0.057785906   -0.21599952     0             -0.16834515     0.048926218  
   1897000   0.053231736   -0.21840099     0             -0.17450232    -0.49182601   
   1897500   0.054099746   -0.21753326     0             -0.17291877    -0.071225608  
   1898000   0.057850472   -0.21660014     0             -0.16889253     0.033648697  
   1898500   0.056730641   -0.21608207     0             -0.16929795     0.15777692   
   1899000   0.054272832   -0.2201629      0             -0.17540566    -0.04237238   
   1899500   0.053264514   -0.22203872     0             -0.17811302     0.2341404    
   1900000   0.058445812   -0.21866887     0             -0.1704703     -0.20666204   
   1900500   0.06781775    -0.2160552      0             -0.16012786     0.015889332  
   1901000   0.055931993   -0.21890866     0             -0.17278316     0.11041949   
   1901500   0.052296802   -0.21983799     0             -0.17671033    -0.37391754   
   1902000   0.051476658   -0.22244462     0             -0.17999331     0.25667349   
   1902500   0.053260095   -0.22307328     0             -0.17915122     0.13527744   
   1903000   0.061057293   -0.22159843     0             -0.17124625    -0.28065321   
   1903500   0.068557994   -0.21928115     0             -0.16274336    -0.045133637  
   1904000   0.061822194   -0.21942309     0             -0.16844012     0.13160122   
   1904500   0.054923356   -0.22219199     0             -0.17689828     0.36540572   
   1905000   0.065609173   -0.22112319     0             -0.1670172      0.42216923   
   1905500   0.058760277   -0.22011106     0             -0.17165316     0.31286297   
   1906000   0.070389157   -0.21797148     0             -0.15992358     0.13869141   
   1906500   0.060670657   -0.2169371      0             -0.16690377    -0.37201225   
   1907000   0.067379962   -0.21702501     0             -0.1614587      0.078490801  
   1907500   0.062046057   -0.21827705     0             -0.16710946    -0.27761095   
   1908000   0.061501847   -0.21835148     0             -0.16763269    -0.29565187   
   1908500   0.056084392   -0.21981507     0             -0.17356389    -0.62854088   
   1909000   0.052422318   -0.22096514     0             -0.17773397    -0.23016625   
   1909500   0.050652158   -0.2238615      0             -0.18209013    -0.21989377   
   1910000   0.063611289   -0.22119014     0             -0.16873175    -0.078502984  
   1910500   0.067650456   -0.2233761      0             -0.16758673     0.2496439    
   1911000   0.068461813   -0.21870778     0             -0.1622493      0.054685444  
   1911500   0.056123637   -0.21990281     0             -0.17361927    -0.055805861  
   1912000   0.064078351   -0.21428766     0             -0.1614441     -0.26354408   
   1912500   0.066906568   -0.21712192     0             -0.16194601    -0.32802192   
   1913000   0.062794596   -0.21814796     0             -0.16636307    -0.0049760466 
   1913500   0.059230269   -0.21843671     0             -0.16959122    -0.49843186   
   1914000   0.065585763   -0.21812009     0             -0.16403341     0.34553821   
   1914500   0.062424849   -0.21804603     0             -0.16656607     0.1259901    
   1915000   0.057727973   -0.22126241     0             -0.17365582     0.39942509   
   1915500   0.062064829   -0.21978004     0             -0.16859697    -0.025761423  
   1916000   0.055155886   -0.21935082     0             -0.17386536    -0.037145886  
   1916500   0.053317517   -0.21977827     0             -0.17580886     0.017839286  
   1917000   0.058267888   -0.22072784     0             -0.172676      -0.16810863   
   1917500   0.065272964   -0.2194959      0             -0.16566718    -0.25539385   
   1918000   0.059753174   -0.21734834     0             -0.16807163     0.19541943   
   1918500   0.058613427   -0.21731448     0             -0.16897768    -0.60079859   
   1919000   0.053272782   -0.21796806     0             -0.17403554    -0.070502402  
   1919500   0.055760311   -0.2193612      0             -0.17337728     0.38902223   
   1920000   0.054722601   -0.21690869     0             -0.17178055     0.25938392   
   1920500   0.059904262   -0.21775999     0             -0.16835868     0.42141104   
   1921000   0.065376833   -0.21838876     0             -0.16447438     0.32231084   
   1921500   0.062986598   -0.21786192     0             -0.1659187      0.16162977   
   1922000   0.075710515   -0.21248606     0             -0.15004979    -0.58477403   
   1922500   0.082648512   -0.21299953     0             -0.1448417      0.26914959   
   1923000   0.064775828   -0.21524436     0             -0.16182561     0.77931825   
   1923500   0.072659703   -0.21174143     0             -0.15182107    -0.019203474  
   1924000   0.062455269   -0.21381339     0             -0.16230834     0.6482547    
   1924500   0.058259089   -0.21336809     0             -0.1653235      0.072001247  
   1925000   0.059579465   -0.21390218     0             -0.16476872    -0.088829768  
   1925500   0.055335884   -0.21466345     0             -0.16902955    -0.066979547  
   1926000   0.064607317   -0.21479252     0             -0.16151273    -0.16198222   
   1926500   0.061975971   -0.21187095     0             -0.16076116    -0.17696757   
   1927000   0.05370986    -0.21208108     0             -0.16778811    -0.04217689   
   1927500   0.059953384   -0.21241981     0             -0.16297799    -0.38193361   
   1928000   0.053412956   -0.21219838     0             -0.16815026     0.11080919   
   1928500   0.052181754   -0.21321656     0             -0.17018378     0.52100386   
   1929000   0.088573881   -0.20816947     0             -0.13512515     0.36277191   
   1929500   0.07436416    -0.20946561     0             -0.14813964     0.49433862   
   1930000   0.066725031   -0.20958196     0             -0.15455576    -0.20119733   
   1930500   0.080397718   -0.21164472     0             -0.14534305    -0.37600295   
   1931000   0.069118702   -0.21052235     0             -0.15352215    -0.17995704   
   1931500   0.067743102   -0.20722405     0             -0.15135828     0.6147709    
   1932000   0.066743233   -0.21173637     0             -0.15669516    -0.067705078  
   1932500   0.055521183   -0.21378405     0             -0.16799734    -0.10462117   
   1933000   0.055974564   -0.216636       0             -0.17047539     0.16271694   
   1933500   0.062239777   -0.21760716     0             -0.16627982    -0.32526984   
   1934000   0.057087678   -0.21885172     0             -0.17177316     0.10516831   
   1934500   0.066646802   -0.21423057     0             -0.15926888    -0.048865224  
   1935000   0.077081993   -0.21058897     0             -0.14702169    -0.23879674   
   1935500   0.059167349   -0.21149092     0             -0.16269732     0.12055204   
   1936000   0.071989395   -0.2100133      0             -0.15064573    -0.17517245   
   1936500   0.059552415   -0.2076177      0             -0.15850655     0.33683329   
   1937000   0.063481381   -0.20898248     0             -0.15663123     0.062160943  
   1937500   0.069678627   -0.20992859     0             -0.15246664     0.46830941   
   1938000   0.063027594   -0.21066636     0             -0.15868932    -0.43174765   
   1938500   0.054410085   -0.21286697     0             -0.16799655    -0.011812503  
   1939000   0.054078112   -0.21239679     0             -0.16780014    -0.21373545   
   1939500   0.048710444   -0.21332531     0             -0.17315521    -0.071287402  
   1940000   0.059848571   -0.21373285     0             -0.16437747    -0.096508188  
   1940500   0.066360809   -0.21117953     0             -0.15645369     0.51212403   
   1941000   0.056752889   -0.21476598     0             -0.16796351    -0.25511391   
   1941500   0.053795595   -0.21503808     0             -0.17067441     0.17836984   
   1942000   0.068731546   -0.2138209      0             -0.15713998    -0.37386507   
   1942500   0.072181446   -0.21405988     0             -0.15453393     0.3883678    
   1943000   0.069604392   -0.2117739      0             -0.15437317     0.28659142   
   1943500   0.05983812    -0.21427625     0             -0.16492948     0.18293265   
   1944000   0.059622535   -0.21525854     0             -0.16608956     0.27171093   
   1944500   0.055156387   -0.21509433     0             -0.16960845     0.028532409  
   1945000   0.073101823   -0.21281284     0             -0.15252788     0.1465253    
   1945500   0.067649769   -0.21098701     0             -0.1551982      0.32955989   
   1946000   0.057823719   -0.21256837     0             -0.16488283    -0.45066321   
   1946500   0.050002576   -0.21345506     0             -0.17221938    -0.2959623    
   1947000   0.057183447   -0.21330839     0             -0.16615086    -0.46489027   
   1947500   0.068979425   -0.2131434      0             -0.15625806    -0.16009429   
   1948000   0.060237372   -0.21021125     0             -0.16053524     0.092794032  
   1948500   0.06851979    -0.21053277     0             -0.15402649    -0.098540623  
   1949000   0.065751589   -0.21048398     0             -0.15626055     0.48481736   
   1949500   0.05460249    -0.21283765     0             -0.16780856     0.30076202   
   1950000   0.056599067   -0.21402532     0             -0.1673497      0.075936598  
   1950500   0.07257168    -0.20962565     0             -0.14977789     0.23227277   
   1951000   0.060772819   -0.21121967     0             -0.16110208     0.28450775   
   1951500   0.056353027   -0.21336555     0             -0.16689284     0.099341348  
   1952000   0.054494684   -0.21355571     0             -0.16861552    -0.16853918   
   1952500   0.072488996   -0.21124345     0             -0.15146388    -0.54002319   
   1953000   0.066153788   -0.21245192     0             -0.15789681     0.011107197  
   1953500   0.058149571   -0.21314205     0             -0.16518779    -0.023050426  
   1954000   0.070973887   -0.20989369     0             -0.15136358     0.11776635   
   1954500   0.075382293   -0.20867099     0             -0.14650539    -0.11089314   
   1955000   0.062359635   -0.20663646     0             -0.15521027    -0.16898672   
   1955500   0.056069992   -0.21070497     0             -0.16446567     0.61055033   
   1956000   0.051861401   -0.21096656     0             -0.16819797    -0.1278475    
   1956500   0.053851327   -0.21111284     0             -0.16670321    -0.0071965793 
   1957000   0.056151691   -0.21270635     0             -0.16639968    -0.048482989  
   1957500   0.053276888   -0.2120317      0             -0.16809579    -0.19982575   
   1958000   0.069837579   -0.21072104     0             -0.15312801     0.33684149   
   1958500   0.065221384   -0.21052243     0             -0.15673624     0.00328086   
   1959000   0.055345358   -0.21143833     0             -0.16579661     0.218364     
   1959500   0.068546174   -0.21331589     0             -0.15678784    -0.27131872   
   1960000   0.054293864   -0.21302711     0             -0.16825253     0.15477273   
   1960500   0.064601478   -0.21226333     0             -0.15898837     0.006562445  
   1961000   0.056271197   -0.21359113     0             -0.1671859      0.61279145   
   1961500   0.060611688   -0.21446923     0             -0.16448452     0.19764387   
   1962000   0.066365889   -0.21311899     0             -0.15838896    -0.11548788   
   1962500   0.064884643   -0.21166053     0             -0.15815205     0.16089491   
   1963000   0.057733443   -0.21515433     0             -0.16754323     0.20007329   
   1963500   0.050271995   -0.21495396     0             -0.1734961     -0.10400281   
   1964000   0.054132992   -0.2153058      0             -0.17066389     0.59558166   
   1964500   0.064775151   -0.21676694     0             -0.16334875    -0.46054323   
   1965000   0.064061316   -0.21380406     0             -0.16097455    -0.33002691   
   1965500   0.058920466   -0.21530181     0             -0.16671181    -0.19575771   
   1966000   0.055196454   -0.21545752     0             -0.1699386      0.27360818   
   1966500   0.060370777   -0.21605806     0             -0.16627203    -0.49993636   
   1967000   0.068320845   -0.21454633     0             -0.1582041      0.18664145   
   1967500   0.065682465   -0.21087208     0             -0.15670565    -0.36195729   
   1968000   0.075902437   -0.20884654     0             -0.146252      -0.0011753465 
   1968500   0.066955041   -0.21137829     0             -0.15616241    -0.0957055    
   1969000   0.054088793   -0.21107185     0             -0.16646639     0.091238232  
   1969500   0.063183945   -0.21200948     0             -0.15990351     0.12651129   
   1970000   0.064493614   -0.20983664     0             -0.15665062     0.2608722    
   1970500   0.056005206   -0.20929841     0             -0.16311254    -0.036592289  
   1971000   0.057640698   -0.20667853     0             -0.15914391     0.020967203  
   1971500   0.069982738   -0.20512347     0             -0.14741074    -0.20052001   
   1972000   0.064954834   -0.20459936     0             -0.15103299     0.77492089   
   1972500   0.077269951   -0.20391119     0             -0.1401889      0.25901913   
   1973000   0.07177174    -0.20218984     0             -0.14300176    -0.26531526   
   1973500   0.061635355   -0.20522361     0             -0.15439472     0.046385467  
   1974000   0.062777902   -0.20799928     0             -0.15622816     0.012956785  
   1974500   0.056044916   -0.20793887     0             -0.16172025     0.40326219   
   1975000   0.057169665   -0.20622239     0             -0.15907622    -0.002757991  
   1975500   0.064444109   -0.20787752     0             -0.15473233     0.24890767   
   1976000   0.055751738   -0.20795755     0             -0.1619807     -0.033210621  
   1976500   0.050902198   -0.21170153     0             -0.16972397     0.08663804   
   1977000   0.071850443   -0.21108686     0             -0.15183388     0.068004872  
   1977500   0.06578581    -0.20921695     0             -0.1549653     -0.059226272  
   1978000   0.06963602    -0.2078967      0             -0.15046989    -0.023371983  
   1978500   0.06946478    -0.2047779      0             -0.1474923      0.45912972   
   1979000   0.066368667   -0.20483716     0             -0.15010484     0.20076184   
   1979500   0.064027645   -0.2047814      0             -0.15197965     0.3647081    
   1980000   0.058938962   -0.20654567     0             -0.15794042     0.13243145   
   1980500   0.05789928    -0.20675393     0             -0.15900607     0.35757285   
   1981000   0.065943034   -0.20642028     0             -0.15203897    -0.13389645   
   1981500   0.063779745   -0.2069302      0             -0.15433289     0.025757738  
   1982000   0.052310123   -0.20784923     0             -0.16471059    -0.48270568   
   1982500   0.051212349   -0.20896552     0             -0.16673218    -0.04513735   
   1983000   0.059801368   -0.20717892     0             -0.15786246     0.074499669  
   1983500   0.067450922   -0.20331817     0             -0.14769335     0.15490652   
   1984000   0.058652903   -0.20779528     0             -0.15942593     0.10895731   
   1984500   0.084296471   -0.20545286     0             -0.135936       0.081109614  
   1985000   0.064669926   -0.20872741     0             -0.155396       0.49843315   
   1985500   0.054857897   -0.20936614     0             -0.16412642    -0.19706339   
   1986000   0.052390504   -0.21202759     0             -0.16882266    -0.074240398  
   1986500   0.05437924    -0.21012256     0             -0.16527757    -0.16091855   
   1987000   0.05890263    -0.21102028     0             -0.16244499    -0.13422894   
   1987500   0.073328847   -0.21081697     0             -0.1503448     -0.11008594   
   1988000   0.062628838   -0.20932881     0             -0.15768062    -0.11551486   
   1988500   0.05667301    -0.20893245     0             -0.16219586    -0.16790782   
   1989000   0.050783679   -0.20855245     0             -0.16667262     0.091315502  
   1989500   0.065869517   -0.20895323     0             -0.15463255     0.3097731    
   1990000   0.054804986   -0.21131912     0             -0.16612303    -0.57426062   
   1990500   0.05609142    -0.20953332     0             -0.16327635    -0.058988364  
   1991000   0.060883097   -0.2092074      0             -0.15899887    -0.044159674  
   1991500   0.058001349   -0.20903824     0             -0.1612062      0.14407168   
   1992000   0.057567859   -0.2122524      0             -0.16477785    -0.30772338   
   1992500   0.058692884   -0.20986173     0             -0.1614594     -0.45515553   
   1993000   0.054420515   -0.21376637     0             -0.16888735     0.14839593   
   1993500   0.04995459    -0.21569348     0             -0.17449737    -0.44050651   
   1994000   0.056758779   -0.21247342     0             -0.1656661      0.37868819   
   1994500   0.053466573   -0.21563699     0             -0.17154465    -0.4730405    
   1995000   0.086925516   -0.20980755     0             -0.13812259    -0.48805484   
   1995500   0.088490191   -0.21203501     0             -0.13905971     0.10827299   
   1996000   0.078252371   -0.21223128     0             -0.14769881    -0.018702385  
   1996500   0.070399399   -0.21432876     0             -0.15627241    -0.12942854   
   1997000   0.072500987   -0.21055344     0             -0.15076397     0.26754797   
   1997500   0.076629189   -0.2135705      0             -0.15037662     0.17209239   
   1998000   0.066063559   -0.21059427     0             -0.15611356    -0.17594166   
   1998500   0.066594554   -0.20975691     0             -0.15483831    -0.14283119   
   1999000   0.057889814   -0.21030958     0             -0.16256952     0.17702108   
   1999500   0.057988919   -0.20926192     0             -0.16144014     0.17365698   
   2000000   0.051957097   -0.21386851     0             -0.17102099     0.066462846  
   2000001   0.051960683   -0.21389418     0             -0.17104371    -0.2837943    
Loop time of 541.124 on 4 procs for 1000000 steps with 1520 atoms

Performance: 159667.520 tau/day, 1848.004 timesteps/s, 2.809 Matom-step/s
91.4% CPU use with 4 MPI tasks x 1 OpenMP threads

MPI task timing breakdown:
Section |  min time  |  avg time  |  max time  |%varavg| %total
---------------------------------------------------------------
Pair    | 79.891     | 87.723     | 93.78      |  60.0 | 16.21
Bond    | 0.2234     | 0.23989    | 0.25303    |   2.7 |  0.04
Neigh   | 10.865     | 10.87      | 10.878     |   0.1 |  2.01
Comm    | 59.213     | 65.164     | 72.874     |  68.5 | 12.04
Output  | 2.0058     | 2.0607     | 2.1152     |   2.8 |  0.38
Modify  | 357.85     | 358.77     | 359.35     |   3.0 | 66.30
Other   |            | 16.3       |            |       |  3.01

Nlocal:            380 ave         404 max         339 min
Histogram: 1 0 0 0 0 0 1 0 0 2
Nghost:         987.75 ave        1030 max         948 min
Histogram: 1 0 1 0 0 0 0 1 0 1
Neighs:              0 ave           0 max           0 min
Histogram: 4 0 0 0 0 0 0 0 0 0

Total # of neighbors = 0
Ave neighs/atom = 0
Ave special neighs/atom = 2.0657895
Neighbor list builds = 4418
Dangerous builds = 0

# Write data for deformation

write_data data.hydrogel
System init for write_data ...
WARNING: Using a manybody potential with bonds/angles/dihedrals and special_bond exclusions (src/pair.cpp:243)
Hybrid pair style last /omp style table/omp
Last active /omp style is pair_style table/omp
WARNING: More than one fix rigid command (src/RIGID/fix_rigid_small.cpp:529)
WARNING: More than one fix rigid command (src/RIGID/fix_rigid_small.cpp:529)
WARNING: One or more atoms are time integrated more than once (src/modify.cpp:296)
Total wall time: 0:17:12
