LAMMPS (29 Aug 2024)
OMP_NUM_THREADS environment is not set. Defaulting to 1 thread. (src/comm.cpp:98)
  using 1 OpenMP thread(s) per MPI task
package omp 0
using multi-threaded neighbor list subroutines
# Input Script of lammps for assembly simulation of polimeric network.

# Fco. Vazquez and Felipe Benavides

# Initialization
units lj
dimension 3
boundary p p p

# Styles of atoms and that stuff
atom_style bond
bond_style zero nocoeff
#pair_style hybrid/overlay/omp zero 0.0 lj/cut/omp 1.12 table/omp linear 5000000 threebody/table
pair_style hybrid/overlay/omp zero 0.0 lj/cut/omp 1.12 sw/omp threebody off threebody/table
newton on

# Create simulaiton box
region simulation_box block -$L $L -$L $L -$L $L
region simulation_box block -6.932675 $L -$L $L -$L $L
region simulation_box block -6.932675 6.932675 -$L $L -$L $L
region simulation_box block -6.932675 6.932675 -6.932675 $L -$L $L
region simulation_box block -6.932675 6.932675 -6.932675 6.932675 -$L $L
region simulation_box block -6.932675 6.932675 -6.932675 6.932675 -6.932675 $L
region simulation_box block -6.932675 6.932675 -6.932675 6.932675 -6.932675 6.932675
# N-atom-types region-ID keyword value Is necesesary the extra/special/per/atom (# of special neighbors per atom)
create_box 4 simulation_box     bond/types 1     extra/bond/per/atom 4     extra/special/per/atom 5
Created orthogonal box = (-6.932675 -6.932675 -6.932675) to (6.932675 6.932675 6.932675)
  2 by 1 by 2 MPI processor grid

# Atom types
mass 1 1.0      # CL
mass 2 1.0      # MO
mass 3 0.5      # PA
mass 4 0.5      # PB

# Coefficients
include potential.in
# Script with the pair-wise interaction and bonds between particles

bond_coeff * nocoeff
pair_coeff 1 3 zero
pair_coeff 1 4 zero
pair_coeff 2 3 zero
pair_coeff 2 4 zero
pair_coeff 3 3 zero
pair_coeff 1 1 lj/cut/omp 1.0 1.0 1.12
pair_coeff 2 2 lj/cut/omp 1.0 1.0 1.12
pair_coeff 1 2 lj/cut/omp 1.0 1.0 1.12
pair_coeff 3 4 sw/omp sysFiles/patchyPot.sw NULL NULL PA PB
  disabling sw potential three-body terms
pair_coeff 4 4 sw/omp sysFiles/patchyPot.sw NULL NULL PA PB
pair_coeff * * threebody/table swapMech.3b NULL NULL PA PB
pair_modify pair lj/cut/omp shift yes


# Molecules
include molecules.in
# Script with all molecule information and create groups for computes

# Read the molecule information
molecule CL sysFiles/molecule.patchy.CL
Read molecule template CL:
# Patchy Cross-Linker
  1 molecules
  0 fragments
  5 atoms with max type 3
  4 bonds with max type 1
  0 angles with max type 0
  0 dihedrals with max type 0
  0 impropers with max type 0
molecule MO sysFiles/molecule.patchy.MO
Read molecule template MO:
# Patchy Monomer
  1 molecules
  0 fragments
  3 atoms with max type 4
  2 bonds with max type 1
  0 angles with max type 0
  0 dihedrals with max type 0
  0 impropers with max type 0

# Introduce the molecules
# ID style args keyword arg
region spawn_box block -$L $L -$L $L -$L $L
region spawn_box block -6.932675 $L -$L $L -$L $L
region spawn_box block -6.932675 6.932675 -$L $L -$L $L
region spawn_box block -6.932675 6.932675 -6.932675 $L -$L $L
region spawn_box block -6.932675 6.932675 -6.932675 6.932675 -$L $L
region spawn_box block -6.932675 6.932675 -6.932675 6.932675 -6.932675 $L
region spawn_box block -6.932675 6.932675 -6.932675 6.932675 -6.932675 6.932675

# create_atoms type style args keyword values
# style_random: N seed region-ID
# keyword_mol: template-ID seed
# keyword_overlap: overlap value = only insert if at least this distance from all existing atoms
# keyword_maxtry: maxtry value = number of attempts to insert a particle before failure
create_atoms 0 random ${NCL} ${seed1} spawn_box mol CL ${seed1} overlap 1.0 maxtry 5000 #xls
create_atoms 0 random 10 ${seed1} spawn_box mol CL ${seed1} overlap 1.0 maxtry 5000 
create_atoms 0 random 10 1234 spawn_box mol CL ${seed1} overlap 1.0 maxtry 5000 
create_atoms 0 random 10 1234 spawn_box mol CL 1234 overlap 1.0 maxtry 5000 
Created 50 atoms
  using lattice units in orthogonal box = (-6.932675 -6.932675 -6.932675) to (6.932675 6.932675 6.932675)
  create_atoms CPU = 0.002 seconds
create_atoms 0 random ${NMO} ${seed2} spawn_box mol MO ${seed2} overlap 1.0 maxtry 5000 #mon
create_atoms 0 random 490 ${seed2} spawn_box mol MO ${seed2} overlap 1.0 maxtry 5000 
create_atoms 0 random 490 4321 spawn_box mol MO ${seed2} overlap 1.0 maxtry 5000 
create_atoms 0 random 490 4321 spawn_box mol MO 4321 overlap 1.0 maxtry 5000 
Created 1470 atoms
  using lattice units in orthogonal box = (-6.932675 -6.932675 -6.932675) to (6.932675 6.932675 6.932675)
  create_atoms CPU = 0.132 seconds

# Create patchy particles
group CrossLinker type 1 3
50 atoms in group CrossLinker
group Monomer type 2 4
1470 atoms in group Monomer
group Patches type 3 4
1020 atoms in group Patches
group CL type 1
10 atoms in group CL
group MO type 2
490 atoms in group MO
group PA type 3
40 atoms in group PA
group CM type 1 2
500 atoms in group CM

# Fix rigid bodies
fix frCL CrossLinker rigid/small/omp molecule
  create bodies CPU = 0.000 seconds
  10 rigid bodies with 50 atoms
  0.46400431 = max distance from body owner to body atom
fix frMO Monomer rigid/small/omp molecule
  create bodies CPU = 0.000 seconds
  490 rigid bodies with 1470 atoms
  0.5 = max distance from body owner to body atom

# Neighbor list
neighbor 1.12 bin # extra-distance style
neigh_modify exclude molecule/intra CrossLinker
neigh_modify exclude molecule/intra Monomer

# COMPUTES

# Compute global kinetic and potential energy and temperature
compute t all temp
compute tCM CM temp
compute ep all pe
compute ek all ke
compute ekCM CM ke
compute stressVirial all pressure t ke pair
compute wcaPair all pair lj/cut/omp epair
compute patchPair all pair sw/omp epair
compute swapPair all pair threebody/table epair
compute disc CM displace/atom
compute daux CM chunk/atom type pbc yes
compute dis CM reduce/chunk daux sum c_disc[4]
#compute disM CM reduce/chunk daux sum c_disc[4]

# Energy minimization
minimize 1.0e-4 1.0e-6 1000 10000
WARNING: Using a manybody potential with bonds/angles/dihedrals and special_bond exclusions (src/pair.cpp:243)
Hybrid pair style last /omp style sw/omp
Last active /omp style is pair_style sw/omp
WARNING: More than one fix rigid command (src/RIGID/fix_rigid_small.cpp:529)
WARNING: More than one fix rigid command (src/RIGID/fix_rigid_small.cpp:529)
Neighbor list info ...
  update: every = 1 steps, delay = 0 steps, check = yes
  max neighbors/atom: 2000, page size: 100000
  master list distance cutoff = 2.24
  ghost atom cutoff = 2.24
  binsize = 1.12, bins = 13 13 13
  6 neighbor lists, perpetual/occasional/extra = 6 0 0
  (1) pair zero, perpetual, skip from (5)
      attributes: half, newton on, omp
      pair build: skip/omp
      stencil: none
      bin: none
  (2) pair lj/cut/omp, perpetual, skip from (5)
      attributes: half, newton on, omp
      pair build: skip/omp
      stencil: none
      bin: none
  (3) pair sw/omp, perpetual, skip trim from (5)
      attributes: half, newton on, omp, cut 1.87
      pair build: skip/trim/omp
      stencil: none
      bin: none
  (4) pair threebody/table, perpetual, skip from (6)
      attributes: full, newton on, omp, cut 1.7200000000000002
      pair build: skip/omp
      stencil: none
      bin: none
  (5) neighbor class addition, perpetual
      attributes: half, newton on, omp
      pair build: half/bin/newton/omp
      stencil: half/bin/3d
      bin: standard
  (6) neighbor class addition, perpetual
      attributes: full, newton on, omp, cut 1.7200000000000002
      pair build: full/bin/omp
      stencil: full/bin/3d
      bin: standard
WARNING: Cannot count rigid body degrees-of-freedom before bodies are fully initialized (src/RIGID/fix_rigid_small.cpp:1129)
WARNING: Cannot count rigid body degrees-of-freedom before bodies are fully initialized (src/RIGID/fix_rigid_small.cpp:1129)
WARNING: Cannot count rigid body degrees-of-freedom before bodies are fully initialized (src/RIGID/fix_rigid_small.cpp:1129)
WARNING: Cannot count rigid body degrees-of-freedom before bodies are fully initialized (src/RIGID/fix_rigid_small.cpp:1129)
WARNING: Cannot count rigid body degrees-of-freedom before bodies are fully initialized (src/RIGID/fix_rigid_small.cpp:1129)
WARNING: Cannot count rigid body degrees-of-freedom before bodies are fully initialized (src/RIGID/fix_rigid_small.cpp:1129)
Per MPI rank memory allocation (min/avg/max) = 20.01 | 20.01 | 20.02 Mbytes
   Step          Temp          E_pair         E_mol          TotEng         Press     
         0   0              0.00067516832  0              0.00067516832  0.00636608   
         1   0              0.00067516832  0              0.00067516832  0.00636608   
Loop time of 0.000249216 on 4 procs for 1 steps with 1520 atoms

96.7% CPU use with 4 MPI tasks x 1 OpenMP threads

Minimization stats:
  Stopping criterion = quadratic factors are zero
  Energy initial, next-to-last, final = 
    0.000675168319707251 0.000675168319707251 0.000675168319707251
  Force two-norm initial, final = 21.154727 21.154727
  Force max component initial, final = 6.3589627 6.3589627
  Final line search alpha, max atom move = 0.015725835 0.1
  Iterations, force evaluations = 1 2

MPI task timing breakdown:
Section |  min time  |  avg time  |  max time  |%varavg| %total
---------------------------------------------------------------
Pair    | 6.0714e-05 | 7.571e-05  | 0.0001028  |   0.0 | 30.38
Bond    | 3.55e-07   | 4.365e-07  | 5.17e-07   |   0.0 |  0.18
Neigh   | 0          | 0          | 0          |   0.0 |  0.00
Comm    | 8.5848e-05 | 0.00011189 | 0.0001252  |   0.0 | 44.90
Output  | 0          | 0          | 0          |   0.0 |  0.00
Modify  | 6.157e-06  | 7.321e-06  | 8.629e-06  |   0.0 |  2.94
Other   |            | 5.386e-05  |            |       | 21.61

Nlocal:            380 ave         382 max         378 min
Histogram: 1 0 0 0 0 2 0 0 0 1
Nghost:        1000.75 ave        1005 max         993 min
Histogram: 1 0 0 0 0 0 0 1 1 1
Neighs:              0 ave           0 max           0 min
Histogram: 4 0 0 0 0 0 0 0 0 0

Total # of neighbors = 0
Ave neighs/atom = 0
Ave special neighs/atom = 2.0657895
Neighbor list builds = 0
Dangerous builds = 0

# DUMPS and FIXES

thermo ${sstep}
thermo 500

# Save atom positions
dump dumpID all atom ${sstep} info/dumps/assembly/patchyParticles_assembly.*.dumpf
dump dumpID all atom 500 info/dumps/assembly/patchyParticles_assembly.*.dumpf
dump_modify dumpID pbc yes # remap atoms via periodic boundary conditions

# Save global energies and temperature
group Energy empty
0 atoms in group Energy
fix fixEng Energy ave/time 1 10 10 c_t c_ep c_ek c_tCM file info/energy_assembly.fixf

group PairE1 empty
0 atoms in group PairE1
group PairE2 empty
0 atoms in group PairE2
group PairE3 empty
0 atoms in group PairE3

fix fixwca PairE1 ave/time 1 10 10 c_wcaPair file info/wcaPair_assembly.fixf
fix fixpatch PairE2 ave/time 1 10 10 c_patchPair file info/patchPair_assembly.fixf
fix fixswap PairE3 ave/time 1 10 10 c_swapPair file info/swapPair_assembly.fixf

# Save Atom displacement
group Displ empty
0 atoms in group Displ
fix fixDispl Displ ave/time 1 ${Nave} ${Nave} c_dis[1] c_dis[2] c_dis[3] c_dis[4] file info/cmdisplacement_assembly.fixf
fix fixDispl Displ ave/time 1 100000 ${Nave} c_dis[1] c_dis[2] c_dis[3] c_dis[4] file info/cmdisplacement_assembly.fixf
fix fixDispl Displ ave/time 1 100000 100000 c_dis[1] c_dis[2] c_dis[3] c_dis[4] file info/cmdisplacement_assembly.fixf

# Save Stress tensor
group Stress empty
0 atoms in group Stress
fix fixStress5 Stress ave/time 1 ${Nave} ${Nave} c_stressVirial[*] file info/stressVirial_assembly.fixf
fix fixStress5 Stress ave/time 1 100000 ${Nave} c_stressVirial[*] file info/stressVirial_assembly.fixf
fix fixStress5 Stress ave/time 1 100000 100000 c_stressVirial[*] file info/stressVirial_assembly.fixf

# RUN SIMULATION

# Brownian Dynamics using Langevin Thermostat

# Set the time integrator
fix VelVerlet all nve/omp # Use Velocity Verlet integrator
timestep ${tstep}
timestep 0.001

# First elevate the temperature
fix ThermoLng all langevin 0.0 ${temp} ${damp} 12345 # Brownian Dynamics: langevin + nve
fix ThermoLng all langevin 0.0 0.05 ${damp} 12345 
fix ThermoLng all langevin 0.0 0.05 1 12345 
run 1000000
WARNING: Using a manybody potential with bonds/angles/dihedrals and special_bond exclusions (src/pair.cpp:243)
Hybrid pair style last /omp style sw/omp
Last active /omp style is pair_style sw/omp
WARNING: More than one fix rigid command (src/RIGID/fix_rigid_small.cpp:529)
WARNING: More than one fix rigid command (src/RIGID/fix_rigid_small.cpp:529)
WARNING: One or more atoms are time integrated more than once (src/modify.cpp:296)
WARNING: Computing temperature of portions of rigid bodies (src/RIGID/fix_rigid_small.cpp:1178)
WARNING: Computing temperature of portions of rigid bodies (src/RIGID/fix_rigid_small.cpp:1178)
Per MPI rank memory allocation (min/avg/max) = 20.32 | 20.33 | 20.33 Mbytes
   Step          Temp          E_pair         E_mol          TotEng         Press     
         1   0              0.00067516832  0              0.00067516832  0.021123967  
       500   0.00035952529  0              0              0.0002964901  -0.002371193  
      1000   0.00015858646  3.6216827e-07  0              0.00013114383 -0.0073469111 
      1500   9.9034291e-05  0              0              8.1670713e-05 -0.011984611  
      2000   9.1797e-05     0              0              7.5702329e-05  0.0095307797 
      2500   0.00010171469  0              0              8.3881164e-05  0.00066157764
      3000   0.00012179843  2.563808e-07   0              0.00010070002 -0.032853804  
      3500   0.00014387161  0              0              0.00011864675  0.020184223  
      4000   0.00017681409  0              0              0.00014581346  0.0017651131 
      4500   0.00019251553  0              0              0.00015876198  0.0061737857 
      5000   0.00021586579  0              0              0.00017801827  0.0040573602 
      5500   0.0002595638   7.028814e-08   0              0.00021412504 -0.023906076  
      6000   0.00027442865  0              0              0.00022631336 -0.025119729  
      6500   0.00028989197  0              0              0.00023906552 -0.0075973777 
      7000   0.00031462893  0              0              0.00025946537  0.0082170499 
      7500   0.00034601217  0              0              0.00028534622 -0.026382027  
      8000   0.00037245883  0              0              0.00030715601 -0.0039402865 
      8500   0.00042462783  1.3582799e-07  0              0.00035031411  0.010012875  
      9000   0.00043540613  0              0              0.00035906683  0.04157802   
      9500   0.00045013918  1.4088348e-06  0              0.00037262558  0.031776308  
     10000   0.00048729808  0              0              0.00040186062 -0.043390587  
     10500   0.00050907326  1.3394972e-08  0              0.00041983138  0.010169468  
     11000   0.00050785873  0              0              0.00041881639 -0.035558981  
     11500   0.00057005826  3.7716841e-07  0              0.00047048771  0.0015388774 
     12000   0.00057383823  3.3059284e-07  0              0.00047355837 -0.048060931  
     12500   0.00056424903 -2.3783373e-13  0              0.00046531984  0.023700006  
     13000   0.00058628242  6.9636778e-07  0              0.00048418651 -0.022337909  
     13500   0.00062030609  2.4905283e-06  0              0.000514039   -0.0077993853 
     14000   0.00065856418 -2.3158101e-08  0              0.00054307566  0.024149329  
     14500   0.00070253705 -8.2189253e-10  0              0.00057936115 -0.019264036  
     15000   0.00072207257  9.7395045e-07  0              0.00059644629 -0.01737003   
     15500   0.00072753479 -6.2859358e-32  0              0.00059997688  0.0021675968 
     16000   0.00071648838  6.2158357e-07  0              0.00059148881 -0.042027956  
     16500   0.00079107769  1.066293e-06   0              0.00065344517 -0.029526184  
     17000   0.00082494972 -1.0129119e-07  0              0.00068021086  0.012713949  
     17500   0.0012554014  -0.00039110465  0              0.00064418853  0.033637023  
     18000   0.0017520412  -0.0012951385   0              0.00014971917 -0.052379805  
     18500   0.0017868229  -0.0021407819   0             -0.00066724078  0.028855285  
     19000   0.0013267761  -0.0023467374   0             -0.0012525836  -0.015158226  
     19500   0.0016135244  -0.0034386235   0             -0.0021079967  -0.057571143  
     20000   0.0020718183  -0.004817091    0             -0.0031085224  -0.082180066  
     20500   0.0015809264  -0.0052551306   0             -0.0039513863   0.0049393512 
     21000   0.0013519056  -0.0056206482   0             -0.0045057708   0.0055180791 
     21500   0.0016988957  -0.0064858513   0             -0.0050848212   0.077538687  
     22000   0.001894184   -0.0078620347   0             -0.006299956    0.028852287  
     22500   0.0028000724  -0.010095427    0             -0.0077862887   0.039953988  
     23000   0.0025009423  -0.011245047    0             -0.009182592    0.076059523  
     23500   0.0033275697  -0.013734311    0             -0.010990161   -0.057798614  
     24000   0.0024837302  -0.014742943    0             -0.012694682   -0.0091045318 
     24500   0.0025993285  -0.016387195    0             -0.014243604    0.015033188  
     25000   0.0020995634  -0.01742529     0             -0.015693841    0.011413647  
     25500   0.0019779161  -0.018077508    0             -0.016446378   -0.062605312  
     26000   0.0027769354  -0.020185426    0             -0.017895368    0.085199875  
     26500   0.002284343   -0.021091825    0             -0.019207993   -0.018444118  
     27000   0.0017840441  -0.021638425    0             -0.020167175   -0.025261478  
     27500   0.0018754915  -0.022198178    0             -0.020651515   -0.038578626  
     28000   0.0028143955  -0.023732452    0             -0.021411502    0.0011797422 
     28500   0.0023032288  -0.025326532    0             -0.023427125    0.051232822  
     29000   0.0027760023  -0.027469048    0             -0.02517976    -0.023184979  
     29500   0.0025771301  -0.02842845     0             -0.026303166    0.03580016   
     30000   0.0026789258  -0.030004565    0             -0.027795332    0.064339717  
     30500   0.0033027603  -0.032683084    0             -0.029959394   -0.044442568  
     31000   0.002984049   -0.034153161    0             -0.031692302   -0.047364321  
     31500   0.0023282974  -0.034768329    0             -0.03284825     0.11265809   
     32000   0.0024938959  -0.036205946    0             -0.034149303   -0.027726053  
     32500   0.002191829   -0.036686609    0             -0.034879071    0.061263079  
     33000   0.0021043428  -0.037199726    0             -0.035464336   -0.015242152  
     33500   0.0034179123  -0.039465718    0             -0.036647064    0.0062793838 
     34000   0.0033170298  -0.040583972    0             -0.037848514    0.023800792  
     34500   0.0034257196  -0.042735137    0             -0.039910045    0.078278801  
     35000   0.0036219071  -0.044269722    0             -0.04128284    -0.072971056  
     35500   0.00407871    -0.045736296    0             -0.042372702   -0.0091075818 
     36000   0.0028824403  -0.046073815    0             -0.04369675    -0.067901882  
     36500   0.0029116272  -0.048041151    0             -0.045640016   -0.096405628  
     37000   0.0028543837  -0.048969277    0             -0.04661535     0.11222903   
     37500   0.0031267834  -0.050239059    0             -0.047660491    0.039022243  
     38000   0.0035722016  -0.050948569    0             -0.048002677   -0.034116055  
     38500   0.0052441068  -0.050092604    0             -0.045767941   -0.015711512  
     39000   0.005594444   -0.053112648    0             -0.048499072    0.029304801  
     39500   0.0049859978  -0.053676343    0             -0.049564535   -0.021155876  
     40000   0.0044122207  -0.055536294    0             -0.051897663   -0.038707753  
     40500   0.0060675403  -0.056512595    0             -0.05150887    -0.069773421  
     41000   0.0059290952  -0.060113852    0             -0.055224299   -0.041816888  
     41500   0.0052025531  -0.062844768    0             -0.058554373   -0.029523917  
     42000   0.0040636398  -0.064113398    0             -0.060762232    0.0085176741 
     42500   0.0038245028  -0.066179706    0             -0.063025749    0.040630192  
     43000   0.0042202097  -0.066185356    0             -0.062705072   -0.018090846  
     43500   0.0059235147  -0.068456311    0             -0.06357136     0.097905237  
     44000   0.0057469368  -0.069250601    0             -0.064511268   -0.03036076   
     44500   0.0054686152  -0.07221989     0             -0.067710081    0.05381066   
     45000   0.004015185   -0.072475106    0             -0.0691639     -0.0075457266 
     45500   0.0043174241  -0.074267792    0             -0.070707338    0.13087635   
     46000   0.003074159   -0.0762007      0             -0.07366553     0.16100952   
     46500   0.0028802009  -0.07660138     0             -0.074226162   -0.060337836  
     47000   0.002754501   -0.077416739    0             -0.075145182    0.01689256   
     47500   0.0040002103  -0.079550946    0             -0.076252088    0.10566367   
     48000   0.005219549   -0.080593137    0             -0.076288726   -0.045315537  
     48500   0.0055892071  -0.081333997    0             -0.07672474    -0.072509025  
     49000   0.0061109816  -0.082270408    0             -0.077230859    0.0055441393 
     49500   0.0098765865  -0.084805077    0             -0.076660142    0.015048539  
     50000   0.00760047    -0.087971146    0             -0.081703259    0.059393006  
     50500   0.0080913926  -0.089152486    0             -0.082479748   -0.044509042  
     51000   0.0066366963  -0.092037773    0             -0.086564681    0.051716488  
     51500   0.0065514731  -0.093656813    0             -0.088254003   -0.081833575  
     52000   0.0046680764  -0.093359516    0             -0.089509889    0.01064961   
     52500   0.0068934304  -0.096912016    0             -0.091227204    0.15524368   
     53000   0.0069132216  -0.096971188    0             -0.091270054   -0.071674318  
     53500   0.0053276317  -0.09898122     0             -0.094587677    0.068928258  
     54000   0.0061081313  -0.10171703     0             -0.096679826    0.074411146  
     54500   0.0050528015  -0.10353296     0             -0.099366056    0.076404687  
     55000   0.0043811654  -0.1034846      0             -0.099871582   -0.16046936   
     55500   0.0053520705  -0.10652651     0             -0.10211281     0.05336377   
     56000   0.0062772527  -0.10522862     0             -0.10005195    -0.13375352   
     56500   0.0044994132  -0.107286       0             -0.10357546    -0.070022721  
     57000   0.0056299872  -0.10774113     0             -0.10309824     0.0043301307 
     57500   0.0048882345  -0.10934957     0             -0.10531839     0.058877044  
     58000   0.0085139126  -0.10833247     0             -0.1013113     -0.071949997  
     58500   0.0056148439  -0.11154193     0             -0.10691153    -0.046290767  
     59000   0.0065990751  -0.11233284     0             -0.10689077    -0.034292866  
     59500   0.0059119188  -0.11511658     0             -0.11024119    -0.12761548   
     60000   0.0090353993  -0.11287854     0             -0.10542731     0.11284988   
     60500   0.009429919   -0.11164776     0             -0.10387118    -0.19109387   
     61000   0.0052616963  -0.1122543      0             -0.10791514    -0.13293434   
     61500   0.0064207974  -0.11559063     0             -0.11029558     0.089355758  
     62000   0.0060452554  -0.11369478     0             -0.10870943    -0.12736183   
     62500   0.0052899553  -0.11477483     0             -0.11041236     0.049598434  
     63000   0.0046060103  -0.11781024     0             -0.1140118     -0.055780406  
     63500   0.0053792755  -0.11825034     0             -0.11381421     0.2767918    
     64000   0.0094048171  -0.11953919     0             -0.11178331    -0.1529471    
     64500   0.0068672344  -0.11974588     0             -0.11408267     0.12133854   
     65000   0.0061763631  -0.12215672     0             -0.11706325    -0.011163407  
     65500   0.0064806597  -0.1263913      0             -0.12104689    -0.073655459  
     66000   0.0066435502  -0.12815841     0             -0.12267966     0.029689735  
     66500   0.0065206141  -0.1300005      0             -0.12462314     0.04702967   
     67000   0.0067886049  -0.13337174     0             -0.12777338    -0.028072572  
     67500   0.0087010682  -0.12835002     0             -0.1211745      0.082863414  
     68000   0.0073826324  -0.13361116     0             -0.12752292    -0.027580867  
     68500   0.0072532905  -0.13007462     0             -0.12409304    -0.23180251   
     69000   0.0087569336  -0.13208496     0             -0.12486337    -0.16884914   
     69500   0.0062815761  -0.13474425     0             -0.12956402    -0.12285546   
     70000   0.0097842086  -0.13521395     0             -0.12714519    -0.01777329   
     70500   0.0080319421  -0.1368483      0             -0.13022459    -0.0061293585 
     71000   0.01027725    -0.14097254     0             -0.13249718    -0.21186188   
     71500   0.012215185   -0.13785962     0             -0.12778611    -0.099156437  
     72000   0.010438909   -0.14424385     0             -0.13563518    -0.0224922    
     72500   0.010801951   -0.14220555     0             -0.13329749     0.031615481  
     73000   0.013498468   -0.14328253     0             -0.13215073    -0.11331543   
     73500   0.018444638   -0.14517055     0             -0.12995979     0.28482491   
     74000   0.010253096   -0.14467975     0             -0.13622432    -0.021776977  
     74500   0.007045425   -0.14597176     0             -0.1401616      0.04748009   
     75000   0.0063253852  -0.14900442     0             -0.14378806    -0.068460458  
     75500   0.0056039032  -0.15133433     0             -0.14671295     0.020233812  
     76000   0.0063605322  -0.15058896     0             -0.14534361    -0.046305977  
     76500   0.0066396554  -0.15363572     0             -0.14816018     0.075839999  
     77000   0.0056255101  -0.15349298     0             -0.14885379    -0.081272073  
     77500   0.0066338631  -0.15266835     0             -0.1471976     -0.080013759  
     78000   0.01000427    -0.15362214     0             -0.14537191    -0.02083211   
     78500   0.0080734958  -0.1569462      0             -0.15028822     0.098192909  
     79000   0.0071988397  -0.15769128     0             -0.15175461    -0.081886857  
     79500   0.0064402544  -0.16172718     0             -0.15641609     0.078790963  
     80000   0.0057001225  -0.16218341     0             -0.15748268    -0.14037287   
     80500   0.0055708254  -0.16297417     0             -0.15838007    -0.02726068   
     81000   0.0057199723  -0.16393984     0             -0.15922274    -0.10782715   
     81500   0.0091314335  -0.16467621     0             -0.15714578     0.070912462  
     82000   0.0074325404  -0.16261742     0             -0.15648802    -0.079641089  
     82500   0.0067175186  -0.1686063      0             -0.16306656    -0.10483524   
     83000   0.0058909373  -0.16779939     0             -0.1629413      0.0022700573 
     83500   0.0055749186  -0.16768138     0             -0.1630839      0.2189323    
     84000   0.0048607048  -0.16807001     0             -0.16406153    -0.065654151  
     84500   0.0068566174  -0.16991575     0             -0.16426129     0.016095639  
     85000   0.012105183   -0.16791743     0             -0.15793463    -0.029423662  
     85500   0.0086591447  -0.17042267     0             -0.16328172     0.01612244   
     86000   0.0072309676  -0.17604455     0             -0.17008138    -0.027315261  
     86500   0.0064001008  -0.17348556     0             -0.16820758    -0.0050993185 
     87000   0.0088507498  -0.17211397     0             -0.16481501    -0.052114597  
     87500   0.0096378274  -0.17093994     0             -0.1629919      0.027036655  
     88000   0.0096109749  -0.17309446     0             -0.16516857    -0.016549737  
     88500   0.016689622   -0.17661556     0             -0.16285211     0.16723801   
     89000   0.017064598   -0.1720449      0             -0.15797223    -0.032134759  
     89500   0.010278278   -0.1742634      0             -0.1657872     -0.1248599    
     90000   0.01156525    -0.17308636     0             -0.16354883    -0.013420145  
     90500   0.0089961976  -0.17365628     0             -0.16623738     0.003051032  
     91000   0.0078996789  -0.1763688      0             -0.16985416     0.16455745   
     91500   0.0099838105  -0.18025573     0             -0.17202237     0.16916204   
     92000   0.014611494   -0.18156451     0             -0.16951484     0.20139111   
     92500   0.019440331   -0.17966332     0             -0.16363144     0.039846682  
     93000   0.012998693   -0.17971193     0             -0.16899228     0.16053913   
     93500   0.0086302479  -0.1826181      0             -0.17550099    -0.17791954   
     94000   0.0073482921  -0.18633051     0             -0.18027059     0.018648536  
     94500   0.012984142   -0.18538083     0             -0.17467318    -0.0055223171 
     95000   0.0096027091  -0.18731423     0             -0.17939516     0.1731021    
     95500   0.008843983   -0.18808472     0             -0.18079134    -0.021584658  
     96000   0.011809035   -0.18769462     0             -0.17795606    -0.041226899  
     96500   0.0085969016  -0.18974848     0             -0.18265887     0.0089222101 
     97000   0.0074999945  -0.19122797     0             -0.18504294    -0.066338713  
     97500   0.0091551696  -0.19047553     0             -0.18292552     0.00011624337
     98000   0.0093264386  -0.19044201     0             -0.18275076     0.1556974    
     98500   0.010301016   -0.1876929      0             -0.17919795    -0.067694877  
     99000   0.010848647   -0.1900084      0             -0.18106183    -0.12632795   
     99500   0.012463597   -0.1930998      0             -0.18282143    -0.07960101   
    100000   0.013095972   -0.18859528     0             -0.17779541    -0.055184564  
    100500   0.01069493    -0.19015258     0             -0.18133278    -0.048788859  
    101000   0.0071073964  -0.19210847     0             -0.18624721     0.033085708  
    101500   0.0090981638  -0.19116863     0             -0.18366564     0.15712838   
    102000   0.010048017   -0.19428714     0             -0.18600083    -0.018528235  
    102500   0.010726849   -0.19385052     0             -0.1850044     -0.072813875  
    103000   0.0081914391  -0.1942779      0             -0.18752266    -0.12297678   
    103500   0.0073457439  -0.19448875     0             -0.18843093    -0.17649533   
    104000   0.00976364    -0.19458702     0             -0.18653523     0.10028826   
    104500   0.012158528   -0.19337009     0             -0.1833433      0.10117716   
    105000   0.010066343   -0.19182889     0             -0.18352746     0.069090305  
    105500   0.007466029   -0.19201763     0             -0.18586061    -0.082100771  
    106000   0.011154432   -0.19706068     0             -0.18786195    -0.029498372  
    106500   0.013077327   -0.19821322     0             -0.18742873     0.050953689  
    107000   0.013480826   -0.20167955     0             -0.1905623     -0.10363272   
    107500   0.013162254   -0.19753034     0             -0.18667582    -0.03003067   
    108000   0.012262677   -0.20305949     0             -0.19294682     0.17585096   
    108500   0.014995517   -0.20118819     0             -0.18882182    -0.061247362  
    109000   0.0092406228  -0.19970156     0             -0.19208109    -0.016109699  
    109500   0.0098281038  -0.20056907     0             -0.19246412    -0.039827467  
    110000   0.00821708    -0.19819429     0             -0.1914179      0.0012301285 
    110500   0.010781791   -0.19879897     0             -0.18990753     0.092582016  
    111000   0.0086504151  -0.20135718     0             -0.19422343     0.62454861   
    111500   0.017363555   -0.19748822     0             -0.183169       0.0019616256 
    112000   0.010398889   -0.20309392     0             -0.19451826     0.10228201   
    112500   0.013962516   -0.20237748     0             -0.190863       0.088056453  
    113000   0.015162739   -0.19644191     0             -0.18393763    -0.11234887   
    113500   0.013823113   -0.19857064     0             -0.18717112    -0.037681183  
    114000   0.011976866   -0.19867816     0             -0.18880119     0.067258506  
    114500   0.010208354   -0.20410373     0             -0.19568519    -0.038504152  
    115000   0.01250243    -0.20372657     0             -0.19341618    -0.17628822   
    115500   0.010939306   -0.20303446     0             -0.19401313     0.18440303   
    116000   0.011770873   -0.19968145     0             -0.18997435    -0.074055355  
    116500   0.014366682   -0.20222363     0             -0.19037584     0.1271598    
    117000   0.010683514   -0.20045911     0             -0.19164873     0.20225969   
    117500   0.012146332   -0.1980177      0             -0.18800097    -0.1461478    
    118000   0.014184161   -0.19935708     0             -0.18765981     0.030966134  
    118500   0.012140511   -0.19956913     0             -0.18955721     0.20333741   
    119000   0.010568237   -0.20247673     0             -0.19376141    -0.066760941  
    119500   0.013399855   -0.19853966     0             -0.18748919     0.058075506  
    120000   0.010272076   -0.20345411     0             -0.19498303    -0.065631133  
    120500   0.010482258   -0.20366903     0             -0.19502462     0.11935973   
    121000   0.011118898   -0.20455379     0             -0.19538436    -0.2345037    
    121500   0.0085864372  -0.21023276     0             -0.20315177    -0.10364415   
    122000   0.011136531   -0.2129353      0             -0.20375132     0.080591777  
    122500   0.011442151   -0.21107169     0             -0.20163568    -0.00062916082
    123000   0.010696972   -0.20892478     0             -0.20010329     0.03552923   
    123500   0.011918722   -0.21286884     0             -0.20303982    -0.13405996   
    124000   0.0086096689  -0.21479266     0             -0.20769251     0.068094532  
    124500   0.010802334   -0.20977455     0             -0.20086618     0.12089647   
    125000   0.0088295194  -0.2084713      0             -0.20118985     0.20623405   
    125500   0.011081638   -0.20674029     0             -0.19760159    -0.049667963  
    126000   0.010457585   -0.21082673     0             -0.20220267     0.036115993  
    126500   0.0079965749  -0.21190292     0             -0.20530838    -0.13973043   
    127000   0.01137919    -0.21029764     0             -0.20091356    -0.11093618   
    127500   0.010856892   -0.20955256     0             -0.2005992      0.0010232112 
    128000   0.01054106    -0.21060117     0             -0.20190826     0.023341418  
    128500   0.0097087819  -0.21122612     0             -0.20321957     0.19773146   
    129000   0.010158347   -0.21188221     0             -0.20350491    -0.0074689096 
    129500   0.0099149958  -0.21277918     0             -0.20460257     0.17308414   
    130000   0.012597953   -0.21224119     0             -0.20185202    -0.055119828  
    130500   0.014886891   -0.21700481     0             -0.20472802    -0.024657875  
    131000   0.012033425   -0.21498531     0             -0.2050617      0.098894465  
    131500   0.011528255   -0.2127011      0             -0.20319408    -0.23487244   
    132000   0.010288631   -0.21439735     0             -0.20591261    -0.0064844044 
    132500   0.01539014    -0.21331123     0             -0.20061943     0.095841481  
    133000   0.013077973   -0.21586379     0             -0.20507876    -0.031298514  
    133500   0.012516962   -0.21191665     0             -0.20159428    -0.089303831  
    134000   0.013448999   -0.21710199     0             -0.20601099     0.11083373   
    134500   0.011544589   -0.2150042      0             -0.20548371     0.2658358    
    135000   0.011923618   -0.21420793     0             -0.20437487     0.011201543  
    135500   0.012533972   -0.21384943     0             -0.20351303    -0.0015198258 
    136000   0.00983626    -0.21875364     0             -0.21064196     0.031570186  
    136500   0.010114193   -0.21943773     0             -0.21109685    -0.024480638  
    137000   0.0094380489  -0.21693328     0             -0.20914999    -0.017690924  
    137500   0.0096000935  -0.22248455     0             -0.21456763    -0.035652773  
    138000   0.011155399   -0.2181859      0             -0.20898637     0.075345905  
    138500   0.0094830925  -0.22021746     0             -0.21239703    -0.14197791   
    139000   0.011427503   -0.21703199     0             -0.20760806     0.09305867   
    139500   0.011538755   -0.21855128     0             -0.2090356     -0.13624425   
    140000   0.010679729   -0.21614023     0             -0.20733296    -0.18660483   
    140500   0.012254472   -0.22061002     0             -0.21050411    -0.021249804  
    141000   0.015174407   -0.22088616     0             -0.20837226    -0.22376829   
    141500   0.014427643   -0.22031536     0             -0.2084173      0.081031343  
    142000   0.0145723     -0.22033956     0             -0.20832221     0.013654897  
    142500   0.011604213   -0.22451665     0             -0.21494699     0.080204136  
    143000   0.010478657   -0.22595754     0             -0.21731609    -0.1032942    
    143500   0.031807748   -0.22101635     0             -0.19478542    -0.00016279847
    144000   0.026615525   -0.21593233     0             -0.19398327    -0.048996817  
    144500   0.021599697   -0.21999483     0             -0.20218218    -0.10709051   
    145000   0.014809694   -0.21396457     0             -0.20175145    -0.046268279  
    145500   0.013646069   -0.21977735     0             -0.20852383     0.084114184  
    146000   0.019101415   -0.21721885     0             -0.20146646     0.034972872  
    146500   0.015819141   -0.219156       0             -0.20611041     0.10241694   
    147000   0.018527245   -0.21602455     0             -0.20074567     0.073175263  
    147500   0.015274506   -0.21907205     0             -0.20647561    -0.21359144   
    148000   0.015291714   -0.21686275     0             -0.20425211    -0.075043285  
    148500   0.016483753   -0.21909677     0             -0.20550309    -0.011147003  
    149000   0.014101306   -0.21734508     0             -0.20571614    -0.1424782    
    149500   0.014062399   -0.22318695     0             -0.2115901     -0.1142739    
    150000   0.015735752   -0.22104993     0             -0.20807311     0.070543101  
    150500   0.011660794   -0.22448472     0             -0.2148684      0.11897216   
    151000   0.01215699    -0.22622759     0             -0.21620207     0.040552327  
    151500   0.013687424   -0.22456905     0             -0.21328142     0.071878463  
    152000   0.01304559    -0.2241665      0             -0.21340818     0.014360809  
    152500   0.012529132   -0.22273996     0             -0.21240754    -0.19007737   
    153000   0.017750708   -0.22769809     0             -0.21305959    -0.033597671  
    153500   0.015719504   -0.22431879     0             -0.21135537     0.08058915   
    154000   0.011687085   -0.22193908     0             -0.21230108     0.05291777   
    154500   0.014041151   -0.22538858     0             -0.21380925    -0.050767598  
    155000   0.021068662   -0.22581468     0             -0.20843997    -0.053585801  
    155500   0.015874441   -0.22813732     0             -0.21504613    -0.064516355  
    156000   0.012583195   -0.22000396     0             -0.20962696     0.072187538  
    156500   0.014696811   -0.22911255     0             -0.21699251    -0.060394585  
    157000   0.019393123   -0.22687714     0             -0.21088419    -0.060090636  
    157500   0.012959707   -0.22270566     0             -0.21201817     0.098697069  
    158000   0.011998218   -0.22571143     0             -0.21581684     0.094980387  
    158500   0.013960048   -0.22664249     0             -0.21513004    -0.08513547   
    159000   0.016092447   -0.22757223     0             -0.21430125    -0.33666697   
    159500   0.014479692   -0.23053205     0             -0.21859107     0.084571945  
    160000   0.013137118   -0.23186928     0             -0.22103548    -0.098489502  
    160500   0.020259728   -0.22925346     0             -0.21254585    -0.032354918  
    161000   0.014177937   -0.23124322     0             -0.21955109    -0.0084436761 
    161500   0.012907759   -0.23113269     0             -0.22048803     0.093890154  
    162000   0.017003307   -0.23171268     0             -0.21769054    -0.064242595  
    162500   0.012812405   -0.22984141     0             -0.21927539     0.11389059   
    163000   0.014873705   -0.23159004     0             -0.21932412    -0.12671116   
    163500   0.016699034   -0.22835097     0             -0.21457976     0.052906958  
    164000   0.017083076   -0.22927152     0             -0.2151836     -0.10263402   
    164500   0.016504908   -0.22717653     0             -0.21356541     0.06964238   
    165000   0.016155398   -0.23118643     0             -0.21786354     0.065769749  
    165500   0.017665967   -0.22310812     0             -0.20853951     0.078846242  
    166000   0.015805454   -0.22491268     0             -0.21187838     0.046619836  
    166500   0.013290205   -0.22784322     0             -0.21688317     0.031587098  
    167000   0.013627332   -0.22255724     0             -0.21131917     0.47003793   
    167500   0.011553601   -0.22727089     0             -0.21774297     0.12569785   
    168000   0.011907295   -0.22813472     0             -0.21831512     0.027939035  
    168500   0.012854606   -0.22779271     0             -0.21719189     0.044977249  
    169000   0.016307604   -0.225986       0             -0.21253759    -0.064719268  
    169500   0.018353765   -0.22409101     0             -0.20895519    -0.051401104  
    170000   0.024627164   -0.22283391     0             -0.2025246      0.095163014  
    170500   0.016043557   -0.2252026      0             -0.21197194     0.034126602  
    171000   0.014927797   -0.2333978      0             -0.22108728    -0.004532969  
    171500   0.014707014   -0.22721747     0             -0.21508902    -0.27450658   
    172000   0.015415869   -0.22502149     0             -0.21230847    -0.2013539    
    172500   0.0136909     -0.23251726     0             -0.22122677     0.17316987   
    173000   0.015705007   -0.2287964      0             -0.21584494     0.042657421  
    173500   0.015373979   -0.22773472     0             -0.21505624    -0.11568464   
    174000   0.013373549   -0.22993297     0             -0.21890419    -0.037209527  
    174500   0.01175074    -0.23265998     0             -0.22296949     0.057644652  
    175000   0.01841463    -0.23284747     0             -0.21766146     0.18758074   
    175500   0.025663879   -0.2260368      0             -0.20487254     0.034643699  
    176000   0.022772971   -0.22619371     0             -0.2074135     -0.12498565   
    176500   0.018548885   -0.22709871     0             -0.21180198     0.41551118   
    177000   0.020550801   -0.22959424     0             -0.21264659    -0.16258625   
    177500   0.018633045   -0.23094163     0             -0.21557549     0.023683351  
    178000   0.018761671   -0.23005748     0             -0.21458527    -0.11780652   
    178500   0.018282552   -0.23095986     0             -0.21588277    -0.14202833   
    179000   0.016630858   -0.22915833     0             -0.21544334    -0.072600621  
    179500   0.023243058   -0.22479031     0             -0.20562243    -0.015734513  
    180000   0.019574098   -0.22949934     0             -0.21335715     0.20794122   
    180500   0.016908722   -0.22745581     0             -0.21351168    -0.067287774  
    181000   0.014589197   -0.23039596     0             -0.21836467    -0.11432267   
    181500   0.021295951   -0.231752       0             -0.21418985     0.05143427   
    182000   0.020862973   -0.23127725     0             -0.21407216     0.1892276    
    182500   0.021917535   -0.23338079     0             -0.21530603     0.11189254   
    183000   0.016909302   -0.23113738     0             -0.21719277    -0.1831378    
    183500   0.014340347   -0.23119254     0             -0.21936647    -0.23517941   
    184000   0.014052074   -0.23309342     0             -0.22150508    -0.054104802  
    184500   0.020909633   -0.22956101     0             -0.21231744     0.23561886   
    185000   0.016847901   -0.23174087     0             -0.2178469     -0.036663427  
    185500   0.013781067   -0.23669585     0             -0.22533101    -0.13993436   
    186000   0.018706739   -0.23176953     0             -0.21634263     0.097492857  
    186500   0.025622833   -0.23482483     0             -0.21369442     0.065198487  
    187000   0.019839119   -0.23160459     0             -0.21524384     0.38299182   
    187500   0.0212483     -0.23454882     0             -0.21702597    -0.21808485   
    188000   0.016634382   -0.23410295     0             -0.22038506     0.21721945   
    188500   0.017353459   -0.23253831     0             -0.21822742    -0.053444704  
    189000   0.01359459    -0.23652365     0             -0.22531259    -0.12815832   
    189500   0.020508045   -0.23456251     0             -0.21765012     0.063421097  
    190000   0.015075357   -0.23640911     0             -0.2239769     -0.0094112619 
    190500   0.017100763   -0.23629321     0             -0.2221907      0.033434205  
    191000   0.016013605   -0.23388077     0             -0.22067482     0.11699506   
    191500   0.014059346   -0.2349339      0             -0.22333957    -0.15204198   
    192000   0.016718247   -0.23860765     0             -0.2248206      0.076422267  
    192500   0.018211477   -0.2419411      0             -0.22692262    -0.023502694  
    193000   0.021943205   -0.23667563     0             -0.21857971     0.11739237   
    193500   0.024187119   -0.23561146     0             -0.21566505    -0.12061705   
    194000   0.022793933   -0.23120938     0             -0.21241189    -0.067492746  
    194500   0.028184033   -0.23007799     0             -0.20683544    -0.17292581   
    195000   0.017593984   -0.23488033     0             -0.22037108    -0.097694331  
    195500   0.014084039   -0.2340241      0             -0.2224094     -0.095706118  
    196000   0.016925005   -0.23969196     0             -0.2257344     -0.078084608  
    196500   0.017078743   -0.23575357     0             -0.22166922     0.032278446  
    197000   0.016492983   -0.23472761     0             -0.22112633     0.053116455  
    197500   0.014505803   -0.23737305     0             -0.22541054     0.097664212  
    198000   0.014519724   -0.23843609     0             -0.22646209     0.27839208   
    198500   0.015750181   -0.23948237     0             -0.22649365    -0.0936765    
    199000   0.015112248   -0.23607505     0             -0.22361242     0.049814134  
    199500   0.01307719    -0.23390609     0             -0.22312171     0.027446038  
    200000   0.013031249   -0.24186107     0             -0.23111458     0.031277801  
    200500   0.02291326    -0.23918172     0             -0.22028582     0.0020552002 
    201000   0.016399069   -0.24143087     0             -0.22790704     0.042600608  
    201500   0.013931829   -0.24119156     0             -0.22970239     0.18137028   
    202000   0.017696341   -0.23940443     0             -0.22481077    -0.23720115   
    202500   0.018153786   -0.24011292     0             -0.22514202     0.054345757  
    203000   0.018379143   -0.24237905     0             -0.22722231    -0.021351921  
    203500   0.02333183    -0.24420586     0             -0.22496478     0.18778077   
    204000   0.024479169   -0.23727201     0             -0.21708475     0.17004515   
    204500   0.019622631   -0.23682897     0             -0.22064676    -0.11402394   
    205000   0.020836779   -0.23951227     0             -0.22232878    -0.068465129  
    205500   0.02083029    -0.24193888     0             -0.22476074     0.22803615   
    206000   0.017974558   -0.23911644     0             -0.22429334    -0.017847428  
    206500   0.019325446   -0.23601529     0             -0.22007815     0.097745705  
    207000   0.016957319   -0.23558742     0             -0.22160321     0.13559512   
    207500   0.02452576    -0.23679402     0             -0.21656834    -0.092200039  
    208000   0.020024333   -0.23477675     0             -0.21826326     0.32095792   
    208500   0.018240113   -0.23693858     0             -0.22189648     0.088946535  
    209000   0.029115255   -0.23793603     0             -0.21392552    -0.019874707  
    209500   0.027928656   -0.23495799     0             -0.21192604    -0.30040098   
    210000   0.024116466   -0.23426872     0             -0.21438056     0.040062809  
    210500   0.017757398   -0.23407676     0             -0.21943275    -0.019104309  
    211000   0.014991072   -0.22911177     0             -0.21674907     0.037941347  
    211500   0.021733953   -0.23607266     0             -0.21814929    -0.02264749   
    212000   0.018160773   -0.23334581     0             -0.21836914    -0.045013595  
    212500   0.018845776   -0.2360668      0             -0.22052523    -0.29409345   
    213000   0.027882747   -0.23248151     0             -0.20948742    -0.062918797  
    213500   0.021372854   -0.23201367     0             -0.2143881      0.11325497   
    214000   0.022959869   -0.23475199     0             -0.21581765    -0.17977548   
    214500   0.02115547    -0.23097833     0             -0.21353203     0.26283143   
    215000   0.021160019   -0.23057369     0             -0.21312364     0.039734221  
    215500   0.01768409    -0.23245515     0             -0.21787159    -0.11964424   
    216000   0.019184101   -0.23527624     0             -0.21945567    -0.042227896  
    216500   0.021927343   -0.23251882     0             -0.21443598    -0.085273233  
    217000   0.018035364   -0.23414468     0             -0.21927144     0.30514573   
    217500   0.022067897   -0.2370747      0             -0.21887595    -0.091367721  
    218000   0.01716493    -0.2363286      0             -0.22217318    -0.0094948983 
    218500   0.016320056   -0.24064859     0             -0.22718991     0.034539356  
    219000   0.014735408   -0.23186626     0             -0.2197144      0.044718675  
    219500   0.013198582   -0.23556925     0             -0.22468476     0.039403065  
    220000   0.01440826    -0.2398745      0             -0.22799243     0.023722054  
    220500   0.017139972   -0.23616808     0             -0.22203324    -0.12990088   
    221000   0.019627656   -0.2349315      0             -0.21874514    -0.082109414  
    221500   0.018694878   -0.23539181     0             -0.21997468     0.13150641   
    222000   0.022354319   -0.23644811     0             -0.21801315    -0.097299321  
    222500   0.023707824   -0.23664825     0             -0.21709709     0.02471109   
    223000   0.022680651   -0.2405565      0             -0.22185243     0.056843836  
    223500   0.018345297   -0.23491945     0             -0.21979062    -0.078566089  
    224000   0.020283669   -0.23389719     0             -0.21716984     0.018734191  
    224500   0.021900963   -0.23959276     0             -0.22153167     0.10709444   
    225000   0.018716612   -0.23449332     0             -0.21905827     0.04504499   
    225500   0.018809213   -0.23739442     0             -0.221883      -0.013475443  
    226000   0.016277446   -0.23888745     0             -0.22546391    -0.013478214  
    226500   0.019468406   -0.23532637     0             -0.21927134     0.044870583  
    227000   0.023409016   -0.23538783     0             -0.21608309    -0.093835534  
    227500   0.025033387   -0.23408956     0             -0.21344525     0.21980008   
    228000   0.019703468   -0.23538845     0             -0.21913958    -0.099231115  
    228500   0.018048542   -0.24022166     0             -0.22533755     0.14009352   
    229000   0.019040367   -0.2376274      0             -0.22192537    -0.030842094  
    229500   0.020342284   -0.23879121     0             -0.22201552    -0.17936907   
    230000   0.021049845   -0.24210466     0             -0.22474547     0.12304448   
    230500   0.017396707   -0.23976914     0             -0.22542258    -0.066628763  
    231000   0.016177452   -0.23941368     0             -0.2260726      0.099119398  
    231500   0.015147034   -0.24295815     0             -0.23046683    -0.38395839   
    232000   0.020126336   -0.24176873     0             -0.22517113    -0.060183602  
    232500   0.023089129   -0.23682183     0             -0.2177809      0.24826199   
    233000   0.018785464   -0.23886022     0             -0.22336839    -0.02973745   
    233500   0.020550069   -0.23898372     0             -0.22203667     0.10195701   
    234000   0.019848073   -0.24339316     0             -0.22702503     0.049292391  
    234500   0.021015936   -0.24558253     0             -0.2282513     -0.068540683  
    235000   0.025196378   -0.23964179     0             -0.21886306    -0.14729007   
    235500   0.020792605   -0.24014201     0             -0.22299495     0.12909485   
    236000   0.02425775    -0.24352209     0             -0.22351742     0.1489495    
    236500   0.027114578   -0.23775622     0             -0.21539561    -0.0051048738 
    237000   0.021973774   -0.24020975     0             -0.22208861    -0.16883647   
    237500   0.024348465   -0.23807226     0             -0.21799279    -0.048362405  
    238000   0.024110377   -0.23378468     0             -0.21390155     0.11819588   
    238500   0.017962874   -0.2349809      0             -0.22016744     0.25946922   
    239000   0.01994503    -0.23876548     0             -0.22231739    -0.25916374   
    239500   0.018166867   -0.2381883      0             -0.22320661    -0.10384596   
    240000   0.024074164   -0.23706052     0             -0.21720725     0.093103161  
    240500   0.02934042    -0.237279       0             -0.21308281    -0.27300909   
    241000   0.023621334   -0.23663613     0             -0.2171563      0.33829975   
    241500   0.019328805   -0.23607122     0             -0.22013131     0.16928336   
    242000   0.018975402   -0.24046829     0             -0.22481983    -0.09320428   
    242500   0.016921885   -0.23987702     0             -0.22592203    -0.054756393  
    243000   0.020702644   -0.24008376     0             -0.22301089     0.01789421   
    243500   0.022757393   -0.23805514     0             -0.21928777     0.1690109    
    244000   0.020758242   -0.23793736     0             -0.22081864     0.10890643   
    244500   0.025538298   -0.24236801     0             -0.22130731     0.06531339   
    245000   0.020912424   -0.23705294     0             -0.21980707    -0.13599312   
    245500   0.023476031   -0.24005295     0             -0.22069294    -0.063947046  
    246000   0.021431454   -0.24002612     0             -0.22235222    -0.037982174  
    246500   0.018735486   -0.24281987     0             -0.22736926    -0.18124203   
    247000   0.016937883   -0.24054281     0             -0.22657463    -0.12588338   
    247500   0.016896306   -0.23963244     0             -0.22569855    -0.27599155   
    248000   0.013805952   -0.24074783     0             -0.22936246     0.10341635   
    248500   0.015133212   -0.24056654     0             -0.22808662    -0.045237509  
    249000   0.017780433   -0.24123607     0             -0.22657306    -0.14921868   
    249500   0.016509084   -0.24043126     0             -0.2268167      0.37084288   
    250000   0.018200766   -0.24417768     0             -0.22916804     0.097934122  
    250500   0.021335555   -0.23932983     0             -0.22173501    -0.012000356  
    251000   0.019388149   -0.24205894     0             -0.22607009    -0.093411743  
    251500   0.021266593   -0.23786206     0             -0.22032411     0.072121336  
    252000   0.023165196   -0.23726144     0             -0.21815777     0.13927335   
    252500   0.025110505   -0.23809853     0             -0.21739063    -0.05256279   
    253000   0.019637232   -0.23828579     0             -0.22209153     0.018964516  
    253500   0.019338769   -0.23862441     0             -0.22267629     0.256728     
    254000   0.016236325   -0.2355465      0             -0.22215687     0.012045153  
    254500   0.01937927    -0.2368281      0             -0.22084657     0.021663221  
    255000   0.018877426   -0.23802515     0             -0.22245748     0.19927647   
    255500   0.026320567   -0.2326225      0             -0.21091669     0.14833229   
    256000   0.022390712   -0.23103842     0             -0.21257345    -0.069634487  
    256500   0.021943097   -0.2362389      0             -0.21814306     0.080087069  
    257000   0.020691168   -0.23986722     0             -0.22280381    -0.024354769  
    257500   0.022022733   -0.23660187     0             -0.21844036    -0.049237054  
    258000   0.024637221   -0.23479826     0             -0.21448066    -0.12906933   
    258500   0.023085818   -0.23395611     0             -0.21491791     0.22119167   
    259000   0.022002852   -0.23266935     0             -0.21452423    -0.12042883   
    259500   0.026101947   -0.23630435     0             -0.21477883    -0.27308117   
    260000   0.02357322    -0.23413553     0             -0.21469538    -0.11965638   
    260500   0.023804328   -0.23543219     0             -0.21580145    -0.20060693   
    261000   0.020042721   -0.23353345     0             -0.2170048      0.15401122   
    261500   0.029750071   -0.23576455     0             -0.21123053    -0.13504229   
    262000   0.023115622   -0.23348498     0             -0.2144222      0.088016858  
    262500   0.024277855   -0.2331052      0             -0.21308396    -0.13005058   
    263000   0.033289446   -0.23161019     0             -0.20415735    -0.018312333  
    263500   0.028475225   -0.22859523     0             -0.20511254    -0.053817763  
    264000   0.031286491   -0.23288133     0             -0.20708026    -0.15824502   
    264500   0.022789647   -0.23355925     0             -0.21476529    -0.12400014   
    265000   0.020711014   -0.23376651     0             -0.21668673     0.013029845  
    265500   0.023400191   -0.23541333     0             -0.21611587    -0.024649457  
    266000   0.030571073   -0.2401359      0             -0.21492482     0.042374493  
    266500   0.038739804   -0.23511536     0             -0.20316776     0.3686819    
    267000   0.033027287   -0.23332951     0             -0.20609287    -0.17380716   
    267500   0.027240423   -0.23386532     0             -0.21140094     0.017694099  
    268000   0.028125331   -0.23204411     0             -0.20884997     0.26919048   
    268500   0.025480362   -0.23449641     0             -0.21348349     0.1050357    
    269000   0.032255291   -0.23132353     0             -0.20472352    -0.30090598   
    269500   0.023319022   -0.23230932     0             -0.2130788     -0.21116325   
    270000   0.022109116   -0.23691292     0             -0.21868017     0.19090315   
    270500   0.020512837   -0.23656949     0             -0.21965315     0.31575875   
    271000   0.017063893   -0.23774963     0             -0.22367753    -0.16446437   
    271500   0.017774727   -0.23569309     0             -0.22103479     0.061307688  
    272000   0.016727812   -0.23823235     0             -0.22443741     0.083418706  
    272500   0.023543004   -0.23636457     0             -0.21694933    -0.0033538826 
    273000   0.018625466   -0.24127533     0             -0.22591544     0.062823468  
    273500   0.019647441   -0.23555558     0             -0.2193529     -0.30746955   
    274000   0.024388787   -0.24111959     0             -0.22100686    -0.059367324  
    274500   0.025800318   -0.23965997     0             -0.2183832      0.29730332   
    275000   0.028910364   -0.23734381     0             -0.21350227     0.063068745  
    275500   0.022029803   -0.24115376     0             -0.22298642    -0.063772819  
    276000   0.039896064   -0.23508909     0             -0.20218796    -0.05824254   
    276500   0.035858586   -0.2363049      0             -0.20673336     0.23294281   
    277000   0.027509098   -0.23738209     0             -0.21469613    -0.40604341   
    277500   0.028095106   -0.23522142     0             -0.2120522     -0.054061008  
    278000   0.024937635   -0.23856348     0             -0.21799813     0.17513786   
    278500   0.024314325   -0.23871428     0             -0.21866296     0.11694179   
    279000   0.026644129   -0.24067691     0             -0.21870427     0.20696101   
    279500   0.024276375   -0.23600807     0             -0.21598804    -0.26866666   
    280000   0.022728458   -0.23911631     0             -0.22037281    -0.14143772   
    280500   0.021486999   -0.23852732     0             -0.22080762    -0.024624195  
    281000   0.018511127   -0.24065759     0             -0.225392       0.21117393   
    281500   0.01956645    -0.24188363     0             -0.22574775    -0.17664707   
    282000   0.02244376    -0.24096808     0             -0.22245936    -0.21300428   
    282500   0.026425126   -0.23753356     0             -0.21574153     0.22750918   
    283000   0.028058083   -0.23417072     0             -0.21103203     0.12839325   
    283500   0.027515335   -0.24104462     0             -0.21835352     0.11925156   
    284000   0.027058779   -0.2396032      0             -0.21728861    -0.22618676   
    284500   0.021070482   -0.23882727     0             -0.22145106     0.071738813  
    285000   0.025000788   -0.23424378     0             -0.21362636     0.19600404   
    285500   0.019943048   -0.24188427     0             -0.22543781     0.19815835   
    286000   0.02158938    -0.23959673     0             -0.22179259    -0.017053216  
    286500   0.026654034   -0.23861021     0             -0.2166294      0.1931175    
    287000   0.030929598   -0.2404124      0             -0.21490566     0.19784455   
    287500   0.023511264   -0.23808436     0             -0.2186953     -0.10476956   
    288000   0.020052516   -0.2384884      0             -0.22195167     0.028374519  
    288500   0.028182944   -0.24351943     0             -0.22027777    -0.010520333  
    289000   0.040350359   -0.23469101     0             -0.20141524    -0.31335996   
    289500   0.031360222   -0.23604887     0             -0.210187      -0.10293539   
    290000   0.026520275   -0.23792466     0             -0.21605415     0.20729215   
    290500   0.027544412   -0.23746661     0             -0.21475153     0.028964505  
    291000   0.029983775   -0.23905292     0             -0.21432616     0.30050729   
    291500   0.031504234   -0.23389632     0             -0.20791569    -0.0013437345 
    292000   0.027091211   -0.2401918      0             -0.21785046     0.00055364773
    292500   0.026300456   -0.23567245     0             -0.21398323    -0.18656854   
    293000   0.023000419   -0.23943772     0             -0.22046994    -0.30175403   
    293500   0.024436481   -0.23939295     0             -0.21924089    -0.082558274  
    294000   0.022215303   -0.24090103     0             -0.22258071    -0.021980239  
    294500   0.027399893   -0.23682912     0             -0.21423322    -0.15276177   
    295000   0.029913586   -0.23904446     0             -0.21437559     0.1439833    
    295500   0.030016406   -0.23738595     0             -0.21263229    -0.27906118   
    296000   0.021221817   -0.23762697     0             -0.22012595     0.19953149   
    296500   0.020368615   -0.24092995     0             -0.22413254    -0.0054539492 
    297000   0.019818849   -0.24585081     0             -0.22950678     0.033794368  
    297500   0.024496247   -0.23717961     0             -0.21697826     0.074964585  
    298000   0.02254164    -0.24071953     0             -0.22213009    -0.14410359   
    298500   0.020102838   -0.24185984     0             -0.22528161    -0.053933397  
    299000   0.025173027   -0.24526473     0             -0.22450526     0.36481082   
    299500   0.019918056   -0.24392532     0             -0.22749948     0.05665322   
    300000   0.019616328   -0.24574663     0             -0.22956961     0.14572122   
    300500   0.022519649   -0.24400539     0             -0.22543408    -0.025244338  
    301000   0.019241633   -0.24679829     0             -0.23093027     0.14504392   
    301500   0.03187141    -0.24038921     0             -0.21410578     0.12404038   
    302000   0.02388396    -0.2410076      0             -0.22131119     0.18995542   
    302500   0.027783415   -0.24111125     0             -0.21819908    -0.1337389    
    303000   0.025777301   -0.24182898     0             -0.22057118     0.050815281  
    303500   0.024331072   -0.2411017      0             -0.22103657    -0.002428695  
    304000   0.024339649   -0.24363761     0             -0.22356541    -0.1277243    
    304500   0.022189622   -0.24453799     0             -0.22623885    -0.18333791   
    305000   0.026500784   -0.24061837     0             -0.21876394     0.22689432   
    305500   0.023934947   -0.24483805     0             -0.2250996      0.083069203  
    306000   0.033140698   -0.24057023     0             -0.21324006     0.10903365   
    306500   0.034201569   -0.24525028     0             -0.21704524    -0.15321018   
    307000   0.030133103   -0.23962921     0             -0.21477931    -0.13477376   
    307500   0.029620738   -0.23989865     0             -0.21547129     0.069534726  
    308000   0.026532857   -0.24257742     0             -0.22069654     0.16777632   
    308500   0.024237517   -0.23698435     0             -0.21699637    -0.14861416   
    309000   0.020132299   -0.24272731     0             -0.22612479     0.017930222  
    309500   0.02411365    -0.24017326     0             -0.22028743    -0.36564846   
    310000   0.023596953   -0.24257564     0             -0.22311592    -0.1653619    
    310500   0.022836929   -0.24433336     0             -0.2255004     -0.085289561  
    311000   0.024927323   -0.23692782     0             -0.21637098    -0.12580133   
    311500   0.022789105   -0.23968888     0             -0.22089536     0.25198888   
    312000   0.030476803   -0.2377299      0             -0.21259656    -0.067668316  
    312500   0.024612503   -0.24071004     0             -0.22041282     0.031293912  
    313000   0.027565322   -0.2386234      0             -0.21589107    -0.099273737  
    313500   0.022868369   -0.24003734     0             -0.22117846     0.24235089   
    314000   0.022631801   -0.23980342     0             -0.22113963    -0.40721986   
    314500   0.022670079   -0.23893978     0             -0.22024442     0.017954744  
    315000   0.024913146   -0.2407551      0             -0.22020995     0.073014063  
    315500   0.031916013   -0.23657345     0             -0.21025323    -0.14412395   
    316000   0.024652128   -0.23536283     0             -0.21503294     0.23057989   
    316500   0.02192258    -0.23560106     0             -0.21752214    -0.085088252  
    317000   0.029913029   -0.23696453     0             -0.21229613     0.43003038   
    317500   0.029286939   -0.2343638      0             -0.2102117      0.15209082   
    318000   0.030610275   -0.23242937     0             -0.20718596    -0.33277365   
    318500   0.029609804   -0.23230119     0             -0.20788284    -0.02869961   
    319000   0.027922264   -0.23159133     0             -0.20856465    -0.10308927   
    319500   0.029996735   -0.23383654     0             -0.2090991      0.19311675   
    320000   0.027867538   -0.23448333     0             -0.21150178     0.17304731   
    320500   0.031576103   -0.23199587     0             -0.20595597     0.38140933   
    321000   0.029016198   -0.23361326     0             -0.20968444     0.082874003  
    321500   0.026504672   -0.2302189      0             -0.20836126     0.04846194   
    322000   0.028402055   -0.22965756     0             -0.20623521     0.14463693   
    322500   0.026440099   -0.22987672     0             -0.20807234    -0.31717763   
    323000   0.028379502   -0.22764727     0             -0.20424351     0.14525278   
    323500   0.025686662   -0.22679011     0             -0.20560706     0.0071857442 
    324000   0.02328646    -0.23285736     0             -0.2136537      0.0040179019 
    324500   0.030635399   -0.22945924     0             -0.20419511    -0.091541314  
    325000   0.025319995   -0.23133358     0             -0.21045291    -0.049740736  
    325500   0.02403477    -0.23469459     0             -0.21487381     0.13053404   
    326000   0.024693028   -0.23472146     0             -0.21435783     0.073309522  
    326500   0.021547506   -0.23577919     0             -0.21800958    -0.012483189  
    327000   0.02548894    -0.23254032     0             -0.21152033     0.30342479   
    327500   0.022450645   -0.23695698     0             -0.21844258     0.17153716   
    328000   0.02970475    -0.23940459     0             -0.21490794     0.22891593   
    328500   0.031530257   -0.24043965     0             -0.21443756     0.0018729836 
    329000   0.029560636   -0.24078728     0             -0.21640948     0.080227672  
    329500   0.027808349   -0.24080179     0             -0.21786905    -0.067025319  
    330000   0.032205009   -0.24187353     0             -0.21531499     0.11846148   
    330500   0.0300966     -0.23596399     0             -0.2111442      0.085971508  
    331000   0.027726877   -0.23991741     0             -0.21705185     0.048528172  
    331500   0.0397376     -0.24315299     0             -0.21038254    -0.051579324  
    332000   0.036556879   -0.23798355     0             -0.20783615     0.028341219  
    332500   0.03370473    -0.23534298     0             -0.20754766    -0.099027377  
    333000   0.032843158   -0.23926235     0             -0.21217755    -0.067118058  
    333500   0.02607837    -0.24202202     0             -0.22051595     0.046487737  
    334000   0.024027124   -0.23930225     0             -0.21948778    -0.20456282   
    334500   0.033263351   -0.23829654     0             -0.21086522    -0.21156174   
    335000   0.033613891   -0.23514639     0             -0.20742599     0.13178834   
    335500   0.03106649    -0.24083054     0             -0.2152109      0.16099057   
    336000   0.026514264   -0.23478322     0             -0.21291767     0.047244684  
    336500   0.025268922   -0.23893691     0             -0.21809836     0.039723532  
    337000   0.022917823   -0.2365519      0             -0.21765223    -0.0087604781 
    337500   0.028439616   -0.23909854     0             -0.21564521    -0.086443626  
    338000   0.038787507   -0.23568176     0             -0.20369482    -0.15120893   
    338500   0.03510116    -0.23436764     0             -0.20542073     0.16011833   
    339000   0.028997979   -0.23388481     0             -0.20997101     0.064239968  
    339500   0.023933306   -0.23646293     0             -0.21672583    -0.078059505  
    340000   0.0223894     -0.24046569     0             -0.2220018      0.12538724   
    340500   0.02349331    -0.23651921     0             -0.21714496     0.060376166  
    341000   0.026659262   -0.23567915     0             -0.21369403    -0.30351076   
    341500   0.028067003   -0.23282699     0             -0.20968094     0.027443101  
    342000   0.027477198   -0.23312667     0             -0.21046702    -0.10847326   
    342500   0.029172253   -0.23231419     0             -0.20825668     0.14316266   
    343000   0.033102337   -0.23295003     0             -0.20565149     0.20573139   
    343500   0.02861232    -0.23076967     0             -0.20717391     0.14928785   
    344000   0.022805017   -0.23738377     0             -0.21857714     0.41372828   
    344500   0.026552387   -0.23545028     0             -0.2135533      0.1936953    
    345000   0.024715662   -0.23441021     0             -0.21402792    -0.12540825   
    345500   0.027390135   -0.23216231     0             -0.20957446    -0.049195055  
    346000   0.030068875   -0.23867228     0             -0.21387535    -0.27198111   
    346500   0.028368558   -0.23021585     0             -0.20682112    -0.08872351   
    347000   0.029752249   -0.23029785     0             -0.20576203    -0.26638915   
    347500   0.025650977   -0.22850098     0             -0.20734736     0.10603822   
    348000   0.021788369   -0.22827175     0             -0.21030351    -0.29980117   
    348500   0.021988655   -0.23074037     0             -0.21260696    -0.16617126   
    349000   0.020989956   -0.23114136     0             -0.21383155    -0.099498131  
    349500   0.026616693   -0.23428756     0             -0.21233754     0.19107466   
    350000   0.029411925   -0.23333875     0             -0.20908358     0.19187335   
    350500   0.032586769   -0.23285894     0             -0.20598558    -0.010785327  
    351000   0.03451184    -0.23089105     0             -0.20243013    -0.086693063  
    351500   0.036173616   -0.23311147     0             -0.20328014    -0.095314433  
    352000   0.02821748    -0.22975164     0             -0.2064815     -0.27574451   
    352500   0.035708485   -0.22980652     0             -0.20035876    -0.3065372    
    353000   0.031442817   -0.22810046     0             -0.20217048     0.035745852  
    353500   0.031235484   -0.22716472     0             -0.20140572     0.24746238   
    354000   0.034562818   -0.2321926      0             -0.20368964    -0.29896501   
    354500   0.035447908   -0.22817051     0             -0.19893765    -0.11484285   
    355000   0.029688126   -0.23502961     0             -0.21054667     0.50308993   
    355500   0.033332331   -0.23302628     0             -0.20553807     0.11758213   
    356000   0.026634243   -0.23209021     0             -0.21012572    -0.065685549  
    356500   0.025134308   -0.23314459     0             -0.21241705    -0.074375796  
    357000   0.02563655    -0.23227212     0             -0.2111304     -0.0067788441 
    357500   0.022979327   -0.2380551      0             -0.21910471     0.020464757  
    358000   0.022604688   -0.24025892     0             -0.22161749     0.15851104   
    358500   0.025025723   -0.24020825     0             -0.21957026    -0.040917115  
    359000   0.026877544   -0.24192882     0             -0.21976369     0.11854455   
    359500   0.027925949   -0.23561327     0             -0.21258355    -0.36256242   
    360000   0.03745489    -0.23992417     0             -0.20903621    -0.0061472767 
    360500   0.033516852   -0.23970882     0             -0.21206844     0.45396506   
    361000   0.037901131   -0.22995474     0             -0.19869877    -0.0065882525 
    361500   0.042536748   -0.23513943     0             -0.20006061    -0.078873856  
    362000   0.031173097   -0.2389205      0             -0.21321295     0.048677491  
    362500   0.028401248   -0.23685617     0             -0.21343448     0.22827612   
    363000   0.030220126   -0.23832623     0             -0.21340457    -0.068343544  
    363500   0.029623303   -0.23635091     0             -0.21192143     0.056659725  
    364000   0.029219297   -0.23467007     0             -0.21057376     0.08930867   
    364500   0.02729327    -0.23441026     0             -0.21190229    -0.039289708  
    365000   0.024550272   -0.23636087     0             -0.21611497     0.076174637  
    365500   0.024740247   -0.23890228     0             -0.21849971    -0.3427984    
    366000   0.027746264   -0.23744438     0             -0.21456284     0.18156116   
    366500   0.024201507   -0.23777258     0             -0.21781429    -0.1448606    
    367000   0.036698799   -0.23610496     0             -0.20584052     0.12253138   
    367500   0.028985355   -0.2364105      0             -0.21250712     0.060836121  
    368000   0.024794106   -0.23753006     0             -0.21708308     0.059441249  
    368500   0.029840113   -0.23673915     0             -0.21213087     0.32931824   
    369000   0.030900069   -0.23413324     0             -0.20865085     0.49601911   
    369500   0.037736126   -0.23672479     0             -0.20560489     0.088798406  
    370000   0.033961869   -0.23693579     0             -0.20892841     0.017965339  
    370500   0.034124313   -0.2338937      0             -0.20575236    -0.095899633  
    371000   0.033349716   -0.23504242     0             -0.20753988    -0.029172619  
    371500   0.034322094   -0.23607437     0             -0.20776993     0.037133827  
    372000   0.03066378    -0.23722237     0             -0.21193484    -0.20420756   
    372500   0.028316434   -0.23625914     0             -0.21290739     0.0081674919 
    373000   0.024401394   -0.23646476     0             -0.21634164     0.20832666   
    373500   0.029008824   -0.24127066     0             -0.21734792    -0.18515949   
    374000   0.03561415    -0.23766009     0             -0.20829013     0.14350824   
    374500   0.033747578   -0.24328683     0             -0.21545618     0.013516268  
    375000   0.04669963    -0.23656521     0             -0.19805338    -0.095032608  
    375500   0.035878704   -0.23523785     0             -0.20564973    -0.039044268  
    376000   0.038971958   -0.23668631     0             -0.20454726     0.091034465  
    376500   0.031223675   -0.22912427     0             -0.20337501     0.11138158   
    377000   0.032094943   -0.23326309     0             -0.20679532    -0.041467941  
    377500   0.031310919   -0.23356735     0             -0.20774614    -0.022114828  
    378000   0.030910717   -0.23405018     0             -0.20855901     0.32564101   
    378500   0.027273698   -0.23736256     0             -0.21487073    -0.2414931    
    379000   0.041413928   -0.23266024     0             -0.19850738     0.51126104   
    379500   0.04129625    -0.2313047      0             -0.19724888    -0.025890941  
    380000   0.030690748   -0.23870132     0             -0.21339155    -0.035148974  
    380500   0.034207639   -0.23497201     0             -0.20676196     0.1341932    
    381000   0.031494315   -0.23155033     0             -0.20557788     0.028214225  
    381500   0.02820879    -0.23172465     0             -0.20846168    -0.064264675  
    382000   0.024016892   -0.2344073      0             -0.21460126     0.087202519  
    382500   0.027965181   -0.23359721     0             -0.21053514    -0.069837165  
    383000   0.03263384    -0.23390765     0             -0.20699547     0.18922033   
    383500   0.027804958   -0.23699676     0             -0.21406681    -0.039096617  
    384000   0.02368132    -0.23740529     0             -0.21787599    -0.018162974  
    384500   0.026068081   -0.23637833     0             -0.21488074    -0.095005484  
    385000   0.027314137   -0.23104949     0             -0.20852432     0.31899845   
    385500   0.028039417   -0.23283833     0             -0.20971503    -0.17355855   
    386000   0.02737638    -0.23259151     0             -0.210015      -0.0061786394 
    386500   0.028173033   -0.23759592     0             -0.21436244     0.11423519   
    387000   0.023165041   -0.23352903     0             -0.2144255      0.47974528   
    387500   0.026362787   -0.23471985     0             -0.21297922     0.074336207  
    388000   0.029139691   -0.24021614     0             -0.21618548    -0.049795904  
    388500   0.02951586    -0.2413601      0             -0.21701922     0.092202662  
    389000   0.030192978   -0.24232383     0             -0.21742456     0.31035588   
    389500   0.027459414   -0.24159756     0             -0.21895257    -0.25058663   
    390000   0.025636752   -0.24748611     0             -0.22634422     0.1861761    
    390500   0.028952868   -0.24193625     0             -0.21805966     0.098020012  
    391000   0.035747967   -0.23670627     0             -0.20722595    -0.26570242   
    391500   0.039436342   -0.24334177     0             -0.21081977    -0.071720196  
    392000   0.029840964   -0.23804815     0             -0.21343917    -0.028281123  
    392500   0.03602313    -0.23973944     0             -0.21003221    -0.13996853   
    393000   0.031723449   -0.23859011     0             -0.2124287      0.098824414  
    393500   0.028985907   -0.23780866     0             -0.21390482    -0.086737594  
    394000   0.032387739   -0.23510658     0             -0.20839735     0.04718431   
    394500   0.030717728   -0.23956376     0             -0.21423173     0.20985063   
    395000   0.027392857   -0.2380992      0             -0.21550911    -0.22263094   
    395500   0.023223299   -0.2374382      0             -0.21828662     0.18414753   
    396000   0.029147238   -0.23886362     0             -0.21482674     0.10925433   
    396500   0.026740866   -0.242978       0             -0.22092559    -0.064688405  
    397000   0.026695408   -0.23865824     0             -0.21664331     0.052582037  
    397500   0.029336247   -0.23559182     0             -0.21139907     0.0547648    
    398000   0.024540452   -0.2334761      0             -0.21323829    -0.31869511   
    398500   0.024627914   -0.23255547     0             -0.21224554    -0.32686358   
    399000   0.029313091   -0.23856256     0             -0.2143889      0.073490821  
    399500   0.027152743   -0.23853616     0             -0.21614408    -0.14481356   
    400000   0.024549831   -0.23636095     0             -0.21611541     0.073396102  
    400500   0.026703439   -0.23966062     0             -0.21763907    -0.055192509  
    401000   0.026149506   -0.23566375     0             -0.21409901     0.23670246   
    401500   0.0246601     -0.24387416     0             -0.22353769     0.077895209  
    402000   0.026503236   -0.2361928      0             -0.21433635     0.2093063    
    402500   0.0274671     -0.23589403     0             -0.21324271    -0.10191643   
    403000   0.03014323    -0.23797547     0             -0.21311723     0.44830949   
    403500   0.030591861   -0.23579205     0             -0.21056382     0.012849991  
    404000   0.025615685   -0.23688728     0             -0.21576277    -0.1599563    
    404500   0.03099291    -0.23657717     0             -0.21101822     0.14787291   
    405000   0.026973101   -0.24172622     0             -0.21948228    -0.1492831    
    405500   0.024332923   -0.2378304      0             -0.21776374     0.048407306  
    406000   0.028306043   -0.24079111     0             -0.21744793    -0.26379519   
    406500   0.03203283    -0.24113418     0             -0.21471763     0.82986897   
    407000   0.034709164   -0.24219702     0             -0.21357338    -0.16397257   
    407500   0.037532747   -0.24278277     0             -0.2118306     -0.28306736   
    408000   0.029340392   -0.24610029     0             -0.22190411     0.040385798  
    408500   0.033052295   -0.24082142     0             -0.21356415     0.020751539  
    409000   0.032766746   -0.24373943     0             -0.21671765     0.36578432   
    409500   0.031984897   -0.24061337     0             -0.21423635     0.41074568   
    410000   0.029240847   -0.24452601     0             -0.22041193     0.032906085  
    410500   0.031666418   -0.24536917     0             -0.21925479    -0.051241578  
    411000   0.029773709   -0.24400653     0             -0.21945301    -0.014045333  
    411500   0.031907042   -0.24339877     0             -0.21708596    -0.040017532  
    412000   0.027435646   -0.24155357     0             -0.21892819    -0.1460546    
    412500   0.030047184   -0.24238494     0             -0.2176059     -0.1393593    
    413000   0.029430475   -0.24479614     0             -0.22052568     0.074694409  
    413500   0.025268712   -0.24995847     0             -0.22912009    -0.26937016   
    414000   0.031685029   -0.23827846     0             -0.21214874    -0.26646423   
    414500   0.034153124   -0.24257624     0             -0.21441114    -0.2105968    
    415000   0.033720769   -0.24457744     0             -0.21676889    -0.014153801  
    415500   0.031833837   -0.23891746     0             -0.21266502     0.32966558   
    416000   0.031848504   -0.24385016     0             -0.21758562     0.60301157   
    416500   0.026504146   -0.24365841     0             -0.22180121     0.24305962   
    417000   0.029513926   -0.24390162     0             -0.21956234    -0.023893734  
    417500   0.032338384   -0.2452635      0             -0.21859497     0.18290648   
    418000   0.026926907   -0.24403972     0             -0.22183388     0.37896876   
    418500   0.02839965    -0.244015       0             -0.22059463     0.097465671  
    419000   0.027284871   -0.24888589     0             -0.22638485     0.065150952  
    419500   0.029124528   -0.24856874     0             -0.22455059     0.17977872   
    420000   0.034281087   -0.24069744     0             -0.21242682     0.071576051  
    420500   0.027084097   -0.24174508     0             -0.21940961     0.062235046  
    421000   0.029097423   -0.246342       0             -0.2223462      0.011255566  
    421500   0.030780821   -0.24858459     0             -0.22320054     0.11482902   
    422000   0.034109751   -0.24602852     0             -0.2178992      0.0073456476 
    422500   0.035963104   -0.24497048     0             -0.21531275    -0.086485926  
    423000   0.030774986   -0.24356037     0             -0.21818113     0.16021839   
    423500   0.02847603    -0.24648232     0             -0.22299896    -0.047511303  
    424000   0.027695062   -0.24730345     0             -0.22446414     0.23228684   
    424500   0.035040305   -0.24499801     0             -0.21610128    -0.034888095  
    425000   0.03827989    -0.24281114     0             -0.21124282     0.55455208   
    425500   0.030056193   -0.24667477     0             -0.2218883      0.085450207  
    426000   0.033208112   -0.24633796     0             -0.21895219     0.060645287  
    426500   0.036460125   -0.23894826     0             -0.20888065     0.18325556   
    427000   0.030125155   -0.24227114     0             -0.21742779    -0.33623595   
    427500   0.031582992   -0.24550428     0             -0.2194587      0.26874176   
    428000   0.030341828   -0.24059777     0             -0.21557574    -0.015477984  
    428500   0.034342774   -0.24616025     0             -0.21783876     0.25306218   
    429000   0.032911965   -0.24227107     0             -0.21512952     0.047239256  
    429500   0.029063896   -0.24425677     0             -0.22028861     0.1669771    
    430000   0.02989688    -0.24581678     0             -0.22116169     0.1038871    
    430500   0.041399317   -0.24151954     0             -0.20737872    -0.13199584   
    431000   0.041094932   -0.23705096     0             -0.20316116    -0.039758761  
    431500   0.034723625   -0.24006086     0             -0.21142529     0.088103113  
    432000   0.035864192   -0.24175842     0             -0.21218226    -0.16018935   
    432500   0.038173512   -0.24474374     0             -0.21326315     0.098406906  
    433000   0.034541748   -0.24217544     0             -0.21368986    -0.15465373   
    433500   0.034353786   -0.2444596      0             -0.21612902     0.0017336968 
    434000   0.031927467   -0.24394428     0             -0.21761462    -0.17619846   
    434500   0.037182589   -0.2428506      0             -0.21218719    -0.26840783   
    435000   0.037573773   -0.24506656     0             -0.21408056    -0.19731501   
    435500   0.034468124   -0.2434118      0             -0.21498694     0.40431153   
    436000   0.036908507   -0.23996945     0             -0.20953207     0.1761624    
    436500   0.038510021   -0.24191357     0             -0.21015547    -0.062545555  
    437000   0.033239165   -0.24179274     0             -0.21438136     0.17385666   
    437500   0.033026652   -0.24593821     0             -0.21870209    -0.043963833  
    438000   0.036998883   -0.24087493     0             -0.21036302    -0.28695705   
    438500   0.035500207   -0.24018808     0             -0.21091208     0.038813749  
    439000   0.029937712   -0.23980173     0             -0.21511296    -0.18810904   
    439500   0.030196018   -0.24366591     0             -0.21876412     0.18079738   
    440000   0.031958673   -0.24308356     0             -0.21672817     0.046891701  
    440500   0.029217598   -0.24594944     0             -0.22185453     0.035871657  
    441000   0.030123384   -0.24340488     0             -0.218563       0.40439784   
    441500   0.028316005   -0.24195238     0             -0.21860099    -0.040206254  
    442000   0.031595564   -0.24168457     0             -0.21562863    -0.1106859    
    442500   0.031948812   -0.24066321     0             -0.21431595    -0.092507824  
    443000   0.03649459    -0.24372066     0             -0.21362463    -0.087034739  
    443500   0.035499279   -0.24477496     0             -0.21549973     0.015136509  
    444000   0.036275058   -0.24237621     0             -0.21246122     0.20436942   
    444500   0.043037372   -0.2373312      0             -0.20183953    -0.0023832833 
    445000   0.041264213   -0.24496825     0             -0.21093884     0.11646473   
    445500   0.037742874   -0.24288728     0             -0.21176183    -0.10260924   
    446000   0.03810885    -0.23633954     0             -0.20491228    -0.26954835   
    446500   0.037209822   -0.23982496     0             -0.20913909    -0.33187765   
    447000   0.036217468   -0.23937134     0             -0.20950384     0.12722072   
    447500   0.037178312   -0.24098856     0             -0.21032868    -0.16329466   
    448000   0.033838446   -0.24161008     0             -0.21370449     0.14189056   
    448500   0.037769136   -0.24248063     0             -0.21133352     0.16742289   
    449000   0.035443844   -0.24437868     0             -0.21514916     0.21172983   
    449500   0.033847628   -0.24008779     0             -0.21217463     0.29314079   
    450000   0.033844155   -0.24380729     0             -0.215897       0.20954156   
    450500   0.03530615    -0.24603811     0             -0.21692215    -0.024896931  
    451000   0.035209829   -0.24368894     0             -0.21465242     0.21423593   
    451500   0.038949124   -0.24324404     0             -0.21112382    -0.21686279   
    452000   0.047236603   -0.23959482     0             -0.20064016    -0.082518691  
    452500   0.040364562   -0.24238902     0             -0.20910154    -0.037629798  
    453000   0.036110153   -0.24281169     0             -0.21303269     0.26719621   
    453500   0.035312331   -0.23825023     0             -0.20912917     0.080044781  
    454000   0.038738582   -0.24374931     0             -0.21180272     0.29534203   
    454500   0.033013929   -0.24577429     0             -0.21854866    -0.1027889    
    455000   0.040291748   -0.24205363     0             -0.20882619    -0.28190013   
    455500   0.038972854   -0.24307446     0             -0.21093468    -0.11743621   
    456000   0.044386414   -0.2453972      0             -0.20879301    -0.051613875  
    456500   0.045274414   -0.24476173     0             -0.20742523    -0.33326942   
    457000   0.046102635   -0.23899223     0             -0.20097272    -0.18995147   
    457500   0.042044726   -0.23921829     0             -0.20454522    -0.14727353   
    458000   0.037002309   -0.24038942     0             -0.20987468    -0.098842506  
    458500   0.049803337   -0.23805132     0             -0.19697995    -0.12778541   
    459000   0.045342024   -0.24060932     0             -0.20321706    -0.14914882   
    459500   0.041663826   -0.24010744     0             -0.20574849     0.023873118  
    460000   0.037347666   -0.2393385      0             -0.20853896     0.046832017  
    460500   0.035413054   -0.24034959     0             -0.21114547     0.11294269   
    461000   0.032385908   -0.24014962     0             -0.2134419     -0.056559959  
    461500   0.033217056   -0.23630541     0             -0.20891226     0.23778572   
    462000   0.033324795   -0.24044732     0             -0.21296533     0.12014825   
    462500   0.028733013   -0.24225525     0             -0.21855996    -0.077175927  
    463000   0.03367316    -0.23757296     0             -0.20980368     0.21735641   
    463500   0.045354386   -0.23669807     0             -0.19929562     0.49616031   
    464000   0.034936434   -0.23314161     0             -0.20433054    -0.057485445  
    464500   0.031790498   -0.23490338     0             -0.20868667    -0.12358137   
    465000   0.031257023   -0.23891388     0             -0.21313712    -0.20663317   
    465500   0.03093486    -0.24182846     0             -0.21631738    -0.1519636    
    466000   0.035948515   -0.24218713     0             -0.21254143     0.071300107  
    466500   0.040770188   -0.23944        0             -0.20581801    -0.037204979  
    467000   0.035379229   -0.2441456      0             -0.21496938     0.023449242  
    467500   0.037264682   -0.23744215     0             -0.20671105     0.13387772   
    468000   0.040166053   -0.23152392     0             -0.19840014    -0.16623264   
    468500   0.038490094   -0.23332007     0             -0.2015784     -0.066781331  
    469000   0.038254894   -0.23163582     0             -0.20008812    -0.051621635  
    469500   0.031516285   -0.2338816      0             -0.20789103    -0.26025023   
    470000   0.029730718   -0.23859095     0             -0.21407288    -0.026514625  
    470500   0.034674845   -0.24234203     0             -0.21374668     0.21691381   
    471000   0.037001454   -0.23933328     0             -0.20881925     0.053162773  
    471500   0.034621265   -0.23960321     0             -0.21105206    -0.26918842   
    472000   0.031526592   -0.23961132     0             -0.21361225    -0.066718848  
    472500   0.033813916   -0.23504523     0             -0.20715988     0.15403114   
    473000   0.031671669   -0.23706991     0             -0.2109512      0.080290534  
    473500   0.036318298   -0.23890952     0             -0.20895887     0.13074961   
    474000   0.033913465   -0.23757958     0             -0.20961213    -0.18485264   
    474500   0.031050395   -0.24593815     0             -0.22033179     0.48197027   
    475000   0.038911432   -0.23647275     0             -0.20438362     0.20242496   
    475500   0.041027013   -0.23518375     0             -0.20134996    -0.23378921   
    476000   0.037822494   -0.23877101     0             -0.2075799     -0.1375274    
    476500   0.036239322   -0.23698436     0             -0.20709884    -0.39942142   
    477000   0.037559985   -0.23788931     0             -0.20691467    -0.13443749   
    477500   0.038024594   -0.23886799     0             -0.20751021     0.098465013  
    478000   0.04385529    -0.23682185     0             -0.20065566    -0.0062335445 
    478500   0.043410138   -0.2329464      0             -0.19714731    -0.45063241   
    479000   0.041228418   -0.22802581     0             -0.19402593     0.11149552   
    479500   0.040628663   -0.22987342     0             -0.19636814     0.10743601   
    480000   0.03975512    -0.22922483     0             -0.19643993    -0.042279084  
    480500   0.03714774    -0.22950726     0             -0.1988726     -0.15128136   
    481000   0.036280113   -0.2324215      0             -0.20250234     0.025642897  
    481500   0.042267506   -0.23404514     0             -0.19918835     0.34319505   
    482000   0.039233262   -0.2284861      0             -0.19613156     0.24139128   
    482500   0.036763828   -0.23043212     0             -0.20011405    -0.074547842  
    483000   0.042808861   -0.23020427     0             -0.19490104     0.32574541   
    483500   0.033715573   -0.22800792     0             -0.20020366    -0.11245203   
    484000   0.028280475   -0.22787764     0             -0.20455555    -0.36645386   
    484500   0.02862507    -0.23007584     0             -0.20646957     0.16515187   
    485000   0.028703859   -0.23616446     0             -0.21249322     0.04815413   
    485500   0.032115512   -0.23253047     0             -0.20604574     0.23383999   
    486000   0.040465117   -0.23270612     0             -0.1993357     -0.094754628  
    486500   0.033337633   -0.23592891     0             -0.20843633    -0.013788296  
    487000   0.038312568   -0.23737987     0             -0.20578461    -0.33775152   
    487500   0.03976099    -0.23672655     0             -0.20393681     0.12273434   
    488000   0.035996875   -0.23733519     0             -0.20764961    -0.11443764   
    488500   0.037276406   -0.23157313     0             -0.20083236    -0.24269633   
    489000   0.031593083   -0.23824175     0             -0.21218784     0.10872547   
    489500   0.038823417   -0.23527641     0             -0.20325986     0.20690205   
    490000   0.03236826    -0.23483496     0             -0.20814179    -0.48352724   
    490500   0.036740763   -0.23125557     0             -0.20095653    -0.056173214  
    491000   0.038648657   -0.23652221     0             -0.20464978    -0.10306306   
    491500   0.036029826   -0.2372779      0             -0.20756515    -0.092541938  
    492000   0.03776548    -0.23424702     0             -0.20310293     0.025621996  
    492500   0.043466735   -0.23402313     0             -0.19817737    -0.14725353   
    493000   0.057082797   -0.23208157     0             -0.18500704    -0.14080422   
    493500   0.047530808   -0.2304553      0             -0.19125802     0.22666622   
    494000   0.049922234   -0.23198616     0             -0.19081674     0.23101485   
    494500   0.053387787   -0.23055983     0             -0.18653247    -0.11066121   
    495000   0.040495918   -0.22710572     0             -0.19370991     0.34112564   
    495500   0.041658634   -0.22780667     0             -0.193452      -0.44462615   
    496000   0.038820717   -0.22958157     0             -0.19756724    -0.080777819  
    496500   0.030948796   -0.22826502     0             -0.20274244     0.093200103  
    497000   0.030550917   -0.23049333     0             -0.20529888     0.078890138  
    497500   0.032809294   -0.23558602     0             -0.20852915     0.25149152   
    498000   0.041464986   -0.2321234      0             -0.19792842     0.1842778    
    498500   0.042971356   -0.2290254      0             -0.19358817     0.12759907   
    499000   0.05032342    -0.22951945     0             -0.18801918    -0.033825852  
    499500   0.039968874   -0.22883136     0             -0.19587019    -0.040531689  
    500000   0.040551017   -0.23007855     0             -0.1966373      0.42635118   
    500500   0.038523516   -0.22632382     0             -0.19455459    -0.082421337  
    501000   0.035712057   -0.22916316     0             -0.19971246    -0.10004816   
    501500   0.033954296   -0.23135215     0             -0.20335102    -0.090292963  
    502000   0.034715394   -0.22930577     0             -0.20067699    -0.11688129   
    502500   0.042717287   -0.22982146     0             -0.19459375     0.19334434   
    503000   0.042630617   -0.22761367     0             -0.19245744     0.36249143   
    503500   0.038361582   -0.22800257     0             -0.19636688    -0.024100015  
    504000   0.031677413   -0.22962287     0             -0.20349943    -0.13436064   
    504500   0.029015004   -0.23057218     0             -0.20664435    -0.13839851   
    505000   0.034059611   -0.23346029     0             -0.20537232     0.001683484  
    505500   0.034497419   -0.23019019     0             -0.20174117    -0.045914442  
    506000   0.033513601   -0.23775554     0             -0.21011784    -0.2880724    
    506500   0.042558464   -0.22777214     0             -0.1926754     -0.015429684  
    507000   0.033705308   -0.23247216     0             -0.20467637    -0.091472646  
    507500   0.032509818   -0.22891797     0             -0.20210807    -0.28503247   
    508000   0.035656621   -0.23215559     0             -0.2027506     -0.10340809   
    508500   0.034640738   -0.22990279     0             -0.20133557     0.012818415  
    509000   0.034621566   -0.22894763     0             -0.20039623     0.24934756   
    509500   0.032856986   -0.23299273     0             -0.20589652     0.26665467   
    510000   0.035915532   -0.23098135     0             -0.20136285     0.30945192   
    510500   0.037521775   -0.22861674     0             -0.19767362    -0.26313627   
    511000   0.036885404   -0.22386059     0             -0.19344226    -0.0031298124 
    511500   0.034256181   -0.23161219     0             -0.20336211    -0.2603798    
    512000   0.033553567   -0.23123555     0             -0.20356489     0.17018022   
    512500   0.038079951   -0.23351971     0             -0.20211627     0.358474     
    513000   0.034956908   -0.2306084      0             -0.20178044     0.089652892  
    513500   0.032056487   -0.2340994      0             -0.20766334    -0.2270194    
    514000   0.031028935   -0.23328429     0             -0.20769563    -0.30247685   
    514500   0.04118991    -0.23567378     0             -0.20170565    -0.22872519   
    515000   0.036367269   -0.2359974      0             -0.20600636    -0.1010831    
    515500   0.041101039   -0.23338638     0             -0.19949154    -0.16031693   
    516000   0.0332371     -0.23613381     0             -0.20872414    -0.066515952  
    516500   0.040443502   -0.23873853     0             -0.20538595     0.22693789   
    517000   0.046448879   -0.23261128     0             -0.19430624    -0.26399504   
    517500   0.040380552   -0.23310136     0             -0.19980069     0.029779846  
    518000   0.038540671   -0.23979636     0             -0.20801299    -0.044333377  
    518500   0.037100082   -0.24261148     0             -0.21201612    -0.010685672  
    519000   0.036163625   -0.23911347     0             -0.20929038     0.12970858   
    519500   0.034487325   -0.24018421     0             -0.21174351     0.02951237   
    520000   0.037394705   -0.24201446     0             -0.21117613     0.50410528   
    520500   0.037579572   -0.2373684      0             -0.20637761     0.28136027   
    521000   0.034208658   -0.24221461     0             -0.21400372     0.015189291  
    521500   0.031019594   -0.24326341     0             -0.21768245     0.0606301    
    522000   0.036709857   -0.24460694     0             -0.21433338    -0.049577333  
    522500   0.036076827   -0.24184765     0             -0.21209614     0.15426736   
    523000   0.033366003   -0.24068052     0             -0.21316454     0.14903875   
    523500   0.042495626   -0.23538415     0             -0.20033923    -0.15904908   
    524000   0.039034137   -0.23258158     0             -0.20039126    -3.8928244e-05
    524500   0.036374524   -0.23254502     0             -0.20254801    -0.34941692   
    525000   0.041181234   -0.2352166      0             -0.20125563    -0.22249646   
    525500   0.044821851   -0.23585959     0             -0.19889631    -0.1550546    
    526000   0.037402292   -0.23231713     0             -0.20147254    -0.32849722   
    526500   0.039753276   -0.23465702     0             -0.20187365    -0.20706568   
    527000   0.03608737    -0.23630717     0             -0.20654696    -0.047026333  
    527500   0.043377064   -0.232668       0             -0.19689619     0.1444441    
    528000   0.034670697   -0.23590375     0             -0.20731183     0.19147535   
    528500   0.035390355   -0.23432058     0             -0.20513518     0.42482338   
    529000   0.033645863   -0.23415935     0             -0.20641258     0.051465054  
    529500   0.033608042   -0.23360004     0             -0.20588446    -0.18190732   
    530000   0.031202715   -0.2355748      0             -0.20984283    -0.43607451   
    530500   0.03147996    -0.23567909     0             -0.20971848     0.14297868   
    531000   0.033240049   -0.23568051     0             -0.2082684     -0.081587885  
    531500   0.046191302   -0.23422896     0             -0.19613633    -0.00030951518
    532000   0.041766491   -0.23118528     0             -0.19674167    -0.13898781   
    532500   0.037563902   -0.23432226     0             -0.2033444      0.1006654    
    533000   0.040031227   -0.23249903     0             -0.19948643    -0.21315435   
    533500   0.041836495   -0.22692366     0             -0.19242231    -0.1900579    
    534000   0.045906949   -0.23015923     0             -0.1923011      0.17250702   
    534500   0.037970486   -0.22815954     0             -0.19684638     0.063458662  
    535000   0.043577996   -0.23411706     0             -0.19817955     0.032431934  
    535500   0.041136131   -0.22995852     0             -0.19603475     0.046526926  
    536000   0.042260152   -0.23026489     0             -0.19541416     0.02245181   
    536500   0.039680379   -0.23333612     0             -0.20061286     0.16394007   
    537000   0.038169963   -0.23146415     0             -0.19998649     0.065383473  
    537500   0.039540489   -0.23530372     0             -0.20269582     0.074218189  
    538000   0.037284541   -0.23172708     0             -0.2009796      0.040642285  
    538500   0.03189876    -0.23684949     0             -0.2105435     -0.25344332   
    539000   0.041003161   -0.23680911     0             -0.20299499    -0.21444208   
    539500   0.039466212   -0.23377995     0             -0.2012333     -0.22289199   
    540000   0.045154274   -0.23093185     0             -0.19369442     0.053131728  
    540500   0.050180988   -0.23757348     0             -0.19619068    -0.00069259323
    541000   0.044562307   -0.23371038     0             -0.19696113     0.31049243   
    541500   0.052214559   -0.23022039     0             -0.18716055    -0.31778345   
    542000   0.045545185   -0.22634765     0             -0.18878786     0.38222238   
    542500   0.04277603    -0.2378066      0             -0.20253045     0.2953363    
    543000   0.043715897   -0.2335011      0             -0.19744987    -0.16936146   
    543500   0.046154064   -0.23679698     0             -0.19873506    -0.059040163  
    544000   0.051681173   -0.23331404     0             -0.19069407    -0.25512079   
    544500   0.041129164   -0.23199109     0             -0.19807306     0.023523294  
    545000   0.040987617   -0.23373895     0             -0.19993765     0.021247022  
    545500   0.038425324   -0.23908755     0             -0.20739929     0.033807902  
    546000   0.038407403   -0.23879936     0             -0.20712589    -0.086755643  
    546500   0.03921692    -0.24135049     0             -0.20900944     0.13582834   
    547000   0.038488061   -0.23628264     0             -0.20454265     0.024322656  
    547500   0.036062735   -0.24130436     0             -0.21156447     0.2295564    
    548000   0.036829107   -0.23786772     0             -0.20749582     0.17829057   
    548500   0.040611994   -0.23273868     0             -0.19924715    -0.10423439   
    549000   0.035836711   -0.23627718     0             -0.20672369    -0.012801991  
    549500   0.037901852   -0.2323488      0             -0.20109224     0.616759     
    550000   0.041272036   -0.23236683     0             -0.19833098     0.053190491  
    550500   0.043651532   -0.23319272     0             -0.19719457    -0.06578705   
    551000   0.047020082   -0.22772113     0             -0.18894503    -0.22031669   
    551500   0.046464503   -0.22686085     0             -0.18854292    -0.019430733  
    552000   0.041136497   -0.23642213     0             -0.20249806     0.25315576   
    552500   0.043938422   -0.23325766     0             -0.19702292     0.21723786   
    553000   0.047043406   -0.23188719     0             -0.19309185     0.34864928   
    553500   0.04399473    -0.23102322     0             -0.19474204     0.13838587   
    554000   0.044526639   -0.23198301     0             -0.19526318     0.16795981   
    554500   0.041537961   -0.23183713     0             -0.19758198    -0.20549432   
    555000   0.038552167   -0.2371613      0             -0.20536844    -0.15432466   
    555500   0.03958149    -0.23441374     0             -0.20177204     0.26838714   
    556000   0.038051614   -0.23608032     0             -0.20470026    -0.067749612  
    556500   0.038753562   -0.23365941     0             -0.20170047    -0.0059260876 
    557000   0.038016343   -0.23268911     0             -0.20133814    -0.42714259   
    557500   0.045191325   -0.23259334     0             -0.19532536    -0.16085638   
    558000   0.03889168    -0.23460242     0             -0.20252958    -0.13979764   
    558500   0.042673239   -0.23300431     0             -0.19781292     0.067573227  
    559000   0.044961897   -0.23282065     0             -0.19574188    -0.047413491  
    559500   0.052027617   -0.23448536     0             -0.19157969     0.15138079   
    560000   0.048216032   -0.23682857     0             -0.19706621    -0.37368152   
    560500   0.044969396   -0.23403082     0             -0.19694587    -0.19539769   
    561000   0.038286675   -0.23669925     0             -0.20512533    -0.078951751  
    561500   0.044313953   -0.23322045     0             -0.19667602     0.1993738    
    562000   0.049214012   -0.23016609     0             -0.18958072    -0.31972772   
    562500   0.043805407   -0.22804888     0             -0.19192383    -0.36987016   
    563000   0.042944617   -0.23232897     0             -0.19691379    -0.13442434   
    563500   0.037107516   -0.23231898     0             -0.20171749    -0.4283252    
    564000   0.042185695   -0.2304244      0             -0.19563508    -0.12684528   
    564500   0.040136603   -0.23250312     0             -0.19940362    -0.017606293  
    565000   0.042775205   -0.23693239     0             -0.20165692    -0.36751063   
    565500   0.042651151   -0.23258431     0             -0.19741114    -0.12716193   
    566000   0.047361173   -0.23074226     0             -0.19168487     0.0090093315 
    566500   0.058978133   -0.22741671     0             -0.17877915     0.13005465   
    567000   0.042272042   -0.23010583     0             -0.19524531    -0.40712366   
    567500   0.036721734   -0.23341782     0             -0.20313447    -0.31040915   
    568000   0.044850048   -0.23359581     0             -0.19660928     0.085176682  
    568500   0.051387584   -0.23977225     0             -0.1973944     -0.2275662    
    569000   0.048719778   -0.22867379     0             -0.188496      -0.097905444  
    569500   0.045821638   -0.2348354      0             -0.19704762     0.20069857   
    570000   0.049403305   -0.23089096     0             -0.19014948     0.13195644   
    570500   0.058044218   -0.2315594      0             -0.18369201    -0.026368944  
    571000   0.04593398    -0.2317262      0             -0.19384578    -0.11128311   
    571500   0.050497099   -0.23440748     0             -0.19276398     0.066638942  
    572000   0.046084391   -0.22928561     0             -0.19128115     0.098647844  
    572500   0.056838554   -0.22970437     0             -0.18283126     0.022603323  
    573000   0.046201052   -0.23047613     0             -0.19237545     0.12811238   
    573500   0.040802191   -0.23174132     0             -0.19809294    -0.12172742   
    574000   0.040777246   -0.23201854     0             -0.19839073    -0.19925086   
    574500   0.044112252   -0.23403778     0             -0.19765968     0.14082433   
    575000   0.052288806   -0.22619496     0             -0.1830739     -0.18135973   
    575500   0.049073646   -0.22919644     0             -0.18872683    -0.2705277    
    576000   0.044130937   -0.23255753     0             -0.19616403     0.24870403   
    576500   0.036610861   -0.23232242     0             -0.20213051     0.12195695   
    577000   0.037435865   -0.2297934      0             -0.19892112     0.17027635   
    577500   0.034907387   -0.23475216     0             -0.20596505     0.10970976   
    578000   0.03822233    -0.23553682     0             -0.20401597     0.028977405  
    578500   0.035882834   -0.24026267     0             -0.21067114     0.15348576   
    579000   0.039112572   -0.24015125     0             -0.20789624    -0.21295892   
    579500   0.039207605   -0.23996118     0             -0.2076278     -0.054806566  
    580000   0.041973796   -0.23457868     0             -0.19996411     0.13481447   
    580500   0.042704065   -0.23319961     0             -0.19798281    -0.21711089   
    581000   0.043309832   -0.23310599     0             -0.19738963    -0.27370801   
    581500   0.042197235   -0.2350597      0             -0.20026086    -0.39919138   
    582000   0.043993804   -0.23145812     0             -0.1951777      0.27623503   
    582500   0.040492025   -0.23258242     0             -0.19918982     0.07874587   
    583000   0.040851818   -0.23481583     0             -0.20112652    -0.15474153   
    583500   0.044258268   -0.23049056     0             -0.19399205     0.43285715   
    584000   0.043741764   -0.2367114      0             -0.20063884     0.20315738   
    584500   0.046288217   -0.23617565     0             -0.1980031     -0.0016488344 
    585000   0.052418239   -0.23935703     0             -0.19612923    -0.16645933   
    585500   0.050630433   -0.23364247     0             -0.19188902    -0.01897466   
    586000   0.046717585   -0.23655031     0             -0.19802367     0.36117133   
    586500   0.045710931   -0.23117522     0             -0.19347874     0.064666494  
    587000   0.063869096   -0.22962719     0             -0.1769562      0.14377047   
    587500   0.049935414   -0.2296946      0             -0.18851431    -0.027035521  
    588000   0.050324423   -0.22865267     0             -0.18715157    -0.27599437   
    588500   0.049308145   -0.22870802     0             -0.18804502     0.20465225   
    589000   0.043411054   -0.22926775     0             -0.19346791     0.13940214   
    589500   0.046017778   -0.22995863     0             -0.1920091     -0.3627574    
    590000   0.045899045   -0.22807305     0             -0.19022144    -0.34206926   
    590500   0.049495573   -0.2336244      0             -0.19280683    -0.19186343   
    591000   0.053421532   -0.23116175     0             -0.18710656    -0.088402223  
    591500   0.046844844   -0.2368653      0             -0.19823372    -0.037611165  
    592000   0.047381531   -0.22738164     0             -0.18830746    -0.11140605   
    592500   0.047907453   -0.23162973     0             -0.19212185    -0.23133336   
    593000   0.043820296   -0.23472671     0             -0.19858938     0.18672969   
    593500   0.046404985   -0.22842543     0             -0.19015658     0.12118187   
    594000   0.044714812   -0.23148006     0             -0.19460505    -0.34025411   
    594500   0.04840318    -0.23215704     0             -0.19224034     0.040725935  
    595000   0.047116965   -0.23364561     0             -0.19478961     0.095182274  
    595500   0.040872849   -0.23703266     0             -0.20332601    -0.33879029   
    596000   0.039531445   -0.23899579     0             -0.20639535     0.45238636   
    596500   0.041002093   -0.24114051     0             -0.20732727     0.051075985  
    597000   0.037776544   -0.24487945     0             -0.21372622     0.2030132    
    597500   0.044429098   -0.24333912     0             -0.20669972    -0.10398117   
    598000   0.040622256   -0.24636974     0             -0.21286974     0.0045729287 
    598500   0.043596961   -0.24345657     0             -0.20750342     0.22382599   
    599000   0.043992051   -0.24540132     0             -0.20912235     0.24482135   
    599500   0.04058839    -0.24902298     0             -0.21555091    -0.037344513  
    600000   0.04965287    -0.24501553     0             -0.20406825     0.0044214798 
    600500   0.043495228   -0.24405063     0             -0.20818137    -0.02869167   
    601000   0.041023779   -0.24998754     0             -0.21615642     0.31037352   
    601500   0.04508271    -0.24625922     0             -0.20908081    -0.3339183    
    602000   0.047254772   -0.23915408     0             -0.20018444     0.0088743519 
    602500   0.046143573   -0.24488068     0             -0.20682741     0.041331086  
    603000   0.051152076   -0.23914123     0             -0.1969576     -0.33142113   
    603500   0.044426475   -0.238077       0             -0.20143977    -0.22514094   
    604000   0.051168813   -0.23768642     0             -0.19548898    -0.19668525   
    604500   0.052190929   -0.23973129     0             -0.19669094    -0.040328518  
    605000   0.055407878   -0.23667016     0             -0.19097689    -0.0061650338 
    605500   0.05147015    -0.23484761     0             -0.19240167    -0.32376047   
    606000   0.046669039   -0.2384759      0             -0.19998929     0.19956621   
    606500   0.048236263   -0.23582898     0             -0.19604993     0.16762004   
    607000   0.05023565    -0.23779896     0             -0.19637107    -0.18565953   
    607500   0.045844828   -0.24030111     0             -0.20249421     0.088666946  
    608000   0.047629554   -0.24094792     0             -0.2016692     -0.080586091  
    608500   0.047822593   -0.23787454     0             -0.19843663    -0.070513221  
    609000   0.050670533   -0.236229       0             -0.19444248     0.068322976  
    609500   0.053701594   -0.23476722     0             -0.19048107    -0.10300986   
    610000   0.057134463   -0.23512812     0             -0.18801099    -0.32879761   
    610500   0.046206369   -0.23804387     0             -0.19993882    -0.37490179   
    611000   0.053535931   -0.23825575     0             -0.19410622    -0.043171114  
    611500   0.04079525    -0.23526774     0             -0.20162508     0.017800292  
    612000   0.040470641   -0.23418774     0             -0.20081277    -0.30125645   
    612500   0.044047989   -0.23806661     0             -0.2017415     -0.090132736  
    613000   0.040556215   -0.23892977     0             -0.20548423    -0.35808807   
    613500   0.049255611   -0.23885729     0             -0.19823762    -0.32026899   
    614000   0.04499602    -0.23445508     0             -0.19734816    -0.26644112   
    614500   0.054663422   -0.22750181     0             -0.18242247     0.16375626   
    615000   0.049356563   -0.22690415     0             -0.18620122     0.23294822   
    615500   0.041327673   -0.22560494     0             -0.19152321    -0.27585271   
    616000   0.050614186   -0.22966873     0             -0.18792868     0.082727     
    616500   0.056967144   -0.22482098     0             -0.17784183    -0.082169371  
    617000   0.049788745   -0.23130831     0             -0.19024897    -0.065968537  
    617500   0.06480698    -0.22578406     0             -0.17233962     0.22267971   
    618000   0.053242876   -0.22379172     0             -0.17988387    -0.21112581   
    618500   0.053322543   -0.22409267     0             -0.18011911    -0.2320971    
    619000   0.047544483   -0.22594755     0             -0.18673899     0.12275572   
    619500   0.052051664   -0.2242576      0             -0.1813321      0.17688207   
    620000   0.051909384   -0.22870847     0             -0.1859003      0.039833964  
    620500   0.0504287     -0.22326439     0             -0.1816773      0.12944417   
    621000   0.048473552   -0.22281675     0             -0.18284201     0.32956258   
    621500   0.041248001   -0.2275961      0             -0.19358007    -0.17601652   
    622000   0.041812242   -0.22811372     0             -0.19363238    -0.28061917   
    622500   0.038707966   -0.22445416     0             -0.19253282     0.076476422  
    623000   0.036551384   -0.23139018     0             -0.20124731    -0.096257312  
    623500   0.051763341   -0.22693969     0             -0.18425197     0.48255215   
    624000   0.05050417    -0.22826938     0             -0.18662006    -0.25155611   
    624500   0.045286844   -0.2313604      0             -0.19401365    -0.57235197   
    625000   0.045023256   -0.23292384     0             -0.19579446     0.033807964  
    625500   0.043215943   -0.23104748     0             -0.19540854     0.2685527    
    626000   0.045275612   -0.23720858     0             -0.19987109    -0.088823205  
    626500   0.051988418   -0.23639636     0             -0.19352302    -0.40319397   
    627000   0.048211516   -0.2379621      0             -0.19820346    -0.070923394  
    627500   0.045283176   -0.23974002     0             -0.2023963      0.37275359   
    628000   0.044647557   -0.2394487      0             -0.20262915    -0.17354379   
    628500   0.041498827   -0.24518323     0             -0.21096035    -0.027580095  
    629000   0.038606027   -0.24065633     0             -0.20881906    -0.12616738   
    629500   0.039509316   -0.24613915     0             -0.21355696     0.14050114   
    630000   0.043293265   -0.24322152     0             -0.20751882     0.26599609   
    630500   0.04561081    -0.24009332     0             -0.2024794      0.034623773  
    631000   0.041481226   -0.24332102     0             -0.20911265    -0.13742901   
    631500   0.042751623   -0.24826636     0             -0.21301033    -0.11101025   
    632000   0.041296421   -0.24683082     0             -0.21277486    -0.4647569    
    632500   0.035983725   -0.25080975     0             -0.22113501     0.075973741  
    633000   0.04662636    -0.24738818     0             -0.20893677    -0.25514743   
    633500   0.04798186    -0.25063757     0             -0.21106832     0.084175383  
    634000   0.043275793   -0.24981114     0             -0.21412284     0.23641145   
    634500   0.041917399   -0.2533943      0             -0.21882624    -0.15658728   
    635000   0.039901185   -0.25131175     0             -0.2184064      0.10670212   
    635500   0.039425307   -0.25696523     0             -0.22445232     0.076454967  
    636000   0.03811213    -0.25440587     0             -0.22297589     0.028628678  
    636500   0.042543855   -0.25375411     0             -0.21866942     0.13994283   
    637000   0.038653431   -0.25789514     0             -0.22601878    -0.15998915   
    637500   0.038714414   -0.25510581     0             -0.22317915     0.077043728  
    638000   0.05315004    -0.25309723     0             -0.20926593    -0.11339731   
    638500   0.049066944   -0.25012676     0             -0.20966267    -0.022608477  
    639000   0.054278348   -0.23837996     0             -0.19361818    -0.21341185   
    639500   0.042035364   -0.24730174     0             -0.2126364     -0.24860745   
    640000   0.042956744   -0.24621096     0             -0.21078578    -0.016346146  
    640500   0.042431624   -0.24827028     0             -0.21327814     0.25013645   
    641000   0.041434329   -0.24991443     0             -0.21574473    -0.032027047  
    641500   0.038156222   -0.25339685     0             -0.22193051     0.29105314   
    642000   0.042390661   -0.25002782     0             -0.21506947    -0.064680267  
    642500   0.0480335     -0.24878262     0             -0.20917078     0.20628673   
    643000   0.042701605   -0.25046081     0             -0.21524603    -0.09884426   
    643500   0.055036552   -0.24207389     0             -0.19668684    -0.045899614  
    644000   0.048254754   -0.24773394     0             -0.20793964    -0.31516403   
    644500   0.047154679   -0.24274432     0             -0.20385722    -0.19387687   
    645000   0.042620317   -0.24676188     0             -0.21161414     0.11708213   
    645500   0.044150443   -0.24619728     0             -0.20978769     0.011309625  
    646000   0.048991283   -0.24625648     0             -0.20585479    -0.13532072   
    646500   0.044715758   -0.2430824      0             -0.20620661    -0.26792065   
    647000   0.04549511    -0.24702276     0             -0.20950426     0.097111831  
    647500   0.039356449   -0.24785768     0             -0.21540156    -0.025886283  
    648000   0.039918319   -0.24871773     0             -0.21579824     0.40972319   
    648500   0.04025531    -0.25396527     0             -0.22076788    -0.12135244   
    649000   0.056413472   -0.25040478     0             -0.20388222     0.17693033   
    649500   0.061580558   -0.24610785     0             -0.19532415    -0.089793401  
    650000   0.047046579   -0.24302001     0             -0.20422206     0.25833472   
    650500   0.045243125   -0.2453978      0             -0.20808711    -0.2723663    
    651000   0.051585774   -0.24054507     0             -0.19800377     0.038794309  
    651500   0.053549299   -0.23852975     0             -0.1943692      0.063181596  
    652000   0.04742566    -0.24031764     0             -0.20120707    -0.029234633  
    652500   0.047379787   -0.24603052     0             -0.20695778     0.25175647   
    653000   0.047847041   -0.2380324      0             -0.19857433     0.030604745  
    653500   0.046765426   -0.2349735      0             -0.1964074     -0.012705748  
    654000   0.047030012   -0.2381364      0             -0.19935211     0.29142039   
    654500   0.05276658    -0.23706922     0             -0.19355415     0.059240138  
    655000   0.05398918    -0.23862707     0             -0.19410376     0.059211654  
    655500   0.056639491   -0.23588863     0             -0.18917968     0.20212316   
    656000   0.053097762   -0.23301256     0             -0.18922437    -0.37156877   
    656500   0.057200097   -0.23043678     0             -0.18326552    -0.015600161  
    657000   0.059357873   -0.23178296     0             -0.18283224     0.096203478  
    657500   0.054933321   -0.22756214     0             -0.18226022    -0.048383981  
    658000   0.052593262   -0.23364384     0             -0.1902717      0.3850232    
    658500   0.046710199   -0.23227101     0             -0.19375046    -0.27225368   
    659000   0.05158432    -0.23113093     0             -0.18859083    -0.20397368   
    659500   0.048552383   -0.23441748     0             -0.19437773    -0.063360293  
    660000   0.055130543   -0.23802544     0             -0.19256088    -0.24705049   
    660500   0.05088712    -0.23495628     0             -0.19299115     0.066591609  
    661000   0.050149282   -0.236371       0             -0.19501434     0.16881642   
    661500   0.056361894   -0.2369338      0             -0.19045378     0.39087057   
    662000   0.052053448   -0.2395289      0             -0.19660192    -0.22984253   
    662500   0.051736071   -0.23592796     0             -0.19326272     0.23245401   
    663000   0.049472156   -0.23425002     0             -0.19345177     0.23491415   
    663500   0.048216947   -0.23386303     0             -0.19409991     0.055261485  
    664000   0.050224977   -0.23697342     0             -0.19555434    -0.43364181   
    664500   0.052088689   -0.23310044     0             -0.1901444      0.23280057   
    665000   0.052215813   -0.23691695     0             -0.19385608     0.84422288   
    665500   0.044353679   -0.23341215     0             -0.19683495     0.19296976   
    666000   0.049082302   -0.23502407     0             -0.19454731    -0.0689841    
    666500   0.045031257   -0.24011485     0             -0.20297888     0.007147541  
    667000   0.054252149   -0.23732364     0             -0.19258347     0.39590064   
    667500   0.052324684   -0.23454527     0             -0.19139462     0.32968019   
    668000   0.052266564   -0.23508601     0             -0.19198329    -0.44238762   
    668500   0.048980188   -0.23033879     0             -0.18994625     0.26400284   
    669000   0.041795003   -0.23827704     0             -0.20380991    -0.08013873   
    669500   0.046059502   -0.23640995     0             -0.19842601     0.30237204   
    670000   0.051063104   -0.23623887     0             -0.19412861     0.080581917  
    670500   0.050632552   -0.23383272     0             -0.19207752     0.18966154   
    671000   0.052678039   -0.23544847     0             -0.19200642    -0.088025582  
    671500   0.049478047   -0.23881157     0             -0.19800846    -0.034864375  
    672000   0.046190024   -0.23963346     0             -0.20154189    -0.26878899   
    672500   0.0441333     -0.24291453     0             -0.20651908     0.14112723   
    673000   0.042622466   -0.23734663     0             -0.20219711     0.17041964   
    673500   0.044971002   -0.24232018     0             -0.20523389     0.21845888   
    674000   0.042825917   -0.24395384     0             -0.20863654     0.39751715   
    674500   0.049261946   -0.24190207     0             -0.20127717    -0.20691654   
    675000   0.051303491   -0.23592418     0             -0.19361568     0.045588994  
    675500   0.047529236   -0.23979791     0             -0.20060193    -0.35010273   
    676000   0.051845078   -0.24333029     0             -0.20057516    -0.38788849   
    676500   0.047665028   -0.23775465     0             -0.19844668    -0.36998612   
    677000   0.050365621   -0.23702414     0             -0.19548907     0.052354814  
    677500   0.039919365   -0.23481843     0             -0.20189809    -0.034755932  
    678000   0.038858278   -0.23658209     0             -0.20453679     0.26937986   
    678500   0.039916827   -0.23987652     0             -0.20695827    -0.00082327189
    679000   0.048832668   -0.23673682     0             -0.19646593    -0.10999216   
    679500   0.053331643   -0.23837888     0             -0.19439782    -0.61963904   
    680000   0.056182083   -0.23825271     0             -0.19192097    -0.16370003   
    680500   0.053129552   -0.23456503     0             -0.19075062     0.40691755   
    681000   0.053160614   -0.23774776     0             -0.19390774     0.21033325   
    681500   0.046853017   -0.23641368     0             -0.19777535    -0.086904472  
    682000   0.046723421   -0.23959129     0             -0.20105984     0.10520733   
    682500   0.045933462   -0.2429487      0             -0.2050687     -0.32437599   
    683000   0.045860479   -0.23645043     0             -0.19863062     0.30796454   
    683500   0.051803714   -0.24213245     0             -0.19941143    -0.53204768   
    684000   0.048711359   -0.23910362     0             -0.19893278    -0.16738574   
    684500   0.054381448   -0.23208396     0             -0.18723715     0.31658081   
    685000   0.058093694   -0.23514731     0             -0.18723912    -0.13254315   
    685500   0.052137956   -0.23618488     0             -0.19318822    -0.030712975  
    686000   0.051533726   -0.24014052     0             -0.19764215    -0.22545356   
    686500   0.049412689   -0.2355766      0             -0.19482739    -0.42581808   
    687000   0.04751455    -0.23186906     0             -0.19268518     0.43948979   
    687500   0.049166546   -0.22993434     0             -0.18938812     0.16787768   
    688000   0.046234113   -0.23795797     0             -0.19983004     0.35124746   
    688500   0.045961505   -0.23482775     0             -0.19692463     0.011838074  
    689000   0.046743088   -0.23167476     0             -0.19312709    -0.012147345  
    689500   0.048434653   -0.23183183     0             -0.19188918     0.046970038  
    690000   0.052556861   -0.22995604     0             -0.18661392    -0.40708961   
    690500   0.053177725   -0.23265928     0             -0.18880515     0.51652111   
    691000   0.058842685   -0.22478467     0             -0.17625881    -0.26566679   
    691500   0.060168661   -0.2276987      0             -0.17807935    -0.10368132   
    692000   0.047501422   -0.2277311      0             -0.18855805    -0.10025056   
    692500   0.051880448   -0.23066184     0             -0.18787753    -0.15902041   
    693000   0.04697996    -0.2315382      0             -0.19279519     0.099193545  
    693500   0.04999432    -0.23259878     0             -0.19136991     0.090498362  
    694000   0.06088761    -0.2278632      0             -0.17765095     0.0061109466 
    694500   0.063167029   -0.23145335     0             -0.17936133     0.13468966   
    695000   0.057257473   -0.23703922     0             -0.18982064    -0.082196874  
    695500   0.055812755   -0.23113166     0             -0.1851045     -0.17719349   
    696000   0.052146716   -0.23473953     0             -0.19173564     0.088422869  
    696500   0.046466807   -0.23509229     0             -0.19677245     0.19113972   
    697000   0.049771998   -0.23781544     0             -0.19676991    -0.08133559   
    697500   0.057258033   -0.23989617     0             -0.19267712     0.1428652    
    698000   0.050836354   -0.23385272     0             -0.19192945    -0.33441838   
    698500   0.054020755   -0.23962504     0             -0.19507569    -0.12974753   
    699000   0.054355963   -0.24040419     0             -0.1955784     -0.24009741   
    699500   0.05360908    -0.23834138     0             -0.19413152    -0.0030414759 
    700000   0.057915928   -0.23309291     0             -0.18533132    -0.3347181    
    700500   0.058170285   -0.2299521      0             -0.18198075    -0.3677733    
    701000   0.065894361   -0.23325636     0             -0.17891519     0.1528821    
    701500   0.057407872   -0.23669214     0             -0.18934953     0.10960615   
    702000   0.048938156   -0.23988453     0             -0.19952665    -0.06296449   
    702500   0.049089253   -0.23942863     0             -0.19894615    -0.054484757  
    703000   0.059026375   -0.23382156     0             -0.18514421    -0.36408324   
    703500   0.049326579   -0.23576618     0             -0.19508797     0.13042096   
    704000   0.047797997   -0.23778414     0             -0.19836651    -0.074072244  
    704500   0.056114579   -0.24115004     0             -0.19487397    -0.031663564  
    705000   0.054126116   -0.23609478     0             -0.19145854    -0.15248328   
    705500   0.050202371   -0.23964892     0             -0.19824848    -0.10164741   
    706000   0.051334869   -0.23953786     0             -0.19720348    -0.28119977   
    706500   0.054336024   -0.2408579      0             -0.19604856     0.15811573   
    707000   0.056927012   -0.2439103      0             -0.19696424    -0.17366303   
    707500   0.053288982   -0.24306614     0             -0.19912026    -0.013978895  
    708000   0.050614783   -0.24291426     0             -0.20117371    -0.42953973   
    708500   0.048338095   -0.24179822     0             -0.20193519    -0.35151867   
    709000   0.054583303   -0.23715198     0             -0.19213871     0.14328356   
    709500   0.048409742   -0.24338207     0             -0.20345995    -0.061454006  
    710000   0.049141726   -0.24341787     0             -0.20289211    -0.15098572   
    710500   0.054259765   -0.23674267     0             -0.19199622     0.38887559   
    711000   0.056101415   -0.23833529     0             -0.19207008    -0.11718612   
    711500   0.050922778   -0.24080404     0             -0.1988095      0.17065176   
    712000   0.047600132   -0.24385404     0             -0.20459959     0.13596731   
    712500   0.056610459   -0.23685717     0             -0.19017216     0.33468531   
    713000   0.047674124   -0.23648121     0             -0.19716574    -0.041161405  
    713500   0.055256311   -0.2367358      0             -0.19116752     0.16932898   
    714000   0.047156108   -0.23500474     0             -0.19611646    -0.13217627   
    714500   0.048478815   -0.23829653     0             -0.19831746    -0.11482426   
    715000   0.046836761   -0.23700631     0             -0.19838139     0.042180156  
    715500   0.051181627   -0.23720255     0             -0.19499455     0.080788444  
    716000   0.05265368    -0.2375599      0             -0.19413793     0.18187644   
    716500   0.044580289   -0.24267712     0             -0.20591304     0.15164644   
    717000   0.05253884    -0.23732672     0             -0.19399946    -0.38845499   
    717500   0.048980957   -0.23865034     0             -0.19825716    -0.32254615   
    718000   0.051949597   -0.23796452     0             -0.19512319    -0.011922941  
    718500   0.050239477   -0.2387008      0             -0.19726976    -0.53443698   
    719000   0.047754633   -0.23411514     0             -0.19473327     0.19076381   
    719500   0.045125458   -0.24399309     0             -0.20677943    -0.089599044  
    720000   0.047780439   -0.24276463     0             -0.20336148    -0.47493048   
    720500   0.043763252   -0.24234758     0             -0.20625729     0.41380126   
    721000   0.0462891     -0.24025564     0             -0.20208236     0.27150909   
    721500   0.045302441   -0.24513851     0             -0.2077789     -0.19348853   
    722000   0.058777288   -0.24111076     0             -0.19263883     0.19866038   
    722500   0.049633482   -0.24421314     0             -0.20328185     0.23299819   
    723000   0.046217147   -0.24255978     0             -0.20444584    -0.085313373  
    723500   0.049207389   -0.24230589     0             -0.20172598    -0.41458922   
    724000   0.049389931   -0.24069072     0             -0.19996028    -0.059566306  
    724500   0.051297392   -0.23980044     0             -0.19749697    -0.14839673   
    725000   0.044703522   -0.24459074     0             -0.20772504     0.28414313   
    725500   0.049457988   -0.24635554     0             -0.20556896    -0.28757364   
    726000   0.042321584   -0.24470082     0             -0.20979943    -0.058271595  
    726500   0.04398914    -0.24901112     0             -0.21273455    -0.19556298   
    727000   0.050904961   -0.25299153     0             -0.21101168    -0.25493441   
    727500   0.051794524   -0.24603796     0             -0.20332452     0.063654148  
    728000   0.054704736   -0.24358864     0             -0.19847523     0.1178291    
    728500   0.04765778    -0.24168224     0             -0.20238024     0.16507095   
    729000   0.045163611   -0.24371785     0             -0.20647273     0.13920301   
    729500   0.044064602   -0.24256262     0             -0.20622381    -0.45499442   
    730000   0.050491464   -0.2441902      0             -0.20255136     0.48839134   
    730500   0.04770819    -0.24763107     0             -0.20828751     0.1272954    
    731000   0.044214957   -0.24473811     0             -0.20827531     0.62837031   
    731500   0.047701422   -0.24688681     0             -0.20754883    -0.34654755   
    732000   0.054691499   -0.24294734     0             -0.19784485     0.26656655   
    732500   0.051483262   -0.24393736     0             -0.2014806     -0.316545     
    733000   0.049582224   -0.24305159     0             -0.20216256     0.15835948   
    733500   0.049663939   -0.24592657     0             -0.20497016     0.23845932   
    734000   0.055499527   -0.23980576     0             -0.1940369     -0.31276173   
    734500   0.049313887   -0.23891527     0             -0.19824754     0.33853642   
    735000   0.061371479   -0.23509636     0             -0.18448508     0.1213112    
    735500   0.065387353   -0.23601096     0             -0.1820879      0.08609896   
    736000   0.051795256   -0.23989712     0             -0.19718307     0.040816018  
    736500   0.053783292   -0.23750845     0             -0.19315493    -0.17252026   
    737000   0.056123702   -0.23458695     0             -0.18830336    -0.20703085   
    737500   0.047194471   -0.24101779     0             -0.20209788    -0.19946609   
    738000   0.050827963   -0.24040372     0             -0.19848737     0.0041651528 
    738500   0.048071544   -0.23710985     0             -0.19746664    -0.032679573  
    739000   0.049882863   -0.24095712     0             -0.19982016     0.35415902   
    739500   0.049371887   -0.23555758     0             -0.19484201    -0.088114252  
    740000   0.048252914   -0.24112171     0             -0.20132893    -0.12242306   
    740500   0.063848142   -0.24079992     0             -0.1881462     -0.099998978  
    741000   0.053880812   -0.23714432     0             -0.19271037     0.33630962   
    741500   0.046602012   -0.24306914     0             -0.20463781     0.1295496    
    742000   0.057917173   -0.23951736     0             -0.19175474     0.14960651   
    742500   0.059606177   -0.23777428     0             -0.18861879     0.15587269   
    743000   0.051667102   -0.23394176     0             -0.19133339     0.15310796   
    743500   0.054954486   -0.2326716      0             -0.18735223    -0.16336111   
    744000   0.055884408   -0.23708263     0             -0.19099637     0.38865095   
    744500   0.053609512   -0.23719442     0             -0.1929842     -0.15447549   
    745000   0.051121384   -0.23606552     0             -0.1939072      0.32494209   
    745500   0.052183976   -0.23985971     0             -0.19682509    -0.21097607   
    746000   0.060428966   -0.23652261     0             -0.18668859    -0.099046706  
    746500   0.059325984   -0.23740522     0             -0.1884808     -0.052280191  
    747000   0.052944648   -0.2378257      0             -0.19416378    -0.024738721  
    747500   0.044600705   -0.24099117     0             -0.20421026     0.077704732  
    748000   0.053021367   -0.23436088     0             -0.1906357      0.12138888   
    748500   0.05134942    -0.2385279      0             -0.19618152    -0.39920408   
    749000   0.053201397   -0.23989827     0             -0.19602462    -0.15828905   
    749500   0.054842885   -0.2361379      0             -0.19091056     0.23903158   
    750000   0.053810887   -0.23653805     0             -0.19216177     0.41169912   
    750500   0.056372498   -0.23328459     0             -0.18679582     0.3923829    
    751000   0.064171501   -0.23029554     0             -0.17737516    -0.10600346   
    751500   0.055450898   -0.22959092     0             -0.18386217    -0.2491377    
    752000   0.057984969   -0.23090325     0             -0.18308473    -0.21534114   
    752500   0.056747376   -0.23102046     0             -0.18422254     0.1362471    
    753000   0.049775481   -0.22840641     0             -0.18735802    -0.049103165  
    753500   0.054448139   -0.22736164     0             -0.18245983     0.38939278   
    754000   0.057650918   -0.22782853     0             -0.18028549    -0.012909805  
    754500   0.05844888    -0.22489514     0             -0.17669404     0.24161232   
    755000   0.063160338   -0.22414527     0             -0.17205877     0.035315159  
    755500   0.057710411   -0.21843157     0             -0.17083947     0.49014283   
    756000   0.053479056   -0.2240236      0             -0.17992097     0.13274084   
    756500   0.051863361   -0.22527005     0             -0.18249984    -0.17415044   
    757000   0.051908041   -0.22650601     0             -0.18369895    -0.22089525   
    757500   0.058057404   -0.23117104     0             -0.18329278     0.057121311  
    758000   0.053396673   -0.23023136     0             -0.18619667    -0.028930767  
    758500   0.05232687    -0.23100381     0             -0.18785136    -0.20215009   
    759000   0.054332651   -0.22827908     0             -0.18347251    -0.31961972   
    759500   0.048481425   -0.22812325     0             -0.18814202     0.49384952   
    760000   0.05280532    -0.23019075     0             -0.18664374    -0.1156381    
    760500   0.047971595   -0.22179124     0             -0.18223045     0.0054504939 
    761000   0.052217572   -0.22800263     0             -0.18494031     0.14726884   
    761500   0.055889589   -0.22524106     0             -0.17915053    -0.022810064  
    762000   0.046141414   -0.2255853      0             -0.18753381    -0.44678633   
    762500   0.052363886   -0.21950952     0             -0.17632654     0.13569084   
    763000   0.048515231   -0.22025073     0             -0.18024162    -0.19656363   
    763500   0.0494383     -0.22880737     0             -0.18803703    -0.50756348   
    764000   0.052733662   -0.23255236     0             -0.18906443     0.20383305   
    764500   0.048419487   -0.231106       0             -0.19117586    -0.35542841   
    765000   0.049902701   -0.22916607     0             -0.18801276     0.60301266   
    765500   0.051723456   -0.22683588     0             -0.18418105     0.087442398  
    766000   0.066608196   -0.22701074     0             -0.17208089    -0.066474098  
    766500   0.052004122   -0.22612962     0             -0.18324333     0.33883965   
    767000   0.056075803   -0.22922258     0             -0.18297849    -0.15347387   
    767500   0.059269498   -0.22932859     0             -0.18045075     0.07405953   
    768000   0.056224836   -0.22717597     0             -0.18080898     0.1259345    
    768500   0.053663181   -0.22712071     0             -0.18286624    -0.26164769   
    769000   0.051043358   -0.22944491     0             -0.18735093     0.20760565   
    769500   0.061602971   -0.22847782     0             -0.17767564     0.073861545  
    770000   0.057326148   -0.22745912     0             -0.18018391     0.19475286   
    770500   0.053827825   -0.22855275     0             -0.1841625     -0.065300242  
    771000   0.059221234   -0.23486981     0             -0.18603178     0.017273893  
    771500   0.054534831   -0.22727788     0             -0.18230458    -0.16178532   
    772000   0.054090013   -0.22993298     0             -0.18532652    -0.27346949   
    772500   0.055766808   -0.22833166     0             -0.18234239    -0.22686808   
    773000   0.053162569   -0.23209113     0             -0.1882495      0.15047558   
    773500   0.048915807   -0.22739527     0             -0.18705582    -0.17343993   
    774000   0.049321355   -0.22818224     0             -0.18750834     0.11934434   
    774500   0.053518387   -0.22815334     0             -0.18401827    -0.0790014    
    775000   0.05506045    -0.23209729     0             -0.18669053    -0.022445298  
    775500   0.05188397    -0.23150403     0             -0.18871682    -0.075638362  
    776000   0.061862146   -0.23301216     0             -0.18199624    -0.46609508   
    776500   0.06011404    -0.23167061     0             -0.1820963      0.39455816   
    777000   0.060999228   -0.23098383     0             -0.18067953     0.080447258  
    777500   0.059105056   -0.22717093     0             -0.1784287      0.085207407  
    778000   0.058356864   -0.22567543     0             -0.17755021    -0.13747406   
    778500   0.04808405    -0.22924852     0             -0.18959499    -0.37514246   
    779000   0.055918562   -0.22650377     0             -0.18038935    -0.11624815   
    779500   0.056082639   -0.23004859     0             -0.18379886    -0.032529431  
    780000   0.05523556    -0.23207645     0             -0.18652528     0.086595859  
    780500   0.052855224   -0.23267387     0             -0.1890857     -0.018921344  
    781000   0.051524294   -0.23413891     0             -0.19164832    -0.13508559   
    781500   0.051728384   -0.23309927     0             -0.19044037     0.09165871   
    782000   0.059379135   -0.23057955     0             -0.18161129     0.29806343   
    782500   0.055459259   -0.23357567     0             -0.18784003     0.13573386   
    783000   0.051468891   -0.23916688     0             -0.19672197     0.036481101  
    783500   0.05862627    -0.23329377     0             -0.18494639    -0.30397811   
    784000   0.049535807   -0.23677559     0             -0.19592485     0.21029064   
    784500   0.061218956   -0.24096163     0             -0.19047613    -0.11436617   
    785000   0.058118647   -0.24047023     0             -0.19254146    -0.028511957  
    785500   0.058061454   -0.24080272     0             -0.19292112     0.70918985   
    786000   0.056149075   -0.23973414     0             -0.19342963     0.070223429  
    786500   0.058748627   -0.24129303     0             -0.19284473     0.29171391   
    787000   0.053675678   -0.2375744      0             -0.19330963    -0.10099588   
    787500   0.05548132    -0.23786094     0             -0.1921071     -0.55194115   
    788000   0.054908718   -0.23547239     0             -0.19019076     0.26853205   
    788500   0.052493046   -0.23566925     0             -0.19237975    -0.091809162  
    789000   0.051365377   -0.23769878     0             -0.19533924    -0.12069348   
    789500   0.049407722   -0.24047869     0             -0.19973358    -0.58541676   
    790000   0.050062018   -0.24187457     0             -0.20058987    -0.24382426   
    790500   0.046933712   -0.24007783     0             -0.20137296     0.10695781   
    791000   0.049806448   -0.24067109     0             -0.19959715     0.27347896   
    791500   0.052181493   -0.24512069     0             -0.20208812     0.13965041   
    792000   0.051050118   -0.24054319     0             -0.19844364     0.43112103   
    792500   0.052399524   -0.23642784     0             -0.19321546    -0.4079437    
    793000   0.045872237   -0.24188567     0             -0.20405617     0.15944545   
    793500   0.053445213   -0.24510081     0             -0.20102609     0.056737961  
    794000   0.050625752   -0.23712381     0             -0.19537422     0.20282317   
    794500   0.05098191    -0.24053984     0             -0.19849653     0.68372075   
    795000   0.055318096   -0.24342327     0             -0.19780404     0.026414421  
    795500   0.057349721   -0.23520132     0             -0.18790666     0.86888788   
    796000   0.051691918   -0.23988301     0             -0.19725418    -0.52527213   
    796500   0.056090668   -0.23897294     0             -0.19271659     0.16140024   
    797000   0.060843936   -0.24428507     0             -0.19410884     0.18360738   
    797500   0.059731162   -0.24146395     0             -0.19220539    -0.06174745   
    798000   0.061712371   -0.23800831     0             -0.1871159     -0.20497186   
    798500   0.050307521   -0.24253542     0             -0.20104827    -0.15629704   
    799000   0.056778779   -0.24216786     0             -0.19534404    -0.18094294   
    799500   0.058418966   -0.24640609     0             -0.19822966     0.034719335  
    800000   0.061219764   -0.23808883     0             -0.18760266    -0.0091411389 
    800500   0.060663243   -0.24080849     0             -0.19078127     0.20010801   
    801000   0.059518079   -0.24624251     0             -0.19715967     0.21090436   
    801500   0.057983466   -0.24361952     0             -0.19580223    -0.44594755   
    802000   0.056963471   -0.24481801     0             -0.19784189    -0.16023503   
    802500   0.054784592   -0.24387004     0             -0.19869077     0.092503471  
    803000   0.052522331   -0.24584335     0             -0.2025297      0.18535094   
    803500   0.058281182   -0.24046762     0             -0.19240481     0.12425302   
    804000   0.055905456   -0.2422382      0             -0.19613459    -0.20090427   
    804500   0.05486776    -0.24124234     0             -0.19599449     0.3986602    
    805000   0.048727092   -0.24198218     0             -0.20179836     0.50620948   
    805500   0.057410058   -0.24004431     0             -0.1926999     -0.059163396  
    806000   0.054538079   -0.23784489     0             -0.19286891     0.059165287  
    806500   0.051631373   -0.23826115     0             -0.19568225    -0.55831657   
    807000   0.050709073   -0.2413008      0             -0.19948249    -0.18446396   
    807500   0.061384056   -0.2384322      0             -0.18781055    -0.27808542   
    808000   0.056673217   -0.23790169     0             -0.19116493    -0.42925655   
    808500   0.049766235   -0.23852229     0             -0.19748151    -0.2421643    
    809000   0.05860943    -0.23956392     0             -0.19123042    -0.036884683  
    809500   0.049975145   -0.24337733     0             -0.20216427     0.57099173   
    810000   0.048490558   -0.24413774     0             -0.20414898     0.42274833   
    810500   0.06068825    -0.23912023     0             -0.18907239     0.0035992958 
    811000   0.055664938   -0.24255553     0             -0.19665027    -0.10278872   
    811500   0.051620033   -0.24221573     0             -0.19964619     0.074742135  
    812000   0.062734648   -0.23533832     0             -0.18360287     0.53727344   
    812500   0.058667372   -0.2304461      0             -0.18206481     0.044459295  
    813000   0.051711415   -0.2326375      0             -0.18999259     0.090750651  
    813500   0.050663141   -0.23574288     0             -0.19396245    -0.046418095  
    814000   0.047280648   -0.23217085     0             -0.19317987    -0.17071027   
    814500   0.054160818   -0.23789155     0             -0.19322669     0.19846145   
    815000   0.053444227   -0.23267934     0             -0.18860543    -0.027307037  
    815500   0.057492092   -0.23832693     0             -0.19091486    -0.075020549  
    816000   0.070857797   -0.22700881     0             -0.16857444    -0.034167092  
    816500   0.059841167   -0.22747223     0             -0.17812295     0.22473532   
    817000   0.058268125   -0.23105172     0             -0.18299969     0.13771617   
    817500   0.051758973   -0.22889133     0             -0.1862072     -0.33699187   
    818000   0.060091358   -0.23283497     0             -0.18327936    -0.040738347  
    818500   0.060021377   -0.23197199     0             -0.1824741     -0.33689909   
    819000   0.065172517   -0.23372618     0             -0.1799803      0.15698218   
    819500   0.060125199   -0.22964047     0             -0.18005696    -0.15295212   
    820000   0.055813114   -0.23488492     0             -0.18885746     0.6262146    
    820500   0.062339466   -0.23187733     0             -0.18046778     0.00074140164
    821000   0.063132364   -0.23767506     0             -0.18561163    -0.17031188   
    821500   0.060168348   -0.2369174      0             -0.18729831    -0.25970806   
    822000   0.061497675   -0.23150092     0             -0.18078557     0.70319849   
    822500   0.059519835   -0.2299851      0             -0.18090082    -0.08699221   
    823000   0.062534402   -0.22882147     0             -0.17725116     0.10782893   
    823500   0.063024881   -0.22880369     0             -0.17682889    -0.4384565    
    824000   0.053853849   -0.23269602     0             -0.18828431     0.067337502  
    824500   0.061266448   -0.23111229     0             -0.18058762    -0.18333728   
    825000   0.066847015   -0.22416746     0             -0.16904066    -0.44022329   
    825500   0.06167148    -0.23004957     0             -0.17919089     0.48248609   
    826000   0.0602921     -0.22728531     0             -0.17756416     0.34058235   
    826500   0.053105415   -0.23577983     0             -0.19198533    -0.4134317    
    827000   0.05887311    -0.23506063     0             -0.18650968     0.37465194   
    827500   0.059446731   -0.23748375     0             -0.18845975    -0.067806533  
    828000   0.064464625   -0.22950666     0             -0.17634455    -0.14876859   
    828500   0.064951767   -0.22582457     0             -0.17226073     0.024187498  
    829000   0.066659991   -0.22717003     0             -0.17219746     0.19129611   
    829500   0.057183648   -0.23142554     0             -0.18426784    -0.20420097   
    830000   0.055832064   -0.22169035     0             -0.17564726    -0.42403239   
    830500   0.053608421   -0.22589866     0             -0.18168934    -0.30847862   
    831000   0.058336124   -0.22775164     0             -0.17964352    -0.51461702   
    831500   0.054959231   -0.22826149     0             -0.18293821     0.22280875   
    832000   0.050470331   -0.2329176      0             -0.19129618    -0.060450843  
    832500   0.058757165   -0.23386511     0             -0.18540977    -0.10048201   
    833000   0.073116252   -0.23053555     0             -0.1702387      0.056898743  
    833500   0.068770115   -0.23142636     0             -0.17471363    -0.055558819  
    834000   0.061567432   -0.23010978     0             -0.1793369     -0.27493539   
    834500   0.056083316   -0.23154116     0             -0.18529087    -0.027978786  
    835000   0.057810852   -0.2287031      0             -0.18102817    -0.1628418    
    835500   0.058695933   -0.23498566     0             -0.18658082    -0.040257041  
    836000   0.058774275   -0.23752238     0             -0.18905294    -0.00076241865
    836500   0.057764275   -0.23453565     0             -0.18689913    -0.050749455  
    837000   0.053564322   -0.23867655     0             -0.19450361    -0.37222826   
    837500   0.055727161   -0.23939941     0             -0.19344283    -0.19578372   
    838000   0.058243095   -0.23298053     0             -0.18494914     0.14426416   
    838500   0.052970632   -0.2385602      0             -0.19487685     0.029722235  
    839000   0.051708072   -0.23884451     0             -0.19620236     0.1342748    
    839500   0.05622425    -0.23206426     0             -0.18569775    -0.23422651   
    840000   0.056289469   -0.23718188     0             -0.19076158     0.05938965   
    840500   0.059600078   -0.23481074     0             -0.18566028     0.18958421   
    841000   0.059290365   -0.23467106     0             -0.18577601     0.053878643  
    841500   0.055266032   -0.23327512     0             -0.18769882    -0.1902655    
    842000   0.060592888   -0.23688732     0             -0.18691812     0.23605927   
    842500   0.069760129   -0.23029284     0             -0.17276368    -0.39899089   
    843000   0.062916847   -0.22977339     0             -0.17788768    -0.018032091  
    843500   0.058910564   -0.23089667     0             -0.18231484     0.45524655   
    844000   0.057849145   -0.23277566     0             -0.18506915     0.056500336  
    844500   0.062960558   -0.22878526     0             -0.17686351     0.077780032  
    845000   0.068592069   -0.23506087     0             -0.17849498     0.14939543   
    845500   0.071580958   -0.23461811     0             -0.17558737    -0.35388897   
    846000   0.066033268   -0.23240096     0             -0.17794523    -0.18195835   
    846500   0.055191915   -0.23467357     0             -0.18915839     0.10540623   
    847000   0.058104753   -0.23338359     0             -0.18546628     0.076233153  
    847500   0.060514748   -0.23084593     0             -0.18094117     0.39017522   
    848000   0.053330498   -0.23138054     0             -0.18740042     0.10134906   
    848500   0.055230931   -0.22986923     0             -0.18432188    -0.23730878   
    849000   0.057749311   -0.23270005     0             -0.18507586    -0.19798912   
    849500   0.075240645   -0.22568162     0             -0.16363284    -0.27883216   
    850000   0.060243745   -0.22610486     0             -0.17642359    -0.054352204  
    850500   0.053293182   -0.2283433      0             -0.18439395    -0.22243232   
    851000   0.051969187   -0.23171449     0             -0.188857      -0.22000953   
    851500   0.055873554   -0.22763148     0             -0.18155417     0.39327831   
    852000   0.058281497   -0.23063309     0             -0.18257003    -0.038873568  
    852500   0.067761758   -0.22563722     0             -0.16975606     0.20748726   
    853000   0.061999425   -0.22940435     0             -0.17827522     0.43716162   
    853500   0.061442883   -0.22848385     0             -0.17781369    -0.0051545262 
    854000   0.065315269   -0.22527818     0             -0.17141457    -0.15300456   
    854500   0.061524122   -0.22970832     0             -0.17897116     0.10014047   
    855000   0.050435867   -0.22975382     0             -0.18816082    -0.12643171   
    855500   0.058113996   -0.23348568     0             -0.18556075     0.37463606   
    856000   0.065284818   -0.22715378     0             -0.17331528    -0.30300406   
    856500   0.05926507    -0.23370591     0             -0.18483172     0.54888411   
    857000   0.057383882   -0.2334506      0             -0.18612777    -0.59320213   
    857500   0.056535586   -0.23113879     0             -0.18451553     0.1144334    
    858000   0.051794713   -0.23286418     0             -0.19015058     0.25125587   
    858500   0.050976038   -0.23534966     0             -0.1933112     -0.28820184   
    859000   0.052373208   -0.23527423     0             -0.19208357     0.21090597   
    859500   0.059776787   -0.23166479     0             -0.1823686      0.46611387   
    860000   0.05474414    -0.23486998     0             -0.18972407    -0.10832693   
    860500   0.062354975   -0.23297586     0             -0.18155352     0.25578371   
    861000   0.05971993    -0.22966854     0             -0.18041924     0.11983043   
    861500   0.058869304   -0.23622378     0             -0.18767597     0.0044109758 
    862000   0.06169123    -0.23913238     0             -0.18825741    -0.27719517   
    862500   0.060558222   -0.23348399     0             -0.18354338     0.071703686  
    863000   0.06978679    -0.22639321     0             -0.16884206     0.1110233    
    863500   0.063238584   -0.22972437     0             -0.17757334    -0.31566197   
    864000   0.073605874   -0.22880211     0             -0.16810148    -0.022374913  
    864500   0.067392728   -0.22891887     0             -0.17334204     0.15299117   
    865000   0.063831816   -0.22927365     0             -0.1766334     -0.13558986   
    865500   0.056448352   -0.2266733      0             -0.18012197    -0.12239144   
    866000   0.055350673   -0.2331506      0             -0.18750451    -0.22666696   
    866500   0.066908947   -0.23006749     0             -0.17488962     0.34008778   
    867000   0.064851192   -0.22801907     0             -0.17453817    -0.43366725   
    867500   0.064217372   -0.2299452      0             -0.17698699    -0.11858335   
    868000   0.061746858   -0.22893719     0             -0.17801634    -0.014314141  
    868500   0.06734741    -0.22896873     0             -0.17342928    -0.35830681   
    869000   0.05739103    -0.2293936      0             -0.18206487    -0.13726899   
    869500   0.056962309   -0.23123316     0             -0.184258       0.12057049   
    870000   0.068043357   -0.22771394     0             -0.17160055     0.24442385   
    870500   0.059522127   -0.22723259     0             -0.17814642     0.13045689   
    871000   0.057880919   -0.22871433     0             -0.18098161     0.087816754  
    871500   0.055714625   -0.2341283      0             -0.18818206     0.090689518  
    872000   0.058113327   -0.23391188     0             -0.1859875      0.037479759  
    872500   0.06110617    -0.23194066     0             -0.18154818    -0.093324444  
    873000   0.053011677   -0.23561452     0             -0.19189733    -0.08315815   
    873500   0.051998407   -0.23592778     0             -0.1930462     -0.19602882   
    874000   0.054056064   -0.23918348     0             -0.194605      -0.37665199   
    874500   0.056824285   -0.24073772     0             -0.19387638    -0.087707364  
    875000   0.056801531   -0.23924539     0             -0.19240281    -0.018942535  
    875500   0.057218746   -0.23804895     0             -0.19086231     0.55033288   
    876000   0.061836134   -0.23579206     0             -0.18479759    -0.17035703   
    876500   0.063719681   -0.23798041     0             -0.18543263     0.28776523   
    877000   0.063715268   -0.23483337     0             -0.18228923    -0.41922389   
    877500   0.061373177   -0.23812351     0             -0.18751083     0.12016203   
    878000   0.061827549   -0.23697973     0             -0.18599234     0.26727225   
    878500   0.059539546   -0.23594813     0             -0.18684759     0.23415144   
    879000   0.061145234   -0.23853957     0             -0.18811487     0.12515122   
    879500   0.067202771   -0.23306177     0             -0.17764159    -0.57779558   
    880000   0.059189996   -0.23521485     0             -0.18640257     0.13222237   
    880500   0.066632513   -0.23354894     0             -0.17859904     0.29466507   
    881000   0.063686556   -0.23709425     0             -0.18457379    -0.29111972   
    881500   0.063729919   -0.22808734     0             -0.17553112     0.30098309   
    882000   0.05655867    -0.23193171     0             -0.18528942     0.24422296   
    882500   0.063091252   -0.23662417     0             -0.18459464     0.064478625  
    883000   0.066882038   -0.2311551      0             -0.17599942     0.076933713  
    883500   0.056194277   -0.23008594     0             -0.18374415     0.32554074   
    884000   0.069042809   -0.23354927     0             -0.17661167     0.22092025   
    884500   0.062507201   -0.23199301     0             -0.18044513    -0.33501238   
    885000   0.072549464   -0.23714862     0             -0.17731918     0.11796588   
    885500   0.072950709   -0.23239107     0             -0.17223074     0.22344631   
    886000   0.071709677   -0.23168067     0             -0.17254378    -0.071776895  
    886500   0.06909332    -0.22751786     0             -0.1705386     -0.31764635   
    887000   0.064223564   -0.22239051     0             -0.16942719    -0.22533359   
    887500   0.058123303   -0.2275019      0             -0.17956929    -0.29951751   
    888000   0.055507215   -0.23256423     0             -0.18678904    -0.53798034   
    888500   0.0531384     -0.23767322     0             -0.19385152    -0.0090794216 
    889000   0.050701484   -0.22684055     0             -0.1850285     -0.43945542   
    889500   0.055818511   -0.23162339     0             -0.18559148     0.055693379  
    890000   0.059001436   -0.22846458     0             -0.17980781     0.3544906    
    890500   0.058707735   -0.23436039     0             -0.18594582     0.09984608   
    891000   0.058641549   -0.23361903     0             -0.18525904     0.2272162    
    891500   0.057032431   -0.23643349     0             -0.1894005     -0.12522326   
    892000   0.064192175   -0.23187862     0             -0.17894119     0.29757148   
    892500   0.064984398   -0.23578962     0             -0.18219887    -0.37324128   
    893000   0.064321694   -0.2385824      0             -0.18553816     0.43327314   
    893500   0.065779142   -0.23555016     0             -0.18130401     0.12762535   
    894000   0.058141554   -0.23453486     0             -0.1865872     -0.16055564   
    894500   0.056723433   -0.24180469     0             -0.19502651     0.099892023  
    895000   0.06122277    -0.23949583     0             -0.18900718     0.41529649   
    895500   0.057913113   -0.24157337     0             -0.1938141      0.4268901    
    896000   0.059027628   -0.23803272     0             -0.18935435    -0.24812608   
    896500   0.056384782   -0.24088766     0             -0.19438877    -0.041293456  
    897000   0.059308973   -0.23776711     0             -0.18885671    -0.075052171  
    897500   0.062864696   -0.23966995     0             -0.18782725     0.071827989  
    898000   0.059202161   -0.23429023     0             -0.18546793    -0.13507023   
    898500   0.052571767   -0.23718359     0             -0.19382918     0.39178354   
    899000   0.060818958   -0.23869123     0             -0.1885356     -0.67585621   
    899500   0.055590232   -0.24025364     0             -0.19440999    -0.023654004  
    900000   0.067041687   -0.24169246     0             -0.18640512     0.035800106  
    900500   0.058835675   -0.23981647     0             -0.19129639     0.25744359   
    901000   0.063974032   -0.2456113      0             -0.19285377     0.35641007   
    901500   0.069751237   -0.23938516     0             -0.18186334     0.29250548   
    902000   0.063654635   -0.24120417     0             -0.18871003    -0.037986042  
    902500   0.065553083   -0.24005315     0             -0.18599342     0.077299179  
    903000   0.059110124   -0.23595384     0             -0.18720743    -0.18923857   
    903500   0.064644014   -0.23979659     0             -0.18648654    -0.015391863  
    904000   0.059728091   -0.24223519     0             -0.19297916     0.35699269   
    904500   0.066120499   -0.23644493     0             -0.18191727     0.13404985   
    905000   0.066157583   -0.23627554     0             -0.18171729    -0.34140095   
    905500   0.065402314   -0.23590354     0             -0.18196815     0.48531793   
    906000   0.062788138   -0.23619756     0             -0.184418       0.19503733   
    906500   0.070881517   -0.23591297     0             -0.17745904    -0.77445894   
    907000   0.071337842   -0.23848913     0             -0.17965888    -0.49330962   
    907500   0.068526164   -0.23478741     0             -0.17827587     0.050861922  
    908000   0.070873666   -0.23747107     0             -0.1790236      0.48556916   
    908500   0.064716836   -0.23764819     0             -0.18427809    -0.23049922   
    909000   0.067100798   -0.23506421     0             -0.17972812     0.53868373   
    909500   0.071944433   -0.23532987     0             -0.17599938    -0.0098459644 
    910000   0.065644696   -0.23266577     0             -0.17853048    -0.4797572    
    910500   0.065186564   -0.2258449      0             -0.17208742    -0.39304721   
    911000   0.062953289   -0.22915735     0             -0.17724159     0.17352436   
    911500   0.065760715   -0.22556069     0             -0.17132974     0.5347506    
    912000   0.059022752   -0.22795211     0             -0.17927775     0.33914613   
    912500   0.057669828   -0.22171941     0             -0.17416078     0.038650788  
    913000   0.056872303   -0.23058469     0             -0.18368375    -0.12859773   
    913500   0.060187764   -0.22471333     0             -0.17507822    -0.0021356692 
    914000   0.058401215   -0.2275524      0             -0.17939061    -0.013661174  
    914500   0.057526763   -0.22740768     0             -0.17996702    -0.2550613    
    915000   0.059762087   -0.2247111      0             -0.17542704    -0.19817502   
    915500   0.054243263   -0.23135399     0             -0.18662115     0.095643405  
    916000   0.051834281   -0.22858322     0             -0.18583699    -0.38684565   
    916500   0.063519136   -0.22562181     0             -0.17323942     0.067785088  
    917000   0.06844497    -0.21934151     0             -0.16289693     0.12893583   
    917500   0.058224195   -0.22455415     0             -0.17653834    -0.029974363  
    918000   0.063028678   -0.22466368     0             -0.17268575     0.12943711   
    918500   0.068715765   -0.22197662     0             -0.16530872    -0.34521568   
    919000   0.064418149   -0.21889636     0             -0.16577257     0.44048391   
    919500   0.0590546     -0.22159298     0             -0.17289237    -0.47366654   
    920000   0.064471573   -0.22305704     0             -0.1698892     -0.029339148  
    920500   0.058141887   -0.22440459     0             -0.17645665     0.21746836   
    921000   0.057992243   -0.22137657     0             -0.17355205     0.35302619   
    921500   0.062152685   -0.22215065     0             -0.17089513    -0.30598856   
    922000   0.055793303   -0.22582177     0             -0.17981065     0.18259013   
    922500   0.056342831   -0.22203087     0             -0.17556657     0.27189132   
    923000   0.061687321   -0.22487867     0             -0.17400692     0.21058997   
    923500   0.059103043   -0.22561982     0             -0.17687925    -0.27632531   
    924000   0.057738504   -0.22747206     0             -0.17985678    -0.21538793   
    924500   0.063749891   -0.2299979      0             -0.17742521     0.13344017   
    925000   0.060448729   -0.22679822     0             -0.1769479      0.16938069   
    925500   0.066618821   -0.22660517     0             -0.17166655    -0.050079856  
    926000   0.064960773   -0.22544556     0             -0.17187429     0.4251327    
    926500   0.063320904   -0.2261298      0             -0.17391088    -0.1371342    
    927000   0.061136074   -0.2314313      0             -0.18101415     0.1559318    
    927500   0.064671584   -0.23029103     0             -0.17695825    -0.66877681   
    928000   0.064568784   -0.23370074     0             -0.18045274    -0.036246406  
    928500   0.059741008   -0.23674864     0             -0.18748196    -0.35762447   
    929000   0.064950668   -0.23184654     0             -0.1782836      0.22731097   
    929500   0.061467078   -0.23443305     0             -0.18374293    -0.14009612   
    930000   0.064949638   -0.23276488     0             -0.17920279     0.19964276   
    930500   0.067387404   -0.23562024     0             -0.1800478      0.14494482   
    931000   0.061471137   -0.23308531     0             -0.18239184    -0.23401946   
    931500   0.064380952   -0.23319875     0             -0.18010564    -0.018914243  
    932000   0.068648432   -0.24014305     0             -0.18353067     0.21089693   
    932500   0.061857167   -0.23715571     0             -0.18614389     0.011890377  
    933000   0.053053484   -0.23805352     0             -0.19430185     0.33458686   
    933500   0.066852793   -0.23884222     0             -0.18371066    -0.32732878   
    934000   0.057380569   -0.23405906     0             -0.18673897     0.084521731  
    934500   0.06185088    -0.23121706     0             -0.18021043    -0.081602698  
    935000   0.063112313   -0.23217105     0             -0.18012416     0.056450269  
    935500   0.057562105   -0.23781807     0             -0.19034827    -0.16956703   
    936000   0.074626945   -0.22527884     0             -0.16373616     0.029672952  
    936500   0.069109855   -0.22797352     0             -0.17098063    -0.23687262   
    937000   0.063377617   -0.23322401     0             -0.18095833     0.084239637  
    937500   0.061419471   -0.23455606     0             -0.1839052      0.71040092   
    938000   0.061083074   -0.23214771     0             -0.18177427    -0.34510365   
    938500   0.062767762   -0.23156786     0             -0.1798051     -0.4146863    
    939000   0.074842036   -0.23621369     0             -0.17449363    -0.11470822   
    939500   0.063157287   -0.23064265     0             -0.17855866     0.18253388   
    940000   0.065528221   -0.23029045     0             -0.17625122     0.60517268   
    940500   0.064733906   -0.23447051     0             -0.18108634     0.062793464  
    941000   0.062599805   -0.23274859     0             -0.18112434    -0.2084966    
    941500   0.069436369   -0.2285679      0             -0.17130573    -0.047908853  
    942000   0.06640671    -0.22895707     0             -0.17419338     0.35833102   
    942500   0.06686956    -0.23178183     0             -0.17663644     0.55408328   
    943000   0.063753342   -0.23037489     0             -0.17779935     0.23636832   
    943500   0.061575626   -0.23607373     0             -0.18529409     0.18319141   
    944000   0.067634185   -0.23156956     0             -0.1757936      0.42950516   
    944500   0.069094949   -0.23278973     0             -0.17580912     0.18466392   
    945000   0.069040719   -0.23129867     0             -0.17436279    -0.35705427   
    945500   0.069344962   -0.23401105     0             -0.17682427     0.003530972  
    946000   0.055193674   -0.23426281     0             -0.18874618    -0.0024122517 
    946500   0.06117612    -0.23543695     0             -0.18498677     0.085435122  
    947000   0.058512021   -0.23598182     0             -0.18772865    -0.22218378   
    947500   0.059449687   -0.23572074     0             -0.1866943     -0.28191854   
    948000   0.061608397   -0.2410952      0             -0.19028854     0.014989436  
    948500   0.06081037    -0.23660073     0             -0.18645218    -0.34066118   
    949000   0.056199321   -0.23710644     0             -0.19076049     0.0026287288 
    949500   0.055064347   -0.23930517     0             -0.19389519     0.26319449   
    950000   0.060938046   -0.23957526     0             -0.18932142     0.49157986   
    950500   0.061047471   -0.23552263     0             -0.18517855    -0.16604242   
    951000   0.055193139   -0.23991654     0             -0.19440036    -0.56996012   
    951500   0.054174218   -0.24500537     0             -0.20032946     0.12523975   
    952000   0.059623454   -0.23685264     0             -0.1876829     -0.67833055   
    952500   0.058375895   -0.24092133     0             -0.19278042     0.32002303   
    953000   0.056568019   -0.23971136     0             -0.19306135     0.057701701  
    953500   0.057206331   -0.24262262     0             -0.19544621     0.58122236   
    954000   0.067764923   -0.24266996     0             -0.18678619     0.031634098  
    954500   0.061266758   -0.24165421     0             -0.19112929     0.53049184   
    955000   0.060869561   -0.23730061     0             -0.18710325     0.19893272   
    955500   0.058833751   -0.23565246     0             -0.18713397    -0.19550038   
    956000   0.060194829   -0.24052238     0             -0.19088144    -0.030884737  
    956500   0.058994514   -0.24349526     0             -0.19484419     0.12087968   
    957000   0.074810358   -0.24358873     0             -0.18189479    -0.0074763095 
    957500   0.071609305   -0.23959213     0             -0.18053801    -0.4526662    
    958000   0.062799038   -0.24069253     0             -0.18890398    -0.65023104   
    958500   0.06484119    -0.24111298     0             -0.18764033     0.62123769   
    959000   0.068115254   -0.23629048     0             -0.1801178     -0.69757427   
    959500   0.063328607   -0.23479725     0             -0.18257198     0.19169028   
    960000   0.059981062   -0.23877003     0             -0.18930538     0.092306971  
    960500   0.071216993   -0.23743667     0             -0.17870607    -0.37407624   
    961000   0.064442995   -0.23698495     0             -0.18384068     0.12513319   
    961500   0.063396961   -0.23756693     0             -0.1852853     -0.52281222   
    962000   0.057763451   -0.23428294     0             -0.1866471      0.14718784   
    962500   0.059340377   -0.24061777     0             -0.19168148     0.4462066    
    963000   0.076715813   -0.23846349     0             -0.17519818    -0.00050992599
    963500   0.066489232   -0.23745811     0             -0.18262637    -0.13147459   
    964000   0.060620191   -0.2373484      0             -0.18735668     0.038905189  
    964500   0.069096296   -0.23205905     0             -0.17507733     0.026939658  
    965000   0.069819193   -0.22934721     0             -0.17176935     0.44404409   
    965500   0.066733683   -0.23263441     0             -0.17760107     0.16782278   
    966000   0.071210521   -0.23106866     0             -0.17234341     0.28094083   
    966500   0.068571634   -0.2319217      0             -0.17537266    -0.034169888  
    967000   0.066238803   -0.23822591     0             -0.18360069    -0.37168761   
    967500   0.065974791   -0.2325216      0             -0.1781141     -0.3095253    
    968000   0.069608941   -0.23157672     0             -0.17417224    -0.2510003    
    968500   0.060793141   -0.23201485     0             -0.18188051    -0.42680378   
    969000   0.058254216   -0.23594903     0             -0.18790847    -0.20655351   
    969500   0.06059301    -0.23502561     0             -0.18505631    -0.0028537521 
    970000   0.064499018   -0.24365744     0             -0.19046697    -0.05163947   
    970500   0.074389891   -0.23184149     0             -0.1704943      0.66930152   
    971000   0.07037054    -0.2341076      0             -0.17607505    -0.28174143   
    971500   0.063265278   -0.23688693     0             -0.18471389    -0.28936698   
    972000   0.066575389   -0.23282676     0             -0.17792396    -0.30694597   
    972500   0.069702359   -0.23277035     0             -0.17528883     0.46269648   
    973000   0.075755805   -0.23206544     0             -0.16959182    -0.28561658   
    973500   0.077029778   -0.23115979     0             -0.16763556     0.094203857  
    974000   0.074079507   -0.22768643     0             -0.1665952     -0.0067409317 
    974500   0.073046192   -0.22660499     0             -0.16636591    -0.038885272  
    975000   0.073605692   -0.22311758     0             -0.1624171     -0.10080486   
    975500   0.066207896   -0.22510845     0             -0.17050872     0.30761419   
    976000   0.060231007   -0.22843346     0             -0.17876269    -0.026693058  
    976500   0.062412974   -0.23109699     0             -0.17962682     0.014500217  
    977000   0.057398213   -0.23163127     0             -0.18429663     0.21956566   
    977500   0.067649641   -0.23155772     0             -0.17576902     0.60348956   
    978000   0.068969462   -0.23048574     0             -0.17360862    -0.51875016   
    978500   0.065302698   -0.22860526     0             -0.17475201     0.5277121    
    979000   0.066222175   -0.23449149     0             -0.17987998     0.51333344   
    979500   0.09012118    -0.22755379     0             -0.15323347    -0.13831638   
    980000   0.082055645   -0.22703454     0             -0.15936563    -0.48158728   
    980500   0.076362825   -0.22591585     0             -0.16294164    -0.07525196   
    981000   0.069138362   -0.22693346     0             -0.16991705    -0.52320246   
    981500   0.065919239   -0.23056347     0             -0.17620178     0.56943456   
    982000   0.060955118   -0.23253872     0             -0.1822708      0.38747181   
    982500   0.062119981   -0.23571005     0             -0.1844815     -0.3335759    
    983000   0.058862672   -0.23381759     0             -0.18527525    -0.11846395   
    983500   0.066995902   -0.23090495     0             -0.17565537    -0.30318303   
    984000   0.063450726   -0.23660199     0             -0.18427601    -0.099746697  
    984500   0.069999299   -0.233279       0             -0.1755526     -0.024572516  
    985000   0.069141785   -0.22980344     0             -0.17278421     0.23762794   
    985500   0.072024573   -0.23165209     0             -0.17225551     0.21202348   
    986000   0.068400448   -0.23754505     0             -0.18113718    -0.085373181  
    986500   0.06945944    -0.23449193     0             -0.17721074     0.69773063   
    987000   0.0708816     -0.23232323     0             -0.17386922    -0.11059446   
    987500   0.071307837   -0.23243769     0             -0.17363218    -0.14041347   
    988000   0.067445045   -0.23353567     0             -0.17791569     0.24418585   
    988500   0.073789759   -0.23075069     0             -0.16989841     0.076991614  
    989000   0.065867355   -0.22955976     0             -0.17524086    -0.077673581  
    989500   0.057386911   -0.22762015     0             -0.18029483     0.72025003   
    990000   0.057212825   -0.23493053     0             -0.18774877     0.021325038  
    990500   0.071740086   -0.22984612     0             -0.17068415     0.041492271  
    991000   0.069442578   -0.23045854     0             -0.17319126     0.016315751  
    991500   0.065674126   -0.23111153     0             -0.17695198    -0.1261453    
    992000   0.06547613    -0.23085378     0             -0.17685752    -0.1265993    
    992500   0.062550347   -0.23182707     0             -0.18024361    -0.028190597  
    993000   0.072907696   -0.23177638     0             -0.17165152     0.4289304    
    993500   0.070758347   -0.23115944     0             -0.17280708     0.2783851    
    994000   0.078280347   -0.22914247     0             -0.16458693    -0.29855718   
    994500   0.069683354   -0.2309046      0             -0.17343875    -0.21743624   
    995000   0.065427236   -0.22887637     0             -0.17492042     0.1949165    
    995500   0.072292171   -0.22982271     0             -0.17020545     0.84136022   
    996000   0.077035874   -0.22314566     0             -0.15961641     0.19044976   
    996500   0.075193608   -0.22852768     0             -0.16651769     0.13772569   
    997000   0.064290976   -0.22754627     0             -0.17452737    -0.19256027   
    997500   0.066299261   -0.23001271     0             -0.17533763     0.171912     
    998000   0.061925036   -0.23091637     0             -0.17984859     0.18429877   
    998500   0.060383213   -0.2341246      0             -0.18432831     0.5397316    
    999000   0.062166364   -0.2359817      0             -0.1847149      0.2626478    
    999500   0.057273464   -0.23483024     0             -0.18759847    -0.040048793  
   1000000   0.077894404   -0.22826198     0             -0.16402472     0.077843052  
   1000001   0.077798449   -0.2282149      0             -0.16405677     0.14911269   
Loop time of 406.813 on 4 procs for 1000000 steps with 1520 atoms

Performance: 212382.846 tau/day, 2458.135 timesteps/s, 3.736 Matom-step/s
91.4% CPU use with 4 MPI tasks x 1 OpenMP threads

MPI task timing breakdown:
Section |  min time  |  avg time  |  max time  |%varavg| %total
---------------------------------------------------------------
Pair    | 56.036     | 59.029     | 60.748     |  24.5 | 14.51
Bond    | 0.14884    | 0.15965    | 0.16829    |   1.8 |  0.04
Neigh   | 5.769      | 5.77       | 5.7713     |   0.0 |  1.42
Comm    | 49.265     | 50.997     | 54.06      |  26.8 | 12.54
Output  | 1.6364     | 1.6785     | 1.7194     |   2.4 |  0.41
Modify  | 277.36     | 277.66     | 278.17     |   1.9 | 68.25
Other   |            | 11.52      |            |       |  2.83

Nlocal:            380 ave         405 max         356 min
Histogram: 2 0 0 0 0 0 0 0 1 1
Nghost:         953.25 ave         972 max         936 min
Histogram: 1 1 0 0 0 0 0 1 0 1
Neighs:              0 ave           0 max           0 min
Histogram: 4 0 0 0 0 0 0 0 0 0

Total # of neighbors = 0
Ave neighs/atom = 0
Ave special neighs/atom = 2.0657895
Neighbor list builds = 2960
Dangerous builds = 0

unfix ThermoLng

# Now we let the system to create the polymeric network
fix ThermoLng all langevin ${temp} ${temp} ${damp} 12345 # Brownian Dynamics: langevin + nve
fix ThermoLng all langevin 0.05 ${temp} ${damp} 12345 
fix ThermoLng all langevin 0.05 0.05 ${damp} 12345 
fix ThermoLng all langevin 0.05 0.05 1 12345 
run ${steps}
run 1000000
WARNING: Using a manybody potential with bonds/angles/dihedrals and special_bond exclusions (src/pair.cpp:243)
Hybrid pair style last /omp style sw/omp
Last active /omp style is pair_style sw/omp
WARNING: More than one fix rigid command (src/RIGID/fix_rigid_small.cpp:529)
WARNING: More than one fix rigid command (src/RIGID/fix_rigid_small.cpp:529)
WARNING: One or more atoms are time integrated more than once (src/modify.cpp:296)
WARNING: Computing temperature of portions of rigid bodies (src/RIGID/fix_rigid_small.cpp:1178)
WARNING: Computing temperature of portions of rigid bodies (src/RIGID/fix_rigid_small.cpp:1178)
Per MPI rank memory allocation (min/avg/max) = 21.34 | 21.35 | 21.35 Mbytes
   Step          Temp          E_pair         E_mol          TotEng         Press     
   1000001   0.077773607   -0.2282149      0             -0.16407725     0.037719173  
   1000500   0.073262182   -0.2252249      0             -0.1648077     -0.033030961  
   1001000   0.063225893   -0.22360684     0             -0.17146628     0.048843422  
   1001500   0.073432369   -0.22538607     0             -0.16482852    -0.094611134  
   1002000   0.066341086   -0.23022074     0             -0.17551117    -0.095284018  
   1002500   0.072591652   -0.21929391     0             -0.15942968     0.065037035  
   1003000   0.065116515   -0.22317189     0             -0.16947219     0.27249409   
   1003500   0.081427039   -0.21677999     0             -0.14962947    -0.58004351   
   1004000   0.077705508   -0.22070426     0             -0.15662278     0.24456257   
   1004500   0.069651132   -0.21506498     0             -0.15762571     0.025427148  
   1005000   0.064938464   -0.21515096     0             -0.16159809    -0.15304558   
   1005500   0.063075804   -0.21864876     0             -0.16663197     0.23507541   
   1006000   0.071533126   -0.21314823     0             -0.15415693    -0.55347193   
   1006500   0.068357939   -0.21541038     0             -0.15903757     0.4473951    
   1007000   0.074712107   -0.22314802     0             -0.16153511     0.48322618   
   1007500   0.066960854   -0.21562526     0             -0.16040458     0.38467717   
   1008000   0.060255982   -0.2248967      0             -0.17520534    -0.17693673   
   1008500   0.057387845   -0.22508128     0             -0.17775518     0.014203032  
   1009000   0.060494725   -0.22801351     0             -0.17812526     0.02676676   
   1009500   0.060524467   -0.22411015     0             -0.17419738     0.24111583   
   1010000   0.066181518   -0.22640991     0             -0.17183193     0.35705299   
   1010500   0.064542397   -0.22045138     0             -0.16722514     0.12634006   
   1011000   0.069443109   -0.22232728     0             -0.16505956    -0.19899367   
   1011500   0.072273329   -0.22223704     0             -0.16263532     0.19212427   
   1012000   0.07501835    -0.22012013     0             -0.15825467     0.073042703  
   1012500   0.07044676    -0.22580425     0             -0.16770884     0.30468051   
   1013000   0.073729837   -0.22253735     0             -0.16173449    -0.1479748    
   1013500   0.083076522   -0.22190603     0             -0.15339523    -0.12937797   
   1014000   0.065022597   -0.2217742      0             -0.16815195     0.21067693   
   1014500   0.063931128   -0.22481506     0             -0.17209291    -0.35392671   
   1015000   0.071568122   -0.22862269     0             -0.16960253     0.17614119   
   1015500   0.06655499    -0.2253439      0             -0.17045793     0.15459594   
   1016000   0.066256528   -0.22501152     0             -0.17037168    -0.16737076   
   1016500   0.070183991   -0.22848448     0             -0.17060577     0.44515786   
   1017000   0.075888121   -0.22595244     0             -0.16336971     0.11209361   
   1017500   0.067245917   -0.22603894     0             -0.17058318    -0.072105041  
   1018000   0.062488603   -0.23152295     0             -0.17999041     0.24437969   
   1018500   0.070026785   -0.22878483     0             -0.17103577    -0.16025911   
   1019000   0.065333884   -0.22911523     0             -0.17523626    -0.055474106  
   1019500   0.058714345   -0.23342111     0             -0.18500109     0.14311306   
   1020000   0.063129349   -0.23173034     0             -0.17966939     0.27646642   
   1020500   0.06680945    -0.22946093     0             -0.17436511    -0.054167533  
   1021000   0.061053262   -0.22766184     0             -0.17731298     0.023881676  
   1021500   0.061869191   -0.23097158     0             -0.17994985     0.04947421   
   1022000   0.0589492     -0.22629801     0             -0.17768431     0.48632934   
   1022500   0.06569403    -0.22891685     0             -0.17474088     0.064971238  
   1023000   0.066672158   -0.23280746     0             -0.17782486    -0.73498983   
   1023500   0.065571565   -0.23349868     0             -0.1794237      0.1370022    
   1024000   0.064895579   -0.23263152     0             -0.17911401    -0.35262537   
   1024500   0.064795464   -0.22896252     0             -0.17552758     0.31262753   
   1025000   0.059588103   -0.23114726     0             -0.18200668     0.032979114  
   1025500   0.066396916   -0.22825363     0             -0.17349802    -0.26555583   
   1026000   0.071092199   -0.22633328     0             -0.1677056      0.26741625   
   1026500   0.068538077   -0.22859216     0             -0.17207079    -0.36988024   
   1027000   0.067197532   -0.22386171     0             -0.16844585     0.018494303  
   1027500   0.059790843   -0.22626819     0             -0.17696041     0.023440699  
   1028000   0.06638803    -0.22917065     0             -0.17442237    -0.27048349   
   1028500   0.072701444   -0.229856       0             -0.16990122    -0.20938104   
   1029000   0.063235166   -0.22936076     0             -0.17721255     0.24757948   
   1029500   0.072643771   -0.22445709     0             -0.16454987    -0.17832577   
   1030000   0.064996708   -0.22638938     0             -0.17278848    -0.3069515    
   1030500   0.062064536   -0.22777903     0             -0.1765962      0.23154021   
   1031000   0.063685757   -0.22813533     0             -0.17561553     0.26923484   
   1031500   0.066283643   -0.22355641     0             -0.16889421     0.037260348  
   1032000   0.073633633   -0.22683651     0             -0.16611298     0.24674073   
   1032500   0.0690189     -0.22776351     0             -0.17084562     0.52239103   
   1033000   0.062818496   -0.22690523     0             -0.17510063     0.24514251   
   1033500   0.05891302    -0.22626918     0             -0.17768532     0.13344819   
   1034000   0.065080797   -0.22786616     0             -0.17419591    -0.0030658874 
   1034500   0.061448967   -0.22411844     0             -0.17344326    -0.092329662  
   1035000   0.070492565   -0.22459787     0             -0.16646469    -0.22284316   
   1035500   0.071816266   -0.22915434     0             -0.16992954     0.1750887    
   1036000   0.066620817   -0.2277575      0             -0.17281724    -0.62872176   
   1036500   0.062583035   -0.2262471      0             -0.17463669    -0.38103413   
   1037000   0.063104682   -0.22549698     0             -0.17345638    -0.1377967    
   1037500   0.0675384     -0.2268457      0             -0.17114873     0.34866931   
   1038000   0.068060868   -0.22514547     0             -0.16901765     0.15753423   
   1038500   0.063997787   -0.22692512     0             -0.17414799    -0.37380139   
   1039000   0.070448671   -0.22735446     0             -0.16925748     0.030704202  
   1039500   0.079820433   -0.22320739     0             -0.15738179    -0.067197354  
   1040000   0.07447951    -0.21878869     0             -0.15736759     0.34990478   
   1040500   0.067449235   -0.2185251      0             -0.16290167    -0.26512896   
   1041000   0.064454197   -0.2239263      0             -0.17077279    -0.29918727   
   1041500   0.066711817   -0.22239329     0             -0.16737798    -0.53075384   
   1042000   0.068936825   -0.21967486     0             -0.16282466     0.26869866   
   1042500   0.062160925   -0.22738348     0             -0.17612116    -0.3978662    
   1043000   0.063296812   -0.22602295     0             -0.1738239      0.050750617  
   1043500   0.059029193   -0.2239392      0             -0.17525953    -0.064632445  
   1044000   0.056899225   -0.2304004      0             -0.18347726    -0.10416717   
   1044500   0.066697058   -0.22702622     0             -0.17202309    -0.00087205173
   1045000   0.069997209   -0.22736529     0             -0.16964062    -0.33835969   
   1045500   0.065298062   -0.22633726     0             -0.17248784    -0.34312618   
   1046000   0.072034875   -0.22341973     0             -0.16401465    -0.29003498   
   1046500   0.067727144   -0.22358528     0             -0.16773266     0.43744986   
   1047000   0.067084775   -0.22731514     0             -0.17199227     0.069329271  
   1047500   0.064792259   -0.22666407     0             -0.17323177     0.33256003   
   1048000   0.062230938   -0.21973513     0             -0.16841508    -0.3883171    
   1048500   0.060724267   -0.22245143     0             -0.17237388     0.26381645   
   1049000   0.059848339   -0.22530595     0             -0.17595076    -0.12733898   
   1049500   0.066578493   -0.2279786      0             -0.17307324     0.25742962   
   1050000   0.060437469   -0.22314729     0             -0.17330626     0.30862871   
   1050500   0.06010361    -0.21437329     0             -0.16480758     0.12656224   
   1051000   0.059973378   -0.21909003     0             -0.16963172    -0.686022     
   1051500   0.062341619   -0.22137178     0             -0.16996045    -0.093173566  
   1052000   0.059543929   -0.22315396     0             -0.1740498      0.15055139   
   1052500   0.058967176   -0.22441489     0             -0.17578636    -0.18902901   
   1053000   0.056184278   -0.22662273     0             -0.18028918    -0.10924339   
   1053500   0.056251089   -0.23162302     0             -0.18523437     0.039496658  
   1054000   0.057251913   -0.23109355     0             -0.18387956    -0.18544513   
   1054500   0.064221157   -0.23221889     0             -0.17925756    -0.31129553   
   1055000   0.070194477   -0.23096411     0             -0.17307676    -0.20960539   
   1055500   0.065258983   -0.23168403     0             -0.17786684     0.0011852561 
   1056000   0.079069406   -0.22932698     0             -0.16412073     0.1196657    
   1056500   0.080399161   -0.22641539     0             -0.16011253    -0.54986008   
   1057000   0.06991368    -0.22789731     0             -0.17024152    -0.22197111   
   1057500   0.065091248   -0.22493465     0             -0.17125578     0.12188616   
   1058000   0.058730552   -0.22922605     0             -0.18079267     0.25301074   
   1058500   0.066464434   -0.2248028      0             -0.16999151     0.29142307   
   1059000   0.062398795   -0.2292079      0             -0.17774942    -0.0015997489 
   1059500   0.065576113   -0.22557809     0             -0.17149936     0.057014333  
   1060000   0.068019116   -0.22491833     0             -0.16882493    -0.049033237  
   1060500   0.070646035   -0.22322752     0             -0.16496778     0.12044251   
   1061000   0.071766894   -0.22433853     0             -0.16515445    -0.092307673  
   1061500   0.074945725   -0.22455517     0             -0.1627496      0.66930149   
   1062000   0.075792162   -0.22901446     0             -0.16651086     0.1769778    
   1062500   0.068420746   -0.22555859     0             -0.16913398    -0.20192948   
   1063000   0.067005515   -0.22584828     0             -0.17059077     0.16394159   
   1063500   0.066784294   -0.22946589     0             -0.17439082     0.56484567   
   1064000   0.066836471   -0.22686651     0             -0.17174841     0.07713238   
   1064500   0.068162198   -0.22572694     0             -0.16951555     0.19095007   
   1065000   0.067634326   -0.22691973     0             -0.17114366     0.19552247   
   1065500   0.07765597    -0.22645732     0             -0.16241669    -0.27887037   
   1066000   0.063124998   -0.22304258     0             -0.17098522     0.25950523   
   1066500   0.063804222   -0.22845841     0             -0.17584092    -0.26536674   
   1067000   0.064696612   -0.2333618      0             -0.18000838    -0.068626344  
   1067500   0.067667733   -0.22859255     0             -0.17278893     0.26526176   
   1068000   0.073549553   -0.23052605     0             -0.16987186    -0.10396385   
   1068500   0.081006037   -0.22275244     0             -0.15594911     0.14589872   
   1069000   0.06726493    -0.23041173     0             -0.17494029    -0.14858283   
   1069500   0.063925113   -0.23108547     0             -0.17836828     0.12671617   
   1070000   0.065001058   -0.22623769     0             -0.1726332     -0.081617791  
   1070500   0.065615347   -0.22804788     0             -0.1739368      0.34044651   
   1071000   0.063016134   -0.22496321     0             -0.17299563    -0.12375072   
   1071500   0.061741133   -0.22633809     0             -0.17542197     0.10529558   
   1072000   0.066897449   -0.22507958     0             -0.16991119     0.39086955   
   1072500   0.081055896   -0.22764385     0             -0.1607994      0.20621345   
   1073000   0.076059055   -0.22355757     0             -0.16083387    -0.14664571   
   1073500   0.067994703   -0.22566307     0             -0.16958981     0.050462867  
   1074000   0.072950691   -0.22157409     0             -0.16141377     0.083591089  
   1074500   0.068448647   -0.22813642     0             -0.1716888     -0.1728857    
   1075000   0.067649509   -0.22654999     0             -0.1707614     -0.0015084197 
   1075500   0.074793005   -0.22296316     0             -0.16128353     0.1194714    
   1076000   0.071273272   -0.22695983     0             -0.16818283     0.0806504    
   1076500   0.07135953    -0.22847141     0             -0.16962327    -0.32240291   
   1077000   0.069175734   -0.22500901     0             -0.16796178    -0.44484035   
   1077500   0.067086951   -0.2296397      0             -0.17431503     0.090560815  
   1078000   0.062841222   -0.22666605     0             -0.17484272     0.36001394   
   1078500   0.063466182   -0.22889794     0             -0.17655922     0.57331053   
   1079000   0.061427377   -0.23217531     0             -0.18151793     0.05571497   
   1079500   0.062923741   -0.22727299     0             -0.1753816     -0.27068179   
   1080000   0.065334937   -0.23071082     0             -0.17683099     0.21222519   
   1080500   0.067975078   -0.22753009     0             -0.17147301     0.35649074   
   1081000   0.06626112    -0.22942074     0             -0.17477711    -0.057209827  
   1081500   0.061514253   -0.22890179     0             -0.17817277     0.56133803   
   1082000   0.068684098   -0.22783655     0             -0.17119476     0.095717008  
   1082500   0.059680275   -0.22999703     0             -0.18078043     0.13274052   
   1083000   0.058305887   -0.22938801     0             -0.18130483     0.17095326   
   1083500   0.0570276     -0.23134256     0             -0.18431355     0.58993822   
   1084000   0.069993033   -0.23202224     0             -0.17430102     0.21702857   
   1084500   0.072725171   -0.23060992     0             -0.17063558     0.26290716   
   1085000   0.074284221   -0.22976489     0             -0.16850484     0.30167874   
   1085500   0.063124999   -0.22936886     0             -0.1773115     -0.27051502   
   1086000   0.065280925   -0.22715146     0             -0.17331617     0.71269438   
   1086500   0.065360488   -0.22421696     0             -0.17031606    -0.049448194  
   1087000   0.059438687   -0.22829912     0             -0.17928175    -0.60203909   
   1087500   0.060098131   -0.22664273     0             -0.17708154    -0.33664377   
   1088000   0.064977703   -0.2310101      0             -0.17742487    -0.13838624   
   1088500   0.075698895   -0.22431161     0             -0.16188492     0.21389663   
   1089000   0.073791258   -0.23478139     0             -0.17392787    -0.054402953  
   1089500   0.067926762   -0.22851557     0             -0.17249834     0.22046206   
   1090000   0.067300533   -0.23226516     0             -0.17676436    -0.27549634   
   1090500   0.073152703   -0.224616       0             -0.16428908     0.19534486   
   1091000   0.070251466   -0.2304279      0             -0.17249355     0.17115576   
   1091500   0.067856692   -0.23085397     0             -0.17489452     0.19617044   
   1092000   0.067987686   -0.23122472     0             -0.17515725     0.33590795   
   1092500   0.069755664   -0.22596257     0             -0.16843709    -0.49305755   
   1093000   0.061136898   -0.2334098      0             -0.18299197    -0.21343004   
   1093500   0.064001392   -0.23119424     0             -0.17841414     0.15654045   
   1094000   0.065962307   -0.23037205     0             -0.17597484     0.213553     
   1094500   0.062785737   -0.23835865     0             -0.18658107    -0.01558128   
   1095000   0.06158961    -0.23990959     0             -0.18911842     0.12890671   
   1095500   0.064546426   -0.24421446     0             -0.19098489    -0.022596852  
   1096000   0.073047787   -0.2414069      0             -0.1811665     -0.27150915   
   1096500   0.07152296    -0.24082721     0             -0.18184429    -0.2255667    
   1097000   0.070675109   -0.23468658     0             -0.17640286    -0.034630508  
   1097500   0.069856824   -0.23821106     0             -0.18060216     0.044720207  
   1098000   0.079599209   -0.2323335      0             -0.16669034    -0.0091343701 
   1098500   0.066569534   -0.23404052     0             -0.17914256    -0.74401495   
   1099000   0.068546203   -0.23465987     0             -0.1781318     -0.1149444    
   1099500   0.066272654   -0.23345842     0             -0.17880528     0.18930976   
   1100000   0.062136597   -0.23722811     0             -0.18598586     0.31624747   
   1100500   0.057756439   -0.23560992     0             -0.18797986    -0.10191762   
   1101000   0.063868625   -0.24267344     0             -0.19000284    -0.13765565   
   1101500   0.069997855   -0.23780238     0             -0.18007718    -0.0987676    
   1102000   0.0667007     -0.23623222     0             -0.18122608     0.47989019   
   1102500   0.058116347   -0.2351022      0             -0.18717533    -0.22355543   
   1103000   0.055962996   -0.23464323     0             -0.18849217     0.021107716  
   1103500   0.056873506   -0.23698223     0             -0.1900803     -0.31039559   
   1104000   0.053215574   -0.23672191     0             -0.19283657     0.08363597   
   1104500   0.060539933   -0.24038796     0             -0.19046242    -0.29067845   
   1105000   0.060297104   -0.23594876     0             -0.18622349     0.0079229648 
   1105500   0.065795075   -0.23328428     0             -0.17902498    -0.42902722   
   1106000   0.059719327   -0.23888946     0             -0.18964066     0.38119014   
   1106500   0.061604916   -0.24392094     0             -0.19311715    -0.59897608   
   1107000   0.069393601   -0.23882089     0             -0.18159399    -0.87144455   
   1107500   0.069485487   -0.22806395     0             -0.17076128    -0.2940822    
   1108000   0.056973158   -0.22775692     0             -0.18077281    -0.073542108  
   1108500   0.056822088   -0.23141568     0             -0.18455615     0.17773095   
   1109000   0.061460725   -0.23314254     0             -0.18245766    -0.079035345  
   1109500   0.059830823   -0.23518876     0             -0.18584802    -0.072446186  
   1110000   0.062758509   -0.23911383     0             -0.18735871    -0.014943619  
   1110500   0.067178174   -0.23218796     0             -0.17678807     0.13408176   
   1111000   0.069655538   -0.22846735     0             -0.17102445     0.20865366   
   1111500   0.063819389   -0.23179743     0             -0.17916743     0.030051655  
   1112000   0.079253964   -0.22730937     0             -0.16195092     0.21569582   
   1112500   0.065740678   -0.22303517     0             -0.16882073     0.088091499  
   1113000   0.067381101   -0.22435748     0             -0.16879024    -0.17551935   
   1113500   0.063398443   -0.22434468     0             -0.17206182     0.45782001   
   1114000   0.075005989   -0.22526951     0             -0.16341424    -0.058133445  
   1114500   0.06199345    -0.22197819     0             -0.17085399     0.51600108   
   1115000   0.066215536   -0.2224055      0             -0.16779946    -0.059985655  
   1115500   0.062988638   -0.22795987     0             -0.17601496     0.22466791   
   1116000   0.062089569   -0.22862814     0             -0.17742466    -0.080267055  
   1116500   0.06615783    -0.22112712     0             -0.16656868    -0.17371225   
   1117000   0.066705126   -0.22162441     0             -0.16661462     0.034895408  
   1117500   0.059641225   -0.21869464     0             -0.16951025     0.17455237   
   1118000   0.063947997   -0.22416656     0             -0.1714305      0.69160022   
   1118500   0.073865857   -0.22282233     0             -0.1619073      0.026649591  
   1119000   0.069906838   -0.22094502     0             -0.16329488     0.054696571  
   1119500   0.059373621   -0.22234028     0             -0.17337658     0.014085819  
   1120000   0.058895854   -0.22561143     0             -0.17704173    -0.20854903   
   1120500   0.064057798   -0.22180939     0             -0.16898278    -0.52274217   
   1121000   0.062919485   -0.22307963     0             -0.17119175    -0.034413746  
   1121500   0.066668415   -0.22546769     0             -0.17048817    -0.063873504  
   1122000   0.065180837   -0.22568597     0             -0.17193322    -0.42738939   
   1122500   0.056894331   -0.2211379      0             -0.17421879    -0.16454503   
   1123000   0.067143525   -0.22643412     0             -0.1710628     -0.21431769   
   1123500   0.079957699   -0.21882876     0             -0.15288996     0.085032771  
   1124000   0.067821716   -0.21805644     0             -0.16212583    -0.18056909   
   1124500   0.070362736   -0.2193204      0             -0.16129429     0.55306798   
   1125000   0.0677591     -0.22152146     0             -0.16564249    -0.098143919  
   1125500   0.069736542   -0.22230851     0             -0.1647988     -0.30898753   
   1126000   0.082442901   -0.21831327     0             -0.15032499     0.25165357   
   1126500   0.068349498   -0.22124699     0             -0.16488114    -0.18982217   
   1127000   0.060702299   -0.21387157     0             -0.16381214     0.21682614   
   1127500   0.064696904   -0.21884749     0             -0.16549383    -0.29026604   
   1128000   0.07064078    -0.21867057     0             -0.16041517     0.10415419   
   1128500   0.067924233   -0.21377076     0             -0.15775561     0.6078177    
   1129000   0.06529655    -0.21553038     0             -0.1616822      0.21855921   
   1129500   0.060214996   -0.21665752     0             -0.16699995     0.32592577   
   1130000   0.056810561   -0.2203145      0             -0.17346447     0.55781469   
   1130500   0.067685544   -0.21817207     0             -0.16235377     0.10443202   
   1131000   0.071082131   -0.22113545     0             -0.16251607     0.37940463   
   1131500   0.064964648   -0.22342135     0             -0.16984688    -0.012346001  
   1132000   0.060876376   -0.22730239     0             -0.17709941     0.0082729286 
   1132500   0.058007342   -0.22754443     0             -0.17970746    -0.0094636588 
   1133000   0.060058214   -0.23203627     0             -0.182508      -0.073794263  
   1133500   0.059034679   -0.23184037     0             -0.18315618     0.12484746   
   1134000   0.066922561   -0.23051347     0             -0.17532437    -0.088934019  
   1134500   0.05820778    -0.23259956     0             -0.18459729     0.32310293   
   1135000   0.066773216   -0.2320313      0             -0.17696536     0.24133239   
   1135500   0.061235494   -0.23700251     0             -0.18650337     0.094671559  
   1136000   0.05995617    -0.23366456     0             -0.18422044     0.64588329   
   1136500   0.06179992    -0.23637029     0             -0.18540568     0.13638375   
   1137000   0.0617794     -0.23856449     0             -0.18761681    -0.082429422  
   1137500   0.070456788   -0.23546436     0             -0.17736068     0.54815712   
   1138000   0.065455747   -0.23537211     0             -0.18139265     0.040363726  
   1138500   0.062194171   -0.23611961     0             -0.18482988     0.19212987   
   1139000   0.062796026   -0.23039298     0             -0.17860691     0.38748809   
   1139500   0.067400684   -0.23328181     0             -0.17769842    -0.093215458  
   1140000   0.06765325    -0.22966871     0             -0.17387703     0.11072253   
   1140500   0.066414338   -0.23263698     0             -0.177867      -0.39927946   
   1141000   0.065487873   -0.22528244     0             -0.17127648     0.053680432  
   1141500   0.06101736    -0.23055526     0             -0.18023601    -0.44998299   
   1142000   0.063709091   -0.23030467     0             -0.17776563     0.1037619    
   1142500   0.066371667   -0.2329143      0             -0.17817951    -0.059506205  
   1143000   0.07320517    -0.22809916     0             -0.16772898    -0.060073212  
   1143500   0.070750447   -0.23139037     0             -0.17304453    -0.057055711  
   1144000   0.065261951   -0.22944466     0             -0.17562502    -0.34661751   
   1144500   0.071053884   -0.23032592     0             -0.17172984    -0.96281047   
   1145000   0.065622826   -0.23108391     0             -0.17696666     0.5605527    
   1145500   0.064984263   -0.2373697      0             -0.18377906     0.039938537  
   1146000   0.061294997   -0.22831481     0             -0.1777666     -0.098136442  
   1146500   0.066163096   -0.23051492     0             -0.17595213    -0.19752845   
   1147000   0.069983843   -0.2299431      0             -0.17222945    -0.34710248   
   1147500   0.059061872   -0.23127496     0             -0.18256835    -0.50406236   
   1148000   0.065609644   -0.2304355      0             -0.17632913     0.19158586   
   1148500   0.0624687     -0.22841159     0             -0.17689546    -0.32400762   
   1149000   0.063367381   -0.22938616     0             -0.17712892    -0.16553933   
   1149500   0.067842554   -0.2282647      0             -0.17231691     0.27377289   
   1150000   0.067507461   -0.22774156     0             -0.17207011     0.16181183   
   1150500   0.069700985   -0.23155286     0             -0.17407247     0.35710776   
   1151000   0.068187181   -0.23595766     0             -0.17972566     0.093076909  
   1151500   0.070195949   -0.22843266     0             -0.17054409     0.1347735    
   1152000   0.067285513   -0.22641729     0             -0.17092887     0.21151698   
   1152500   0.069383498   -0.22945772     0             -0.17223915    -0.70248069   
   1153000   0.056526261   -0.22875669     0             -0.18214112    -0.31653427   
   1153500   0.05764844    -0.22954865     0             -0.18200765    -0.16229008   
   1154000   0.06231194    -0.2347446      0             -0.18335775    -0.23952067   
   1154500   0.064479506   -0.23045632     0             -0.17728194     0.089082746  
   1155000   0.067998459   -0.22750904     0             -0.17143268     0.085532673  
   1155500   0.059541191   -0.22953284     0             -0.18043094     0.18570054   
   1156000   0.059291438   -0.22863247     0             -0.17973653     0.1944898    
   1156500   0.069086596   -0.22291916     0             -0.16594544     0.35681627   
   1157000   0.067793797   -0.22476329     0             -0.16885571     0.25682527   
   1157500   0.07416789    -0.220082       0             -0.15891789    -0.040362411  
   1158000   0.064661176   -0.22296554     0             -0.16964134    -0.57660101   
   1158500   0.064948735   -0.22319803     0             -0.16963669     0.36852691   
   1159000   0.065762447   -0.224095       0             -0.16986261     0.13641643   
   1159500   0.067331134   -0.22452866     0             -0.16900262     0.36927343   
   1160000   0.066409036   -0.22385998     0             -0.16909437    -0.16949568   
   1160500   0.064933848   -0.23456594     0             -0.18101687     0.13367019   
   1161000   0.06518323    -0.22865774     0             -0.17490302    -0.063381913  
   1161500   0.073618113   -0.22657039     0             -0.16585966     0.13774523   
   1162000   0.069285405   -0.22791012     0             -0.17077245    -0.081454625  
   1162500   0.071389438   -0.22342257     0             -0.16454976     0.3998062    
   1163000   0.07396374    -0.22177604     0             -0.16078028     0.17777904   
   1163500   0.069486724   -0.22105357     0             -0.16374988     0.26358331   
   1164000   0.06437334    -0.22399223     0             -0.1709054     -0.045092214  
   1164500   0.065108427   -0.21969995     0             -0.16600691     0.26473658   
   1165000   0.067702995   -0.21907611     0             -0.16324341    -0.15428711   
   1165500   0.071938555   -0.21833067     0             -0.15900503     0.054096312  
   1166000   0.069427128   -0.22382142     0             -0.16656688     0.38187975   
   1166500   0.062661619   -0.22228118     0             -0.17060596     0.91865333   
   1167000   0.061334057   -0.22227229     0             -0.17169187     0.24309115   
   1167500   0.07168634    -0.22798129     0             -0.16886365    -0.094379575  
   1168000   0.071094063   -0.21719476     0             -0.15856554     0.12974452   
   1168500   0.069408553   -0.21844759     0             -0.16120836     0.16440333   
   1169000   0.067167432   -0.21990911     0             -0.16451807    -0.58827686   
   1169500   0.066182916   -0.21950897     0             -0.16492983    -0.23807898   
   1170000   0.068114223   -0.23078871     0             -0.17461688     0.18484994   
   1170500   0.061920845   -0.22479833     0             -0.173734       0.24279485   
   1171000   0.068623798   -0.2230112      0             -0.16641914    -0.55526878   
   1171500   0.068571562   -0.22483071     0             -0.16828173    -0.36086642   
   1172000   0.069697313   -0.21986471     0             -0.16238735     0.0088206643 
   1172500   0.069471017   -0.22336243     0             -0.1660717     -0.30548684   
   1173000   0.071699987   -0.21761791     0             -0.15848901     0.066521019  
   1173500   0.069664684   -0.21888787     0             -0.16143742     0.044198841  
   1174000   0.071180527   -0.21621748     0             -0.15751696     0.069774636  
   1174500   0.069702837   -0.22161288     0             -0.16413097    -0.16733779   
   1175000   0.067191669   -0.22279186     0             -0.16738084    -0.067441185  
   1175500   0.069283545   -0.22244846     0             -0.16531233     0.20968689   
   1176000   0.071882258   -0.21642233     0             -0.15714311     0.1523158    
   1176500   0.067614807   -0.22430879     0             -0.16854882    -0.13246454   
   1177000   0.06872218    -0.2141133      0             -0.15744011    -0.059759521  
   1177500   0.068611796   -0.21997752     0             -0.16339536     0.0099568656 
   1178000   0.066541065   -0.21811702     0             -0.16324253    -0.047420846  
   1178500   0.064436235   -0.21403323     0             -0.16089453     0.16678035   
   1179000   0.075677621   -0.21869851     0             -0.15628937    -0.23861531   
   1179500   0.070973971   -0.217976       0             -0.15944582     0.38373039   
   1180000   0.071328418   -0.21346727     0             -0.15464478     0.29478698   
   1180500   0.080176837   -0.20601362     0             -0.1398941      0.16831469   
   1181000   0.073175258   -0.21220482     0             -0.1518593      0.24985818   
   1181500   0.071995226   -0.21554092     0             -0.15616854     0.093524798  
   1182000   0.06529236    -0.21089593     0             -0.15705121     0.15739872   
   1182500   0.06394358    -0.21110669     0             -0.15837427     0.42585403   
   1183000   0.059791027   -0.22025481     0             -0.17094688    -0.31373288   
   1183500   0.059018526   -0.21731369     0             -0.16864282    -0.15031334   
   1184000   0.057143119   -0.21912036     0             -0.17199609    -0.12694557   
   1184500   0.064495461   -0.21817319     0             -0.16498565     0.23121987   
   1185000   0.060803804   -0.2223876      0             -0.17224446    -0.79106795   
   1185500   0.061633839   -0.21705171     0             -0.16622407    -0.343969     
   1186000   0.060063457   -0.21508337     0             -0.16555078     0.51015377   
   1186500   0.066258539   -0.2149717      0             -0.16033021     0.071084248  
   1187000   0.060778832   -0.21862999     0             -0.16850744     0.24892074   
   1187500   0.068453458   -0.22027502     0             -0.16382343     0.17225364   
   1188000   0.07512344    -0.21733469     0             -0.15538257     0.20772741   
   1188500   0.066972241   -0.21814929     0             -0.16291922    -0.19358929   
   1189000   0.064669871   -0.21692781     0             -0.16359644    -0.68756054   
   1189500   0.069006636   -0.21671736     0             -0.15980958     0.94667628   
   1190000   0.070283954   -0.21320166     0             -0.15524051    -0.0034932718 
   1190500   0.065259634   -0.21578654     0             -0.16196881     0.14684587   
   1191000   0.067243296   -0.216227       0             -0.1607734      0.15562094   
   1191500   0.065785141   -0.21771754     0             -0.16346644    -0.1546781    
   1192000   0.067677173   -0.22104726     0             -0.16523585     0.0062238402 
   1192500   0.067613428   -0.21687611     0             -0.16111727     0.174407     
   1193000   0.067388802   -0.21831138     0             -0.16273779    -0.1670855    
   1193500   0.06827297    -0.21260296     0             -0.15630022    -0.17006559   
   1194000   0.066487389   -0.21792464     0             -0.16309441    -0.092368768  
   1194500   0.070669538   -0.2184579      0             -0.16017877     0.3692293    
   1195000   0.071284932   -0.21904234     0             -0.16025572    -0.043946974  
   1195500   0.075794258   -0.21993849     0             -0.15743316    -0.493111     
   1196000   0.073229174   -0.21904841     0             -0.15865843    -0.074677757  
   1196500   0.077449274   -0.21168376     0             -0.14781359    -0.055177065  
   1197000   0.073262996   -0.21740323     0             -0.15698536     0.49336885   
   1197500   0.070808349   -0.22095143     0             -0.16255783    -0.084072618  
   1198000   0.07144798    -0.2167275      0             -0.15780642    -0.25264436   
   1198500   0.070091774   -0.22255865     0             -0.164756      -0.34007828   
   1199000   0.070534892   -0.22425141     0             -0.16608332    -0.46338388   
   1199500   0.06945857    -0.22560246     0             -0.16832199     0.0061104143 
   1200000   0.068488966   -0.22355268     0             -0.16707182    -0.17414254   
   1200500   0.070028107   -0.22449098     0             -0.16674083    -0.2280534    
   1201000   0.067453469   -0.22161186     0             -0.16598494    -0.17941896   
   1201500   0.069926066   -0.22341295     0             -0.16574695     0.16718553   
   1202000   0.067331917   -0.22307446     0             -0.16754777     0.48406814   
   1202500   0.065229484   -0.22963994     0             -0.17584707    -0.01537519   
   1203000   0.065931184   -0.22649631     0             -0.17212477    -0.072867638  
   1203500   0.062325863   -0.22918064     0             -0.1777823     -0.17343695   
   1204000   0.064753561   -0.22733995     0             -0.17393956     0.46748865   
   1204500   0.058578549   -0.23074769     0             -0.18243966     0.35879984   
   1205000   0.062277285   -0.22910074     0             -0.17774246     0.039087398  
   1205500   0.060706996   -0.22936266     0             -0.17929936    -0.41738998   
   1206000   0.060687555   -0.22448894     0             -0.17444167    -0.22555293   
   1206500   0.05951057    -0.22689922     0             -0.17782258    -0.02848919   
   1207000   0.058265638   -0.2289328      0             -0.18088282     0.28991517   
   1207500   0.060021209   -0.22817009     0             -0.17867234    -0.19296545   
   1208000   0.063187259   -0.22977615     0             -0.17766744    -0.30506042   
   1208500   0.070207705   -0.22440003     0             -0.16650177     0.49092081   
   1209000   0.068624235   -0.22511838     0             -0.16852596    -0.11187919   
   1209500   0.070937969   -0.22704336     0             -0.16854287     0.082289082  
   1210000   0.06628073    -0.22459523     0             -0.16993543    -0.052295011  
   1210500   0.077640796   -0.2229904      0             -0.15896228     0.088867315  
   1211000   0.066322936   -0.22596259     0             -0.17126798    -0.37105066   
   1211500   0.070500466   -0.22713863     0             -0.16899894    -0.28912636   
   1212000   0.066047833   -0.22777378     0             -0.17330604     0.52499225   
   1212500   0.074171342   -0.22876911     0             -0.16760215    -0.11240655   
   1213000   0.065858892   -0.22597339     0             -0.17166147     0.08637619   
   1213500   0.063369922   -0.22700002     0             -0.17474068    -0.45240282   
   1214000   0.067684129   -0.22709876     0             -0.17128162    -0.13769905   
   1214500   0.069869233   -0.22349543     0             -0.16587629     0.18190339   
   1215000   0.074593752   -0.22593184     0             -0.16441653     0.6259283    
   1215500   0.071135953   -0.22062964     0             -0.16196588     0.21221108   
   1216000   0.065334402   -0.22295858     0             -0.16907919     0.1227625    
   1216500   0.06947837    -0.2232225      0             -0.1659257     -0.1968839    
   1217000   0.070429571   -0.2237209      0             -0.16563967    -0.083760203  
   1217500   0.063381461   -0.22108586     0             -0.16881701    -0.18087492   
   1218000   0.063834365   -0.23044668     0             -0.17780433    -0.16310558   
   1218500   0.062227183   -0.22022252     0             -0.16890557     0.29859553   
   1219000   0.067922729   -0.22286035     0             -0.16684644    -0.17569986   
   1219500   0.069063739   -0.22380024     0             -0.16684537     0.4337351    
   1220000   0.061139264   -0.22606806     0             -0.17564828    -0.049900994  
   1220500   0.06234978    -0.22451557     0             -0.17309751    -0.081081944  
   1221000   0.063678003   -0.22819344     0             -0.17568003    -0.089855237  
   1221500   0.061568225   -0.23069733     0             -0.1799238     -0.059759371  
   1222000   0.058926819   -0.22702937     0             -0.17843412     0.27054964   
   1222500   0.069557316   -0.22743846     0             -0.17007655     0.34672241   
   1223000   0.075583435   -0.22604993     0             -0.16371846     0.20869757   
   1223500   0.064347438   -0.22445331     0             -0.17138784    -0.27223081   
   1224000   0.065788241   -0.22888339     0             -0.17462973    -0.61348176   
   1224500   0.066175276   -0.22680335     0             -0.17223051     0.48523875   
   1225000   0.064797991   -0.22917259     0             -0.17573556    -0.14894961   
   1225500   0.061134115   -0.22795075     0             -0.17753522    -0.14852206   
   1226000   0.064122346   -0.23007789     0             -0.17719804    -0.39338187   
   1226500   0.060871813   -0.22601964     0             -0.17582042     0.14898716   
   1227000   0.05849378    -0.2321194      0             -0.18388127     0.35136409   
   1227500   0.073426266   -0.22833724     0             -0.16778472    -0.068945826  
   1228000   0.070029631   -0.23060352     0             -0.17285211    -0.16715513   
   1228500   0.069909559   -0.22536529     0             -0.1677129     -0.39122001   
   1229000   0.066620138   -0.22797892     0             -0.17303922     0.081673006  
   1229500   0.0648665     -0.2292415      0             -0.17574797    -0.028066796  
   1230000   0.062025517   -0.2278841      0             -0.17673345     0.27200533   
   1230500   0.069501023   -0.22749939     0             -0.1701839     -0.49313234   
   1231000   0.068804449   -0.22999203     0             -0.17325099    -0.16946035   
   1231500   0.065842988   -0.2334264      0             -0.17912759    -0.22655655   
   1232000   0.061409532   -0.23003453     0             -0.17939186     0.33686393   
   1232500   0.070051634   -0.23272309     0             -0.17495353     0.124266     
   1233000   0.069399998   -0.23351226     0             -0.17628009    -0.12182652   
   1233500   0.071709063   -0.22942172     0             -0.17028533     0.024020196  
   1234000   0.065696501   -0.23049252     0             -0.17631451    -0.12020068   
   1234500   0.066862865   -0.2303245      0             -0.17518463     0.089900786  
   1235000   0.067609308   -0.22555968     0             -0.16980424    -0.54370019   
   1235500   0.070449581   -0.22231638     0             -0.16421865     0.010612374  
   1236000   0.073251176   -0.21853338     0             -0.15812526    -0.047809467  
   1236500   0.074698203   -0.22236837     0             -0.16076693     0.57684659   
   1237000   0.069473474   -0.22086111     0             -0.16356835    -0.22391134   
   1237500   0.063031196   -0.21644169     0             -0.16446168    -0.20868131   
   1238000   0.071881212   -0.22109506     0             -0.16181671     0.66843528   
   1238500   0.077693352   -0.23002942     0             -0.16595796    -0.045467937  
   1239000   0.076510705   -0.22470626     0             -0.1616101      0.44549209   
   1239500   0.064167706   -0.22977202     0             -0.17685478    -0.043341232  
   1240000   0.069487901   -0.22776569     0             -0.17046103     0.2541064    
   1240500   0.075816133   -0.22932774     0             -0.16680437     0.075689899  
   1241000   0.072979391   -0.23007527     0             -0.16989128     0.05484332   
   1241500   0.068313772   -0.22647023     0             -0.17013384     0.075779927  
   1242000   0.061689564   -0.2236912      0             -0.1728176      0.23849743   
   1242500   0.067266458   -0.22754162     0             -0.17206892    -0.30622696   
   1243000   0.068603938   -0.22751608     0             -0.1709404      0.14815892   
   1243500   0.062819284   -0.22987562     0             -0.17807038    -0.8874548    
   1244000   0.072683375   -0.22600055     0             -0.16606068    -0.045503648  
   1244500   0.066686173   -0.22829457     0             -0.17330042    -0.056723208  
   1245000   0.071645763   -0.22579115     0             -0.16670696     0.18150383   
   1245500   0.065934142   -0.23121078     0             -0.1768368     -0.25985533   
   1246000   0.061785471   -0.23410764     0             -0.18315495     0.047348598  
   1246500   0.068976502   -0.23139165     0             -0.17450872    -0.084248568  
   1247000   0.067412616   -0.23215443     0             -0.17656119     0.4563294    
   1247500   0.075487421   -0.23254915     0             -0.17029686     0.48406688   
   1248000   0.06959367    -0.22664806     0             -0.16925617    -0.16937582   
   1248500   0.072288616   -0.23188393     0             -0.1722696     -0.21335696   
   1249000   0.072980314   -0.23064475     0             -0.17046       -0.020996908  
   1249500   0.07245821    -0.2257523      0             -0.16599811    -0.01824851   
   1250000   0.069852341   -0.22421596     0             -0.16661076     0.13114411   
   1250500   0.062778807   -0.22568764     0             -0.17391577     0.068401194  
   1251000   0.066930518   -0.22936582     0             -0.17417016    -0.41699187   
   1251500   0.060128177   -0.23187747     0             -0.1822915     -0.084874628  
   1252000   0.060779655   -0.22991164     0             -0.17978842    -0.58048003   
   1252500   0.065990019   -0.23204591     0             -0.17762585    -0.0088365887 
   1253000   0.06278043    -0.22779676     0             -0.17602356    -0.21598514   
   1253500   0.05844457    -0.23587459     0             -0.18767704     0.56329166   
   1254000   0.055517668   -0.23569533     0             -0.18991151    -0.071386139  
   1254500   0.05613638    -0.24055057     0             -0.19425652     0.17487048   
   1255000   0.065485445   -0.23546955     0             -0.1814656      0.038479587  
   1255500   0.068187432   -0.23773533     0             -0.18150313    -0.18071526   
   1256000   0.066762468   -0.23355265     0             -0.17849558     0.25495644   
   1256500   0.067120682   -0.23520896     0             -0.17985648    -0.099158557  
   1257000   0.069379876   -0.23466751     0             -0.17745194    -0.0042103393 
   1257500   0.061280532   -0.23648562     0             -0.18594934    -0.22715903   
   1258000   0.06325689    -0.2433301      0             -0.19116397     0.14171138   
   1258500   0.061754963   -0.2450374      0             -0.19410987     0.81331292   
   1259000   0.067887535   -0.24732109     0             -0.19133621    -0.13460341   
   1259500   0.063391455   -0.24165926     0             -0.18938216     0.19498283   
   1260000   0.065025161   -0.24534654     0             -0.19172217    -0.48908891   
   1260500   0.073506203   -0.23595366     0             -0.17533523    -0.010687793  
   1261000   0.074847504   -0.23273562     0             -0.17101105     0.48426607   
   1261500   0.070897926   -0.23770128     0             -0.17923382    -0.33288963   
   1262000   0.069293912   -0.23444203     0             -0.17729735    -0.10566264   
   1262500   0.070686455   -0.23787817     0             -0.1795851      0.35272183   
   1263000   0.070338029   -0.23378084     0             -0.17577511    -0.28956214   
   1263500   0.063773899   -0.23275479     0             -0.1801623     -0.15572756   
   1264000   0.068662808   -0.23432028     0             -0.17769605    -0.69217797   
   1264500   0.064709868   -0.23212978     0             -0.17876542     0.13398054   
   1265000   0.059656444   -0.23267208     0             -0.18347514    -0.094943408  
   1265500   0.065052464   -0.23573029     0             -0.18208341     0.2116925    
   1266000   0.057815965   -0.23397941     0             -0.18630026     0.23829601   
   1266500   0.060502408   -0.23483798     0             -0.18494339     0.25245532   
   1267000   0.064778858   -0.23387399     0             -0.18045274     0.29544638   
   1267500   0.066222188   -0.23386086     0             -0.17924933     0.20779831   
   1268000   0.072453423   -0.22856514     0             -0.1688149     -0.24994308   
   1268500   0.069643139   -0.23527333     0             -0.17784064    -0.20137455   
   1269000   0.065024103   -0.2346888      0             -0.1810653     -0.36276531   
   1269500   0.070184382   -0.23017366     0             -0.17229463    -0.22215478   
   1270000   0.071338062   -0.23211452     0             -0.17328408    -0.36297207   
   1270500   0.076263678   -0.22587544     0             -0.16298299     0.042066845  
   1271000   0.072899527   -0.22894573     0             -0.1688276      0.52600593   
   1271500   0.072587506   -0.23291618     0             -0.17305536     0.28100413   
   1272000   0.085166999   -0.22815419     0             -0.15791943     0.29927206   
   1272500   0.073887142   -0.23021769     0             -0.1692851      0.050517265  
   1273000   0.070467077   -0.22381308     0             -0.16570092     0.14193347   
   1273500   0.073628178   -0.22793539     0             -0.16721636     0.12555171   
   1274000   0.064659286   -0.22520001     0             -0.17187737    -0.018713306  
   1274500   0.071269705   -0.23319486     0             -0.1744208      0.10359106   
   1275000   0.079411669   -0.23053186     0             -0.16504335    -0.33384424   
   1275500   0.07584547    -0.23602726     0             -0.17347969    -0.26180221   
   1276000   0.069340564   -0.23333132     0             -0.17614817    -0.28321532   
   1276500   0.062331834   -0.2338444      0             -0.18244114     0.30140231   
   1277000   0.070193758   -0.23631753     0             -0.17843077     0.67208383   
   1277500   0.072404781   -0.23390044     0             -0.17419031    -0.16969531   
   1278000   0.067476551   -0.23320047     0             -0.17755451    -0.040971968  
   1278500   0.067532277   -0.23441204     0             -0.17872013     0.11110391   
   1279000   0.068426759   -0.23516241     0             -0.17873284    -0.40678037   
   1279500   0.059717105   -0.23540549     0             -0.18615852     0.022207325  
   1280000   0.059217374   -0.2367668      0             -0.18793194     0.43088055   
   1280500   0.064117063   -0.24252309     0             -0.18964761    -0.28171974   
   1281000   0.062939715   -0.237665       0             -0.18576044    -0.54212906   
   1281500   0.060823652   -0.23729005     0             -0.18713054    -0.0093592212 
   1282000   0.069868952   -0.23649465     0             -0.17887575     0.36608277   
   1282500   0.075116351   -0.23178928     0             -0.16984299    -0.071273793  
   1283000   0.066486522   -0.23258116     0             -0.17775165    -0.087693905  
   1283500   0.072105585   -0.23410282     0             -0.17463943     0.29119392   
   1284000   0.072761709   -0.23412686     0             -0.17412238    -0.059596871  
   1284500   0.075971499   -0.23393551     0             -0.17128402     0.3232128    
   1285000   0.071886856   -0.23404689     0             -0.17476388     0.24605121   
   1285500   0.069703643   -0.2332344      0             -0.17575182     0.23141658   
   1286000   0.067215384   -0.22901338     0             -0.1735828      0.73171957   
   1286500   0.07062241    -0.23153893     0             -0.17329868    -0.56530136   
   1287000   0.072395786   -0.22979456     0             -0.17009185    -0.33708679   
   1287500   0.068303831   -0.22743402     0             -0.17110583     0.10147019   
   1288000   0.074259168   -0.22681495     0             -0.16557557    -0.13385281   
   1288500   0.065862631   -0.23064405     0             -0.17632904     0.13265738   
   1289000   0.081108849   -0.22150536     0             -0.15461724    -0.12447939   
   1289500   0.074267992   -0.22161283     0             -0.16036616    -0.16485139   
   1290000   0.077223459   -0.21813866     0             -0.15445471    -0.18990652   
   1290500   0.070107284   -0.2179206      0             -0.16010515     0.089631973  
   1291000   0.071871323   -0.21847197     0             -0.15920177     0.18199239   
   1291500   0.059458524   -0.22208404     0             -0.17305031     0.25153201   
   1292000   0.066502373   -0.22459133     0             -0.16974875     0.24823451   
   1292500   0.068898886   -0.22664226     0             -0.16982334     0.80982824   
   1293000   0.075090908   -0.22806053     0             -0.16613524     0.78883182   
   1293500   0.071559843   -0.22590025     0             -0.16688692    -0.12284173   
   1294000   0.068540818   -0.22361643     0             -0.1670928      0.21716278   
   1294500   0.059620467   -0.22761344     0             -0.17844617     0.2088761    
   1295000   0.065953743   -0.22402092     0             -0.16963077    -0.30469592   
   1295500   0.061924612   -0.23111638     0             -0.18004895    -0.013902347  
   1296000   0.062776749   -0.2313623      0             -0.17959213    -0.36978237   
   1296500   0.059191315   -0.23146416     0             -0.18265079     0.28524866   
   1297000   0.055142483   -0.23356585     0             -0.18809144     0.58585527   
   1297500   0.060934244   -0.24045385     0             -0.19020314    -0.1221248    
   1298000   0.066872194   -0.23463094     0             -0.17948338    -0.024499416  
   1298500   0.065418691   -0.24040702     0             -0.18645812    -0.078080231  
   1299000   0.069284996   -0.23779943     0             -0.1806621      0.45433142   
   1299500   0.077390119   -0.23691745     0             -0.17309606    -0.33048884   
   1300000   0.07435629    -0.23160646     0             -0.17028698    -0.024827653  
   1300500   0.071284144   -0.22808852     0             -0.16930255     0.30736332   
   1301000   0.078286459   -0.22402816     0             -0.15946758     0.62901237   
   1301500   0.073244907   -0.2289849      0             -0.16858195    -0.089635786  
   1302000   0.071595414   -0.23403786     0             -0.17499519    -0.4897383    
   1302500   0.067686267   -0.23883378     0             -0.18301488     0.062128742  
   1303000   0.066912154   -0.23899156     0             -0.18381105    -0.35450178   
   1303500   0.07214983    -0.2331849      0             -0.17368502    -0.41041269   
   1304000   0.068480704   -0.23355569     0             -0.17708163     0.37716531   
   1304500   0.073003403   -0.23721165     0             -0.17700786    -1.0205931    
   1305000   0.066285674   -0.23445211     0             -0.17978823     0.19932037   
   1305500   0.064416099   -0.23598051     0             -0.18285841     0.24720733   
   1306000   0.070557237   -0.23336131     0             -0.1751748     -0.38542862   
   1306500   0.072537817   -0.23283298     0             -0.17301314     0.11072788   
   1307000   0.062934905   -0.23251631     0             -0.18061571    -0.45161193   
   1307500   0.066593689   -0.23062472     0             -0.17570683     0.12754293   
   1308000   0.066590074   -0.22932392     0             -0.17440902    -0.45858139   
   1308500   0.066536244   -0.2311741      0             -0.17630359     0.18620437   
   1309000   0.069087368   -0.2368116      0             -0.17983725     0.10490182   
   1309500   0.070728114   -0.22903088     0             -0.17070346     0.052665667  
   1310000   0.061963221   -0.23205392     0             -0.18095465     0.16416663   
   1310500   0.071607685   -0.23694589     0             -0.1778931     -0.078332066  
   1311000   0.064897609   -0.24017834     0             -0.18665916     0.087159437  
   1311500   0.068238212   -0.23301605     0             -0.17674197     0.21526179   
   1312000   0.06591626    -0.23260013     0             -0.17824089    -0.0075447256 
   1312500   0.065461819   -0.23266606     0             -0.17868159     0.037334552  
   1313000   0.064969803   -0.23244527     0             -0.17886656     0.31963838   
   1313500   0.070204756   -0.23157887     0             -0.17368304     0.065983937  
   1314000   0.073349447   -0.23184282     0             -0.17135365     0.15478759   
   1314500   0.064842999   -0.23054055     0             -0.17706641    -0.16311552   
   1315000   0.065740425   -0.23154075     0             -0.17732653     0.01594408   
   1315500   0.064346924   -0.23069434     0             -0.1776293     -0.40092516   
   1316000   0.072394811   -0.22838682     0             -0.16868491     0.34887314   
   1316500   0.069478468   -0.22885142     0             -0.17155454     0.24351559   
   1317000   0.065061574   -0.23043905     0             -0.17678465     0.010254206  
   1317500   0.065782209   -0.22971375     0             -0.17546507    -0.052167735  
   1318000   0.072785902   -0.22526458     0             -0.16524015    -0.2559071    
   1318500   0.069556674   -0.22383044     0             -0.16646907    -0.14976892   
   1319000   0.060804033   -0.22744232     0             -0.17729899     0.14763939   
   1319500   0.062727808   -0.22035458     0             -0.16862477     0.47162103   
   1320000   0.057580445   -0.2225112      0             -0.17502628     0.55742055   
   1320500   0.060083921   -0.22340109     0             -0.17385162     0.2762816    
   1321000   0.062305849   -0.22460423     0             -0.1732224     -0.37631957   
   1321500   0.064116054   -0.22402106     0             -0.1711464      0.16626143   
   1322000   0.067620815   -0.22100067     0             -0.16523574    -0.068326433  
   1322500   0.062449036   -0.22463853     0             -0.17313862     0.16861064   
   1323000   0.062127918   -0.22495732     0             -0.17372223    -0.030907296  
   1323500   0.062093127   -0.22466239     0             -0.17345599     0.033069234  
   1324000   0.061784146   -0.22601331     0             -0.17506172     0.046874046  
   1324500   0.071691017   -0.22807806     0             -0.16895655    -0.012043528  
   1325000   0.080364484   -0.22294299     0             -0.15666872     0.49112367   
   1325500   0.074416363   -0.22204208     0             -0.16067305    -0.16504966   
   1326000   0.069477894   -0.22434566     0             -0.16704925     0.14065924   
   1326500   0.068045277   -0.22881086     0             -0.17269589    -0.1350354    
   1327000   0.072022404   -0.22748024     0             -0.16808545    -0.075276755  
   1327500   0.089198464   -0.22442511     0             -0.15086572     0.17708684   
   1328000   0.072955284   -0.22114008     0             -0.16097597     0.096842087  
   1328500   0.073040811   -0.21949637     0             -0.15926172    -0.058894273  
   1329000   0.065757296   -0.22080233     0             -0.1665742      0.18797833   
   1329500   0.062772972   -0.2205841      0             -0.16881705    -0.21170896   
   1330000   0.070268588   -0.22170115     0             -0.16375268     0.4092937    
   1330500   0.066378254   -0.21780997     0             -0.16306975     0.1033203    
   1331000   0.066059394   -0.22060523     0             -0.16612796     0.5933487    
   1331500   0.065148309   -0.22292944     0             -0.16920351    -0.16352202   
   1332000   0.064541353   -0.22030884     0             -0.16708346    -0.0082918605 
   1332500   0.062067279   -0.22653154     0             -0.17534645    -0.042735074  
   1333000   0.073059117   -0.22356423     0             -0.16331449     0.39079524   
   1333500   0.065842209   -0.22801477     0             -0.17371661    -0.055012991  
   1334000   0.070431713   -0.22436191     0             -0.16627892     0.092431533  
   1334500   0.058895744   -0.23287291     0             -0.1843033     -0.0067230505 
   1335000   0.059589555   -0.23251292     0             -0.18337113     0.27318706   
   1335500   0.06052511    -0.23230403     0             -0.18239073    -0.29831412   
   1336000   0.071270737   -0.23166226     0             -0.17288735    -0.1805173    
   1336500   0.061966065   -0.23291226     0             -0.18181064    -0.26266908   
   1337000   0.064519398   -0.23387411     0             -0.18066684    -0.021221535  
   1337500   0.06826121    -0.22848216     0             -0.17218912    -0.15082581   
   1338000   0.068388073   -0.22537799     0             -0.16898033    -0.13121179   
   1338500   0.061615645   -0.22922801     0             -0.17841537     0.38636594   
   1339000   0.06277223    -0.22632702     0             -0.17456058    -0.129998     
   1339500   0.066023574   -0.23099743     0             -0.1765497     -0.18875266   
   1340000   0.066179091   -0.23438235     0             -0.17980637    -0.095372186  
   1340500   0.073053258   -0.23488694     0             -0.17464203    -0.15648306   
   1341000   0.070576997   -0.2309868      0             -0.17278399    -0.22726466   
   1341500   0.073691796   -0.23010905     0             -0.16933756    -0.06893548   
   1342000   0.069572193   -0.23084026     0             -0.17346609     0.014467098  
   1342500   0.073698508   -0.23209709     0             -0.17132006     0.33830106   
   1343000   0.071435019   -0.23475181     0             -0.17584142     0.45821186   
   1343500   0.073228966   -0.23909164     0             -0.17870183    -0.045137912  
   1344000   0.077132741   -0.23386299     0             -0.17025385     0.38143713   
   1344500   0.074900087   -0.23570987     0             -0.17394193    -0.049698821  
   1345000   0.078712451   -0.22940843     0             -0.16449655     0.13652388   
   1345500   0.074404151   -0.23477147     0             -0.17341252     0.082028238  
   1346000   0.066289405   -0.23369432     0             -0.17902737     0.29288376   
   1346500   0.062294475   -0.23567629     0             -0.18430384     0.16811567   
   1347000   0.067257619   -0.23693629     0             -0.18147088    -0.23068712   
   1347500   0.066005163   -0.23314041     0             -0.17870786     0.47651569   
   1348000   0.066807438   -0.22863242     0             -0.17353826     0.028244636  
   1348500   0.069522886   -0.23587176     0             -0.17853825     0.24525939   
   1349000   0.076548222   -0.23440762     0             -0.17128052    -0.235637     
   1349500   0.072872849   -0.23550512     0             -0.17540899     0.031417875  
   1350000   0.069695071   -0.23212436     0             -0.17464885    -0.31987518   
   1350500   0.065601414   -0.23186278     0             -0.1777632     -0.40014259   
   1351000   0.072937745   -0.23274808     0             -0.17259843     0.43528414   
   1351500   0.066830654   -0.23562606     0             -0.18051275    -0.092165258  
   1352000   0.067254486   -0.24089806     0             -0.18543523     0.018419533  
   1352500   0.067230587   -0.23188075     0             -0.17643763     0.044424465  
   1353000   0.063966845   -0.23489558     0             -0.18214397    -0.10934098   
   1353500   0.06881749    -0.23123225     0             -0.17448046    -0.20798969   
   1354000   0.076261052   -0.22996605     0             -0.16707577     0.092290857  
   1354500   0.079793465   -0.22719232     0             -0.16138896     0.58420825   
   1355000   0.065718502   -0.23030308     0             -0.17610693    -0.42067227   
   1355500   0.076050786   -0.22488988     0             -0.162173      -0.43197329   
   1356000   0.070136982   -0.23067132     0             -0.17283138     0.44195075   
   1356500   0.062110873   -0.22735476     0             -0.17613372     0.062092537  
   1357000   0.058091217   -0.22642363     0             -0.17851748    -0.10079045   
   1357500   0.059017182   -0.23007629     0             -0.18140653     0.12752719   
   1358000   0.069775367   -0.22893498     0             -0.17139326    -0.30454283   
   1358500   0.066166401   -0.22764999     0             -0.17308448    -0.24618766   
   1359000   0.068888863   -0.22563604     0             -0.16882539     0.20541463   
   1359500   0.07696748    -0.22103303     0             -0.15756017     0.014616659  
   1360000   0.066386751   -0.22470358     0             -0.16995635    -0.1919486    
   1360500   0.061957842   -0.22518928     0             -0.17409444     0.15739841   
   1361000   0.058575118   -0.22765209     0             -0.17934689     0.25483951   
   1361500   0.066628002   -0.22788541     0             -0.17293923    -0.14856172   
   1362000   0.060930658   -0.23208545     0             -0.1818377     -0.082690488  
   1362500   0.073691631   -0.23090716     0             -0.17013581     0.013583416  
   1363000   0.06865011    -0.23221977     0             -0.17560601     0.03539231   
   1363500   0.065145569   -0.23148075     0             -0.17775708    -0.22394956   
   1364000   0.06515704    -0.23249076     0             -0.17875764     0.041576113  
   1364500   0.069321337   -0.2329817      0             -0.1758144      0.21509511   
   1365000   0.062516153   -0.23707361     0             -0.18551835    -0.16750584   
   1365500   0.066379178   -0.24051565     0             -0.18577466    -0.0068687067 
   1366000   0.063550191   -0.2434772      0             -0.19106919     0.058208268  
   1366500   0.067936086   -0.2352168      0             -0.17919188    -0.022772771  
   1367000   0.062288718   -0.23581305     0             -0.18444535     0.82984826   
   1367500   0.057696042   -0.24274077     0             -0.19516051     0.27613251   
   1368000   0.061086375   -0.2382575      0             -0.18788133    -0.099608004  
   1368500   0.06253832    -0.2400994      0             -0.18852586    -0.15623263   
   1369000   0.058351855   -0.24350343     0             -0.19538234    -0.2421408    
   1369500   0.063933006   -0.24462435     0             -0.19190065     0.075745463  
   1370000   0.077759601   -0.23853802     0             -0.17441193     0.23277911   
   1370500   0.067048869   -0.24020065     0             -0.18490739    -0.088509415  
   1371000   0.073238982   -0.23564754     0             -0.17524947     0.11016044   
   1371500   0.062720142   -0.2361992      0             -0.18447571    -0.24841781   
   1372000   0.058642162   -0.23708481     0             -0.18872431    -0.1337481    
   1372500   0.066577857   -0.23282748     0             -0.17792265     0.059861786  
   1373000   0.065116796   -0.23239625     0             -0.17869632    -0.13513963   
   1373500   0.06203749    -0.23357803     0             -0.18241751    -0.064458754  
   1374000   0.067911677   -0.23741648     0             -0.18141168    -0.4231853    
   1374500   0.063557775   -0.23471329     0             -0.18229903     0.11113169   
   1375000   0.061659644   -0.23799729     0             -0.18714837     0.24862723   
   1375500   0.062731468   -0.24038507     0             -0.18865224     0.0053584508 
   1376000   0.062803885   -0.23995633     0             -0.18816378    -0.0019218616 
   1376500   0.061700405   -0.24026714     0             -0.1893846      0.02649403   
   1377000   0.058420981   -0.24799017     0             -0.19981207     0.16719325   
   1377500   0.061507803   -0.24544771     0             -0.19472401    -0.018100624  
   1378000   0.062061046   -0.24278335     0             -0.1916034     -0.28686804   
   1378500   0.066799369   -0.23876722     0             -0.18367971    -0.12473008   
   1379000   0.064266354   -0.23895013     0             -0.18595153     0.0088816858 
   1379500   0.076059065   -0.23911737     0             -0.17639366     0.14295932   
   1380000   0.073038158   -0.2405044      0             -0.18027194    -0.031060782  
   1380500   0.065653651   -0.24404484     0             -0.18990217    -0.31008748   
   1381000   0.064001711   -0.2424354      0             -0.18965504     0.183702     
   1381500   0.068038863   -0.24270581     0             -0.18659613     0.25840798   
   1382000   0.078659189   -0.23788996     0             -0.173022       0.070357182  
   1382500   0.07067561    -0.240727       0             -0.18244287    -0.24862675   
   1383000   0.073025708   -0.23657004     0             -0.17634785    -0.032113514  
   1383500   0.069178877   -0.23859604     0             -0.18154622     0.19344379   
   1384000   0.065127148   -0.23841996     0             -0.18471149     0.51559744   
   1384500   0.063878493   -0.23956794     0             -0.1868892     -0.15678385   
   1385000   0.069408013   -0.23931151     0             -0.18207273    -0.15522458   
   1385500   0.074848662   -0.23611327     0             -0.17438775    -0.032786516  
   1386000   0.072829658   -0.2386027      0             -0.17854219    -0.10162838   
   1386500   0.074218444   -0.23664936     0             -0.17544356    -0.055446274  
   1387000   0.078748194   -0.23751111     0             -0.17256976    -0.017813035  
   1387500   0.074067165   -0.23737778     0             -0.17629673    -0.16444792   
   1388000   0.062207161   -0.24140344     0             -0.190103      -0.30585211   
   1388500   0.065178471   -0.23612552     0             -0.18237472    -0.10208536   
   1389000   0.072172481   -0.23460532     0             -0.17508676     0.11167563   
   1389500   0.069385586   -0.23557603     0             -0.17835575     0.62078404   
   1390000   0.08650695    -0.2284699      0             -0.15713012     0.15891894   
   1390500   0.073568996   -0.23244423     0             -0.17177401     0.1870726    
   1391000   0.071260055   -0.23168866     0             -0.17292256     0.060541477  
   1391500   0.065096102   -0.2345858      0             -0.18090292    -0.11252177   
   1392000   0.063181244   -0.23309915     0             -0.1809954      0.46631319   
   1392500   0.069144008   -0.23112739     0             -0.17410633    -0.13702955   
   1393000   0.071678518   -0.23045896     0             -0.17134776    -0.10961937   
   1393500   0.068764397   -0.23515373     0             -0.17844572     0.06569127   
   1394000   0.07350363    -0.2315557      0             -0.17093938    -0.0074418629 
   1394500   0.069126414   -0.22896213     0             -0.17195558     0.175001     
   1395000   0.0621615     -0.23138565     0             -0.18012286     0.17181082   
   1395500   0.069843106   -0.23088605     0             -0.17328847    -0.17861587   
   1396000   0.06307363    -0.23431072     0             -0.18229572     0.50331133   
   1396500   0.067902529   -0.23284762     0             -0.17685037     0.043698957  
   1397000   0.061869239   -0.23334809     0             -0.18232632    -0.19151424   
   1397500   0.059140796   -0.23381297     0             -0.18504126     0.058225141  
   1398000   0.06299797    -0.23540346     0             -0.18345086    -0.48802582   
   1398500   0.065269571   -0.23545925     0             -0.18163332    -0.57481808   
   1399000   0.072668608   -0.22851557     0             -0.16858788    -0.2819212    
   1399500   0.063401645   -0.23477411     0             -0.18248861     0.45172188   
   1400000   0.05363695    -0.23782221     0             -0.19358937    -0.096115144  
   1400500   0.062933303   -0.23775436     0             -0.18585509     0.09533202   
   1401000   0.065766212   -0.23370738     0             -0.17947189     0.02295128   
   1401500   0.059498916   -0.23721617     0             -0.18814914    -0.4672347    
   1402000   0.060695688   -0.23660414     0             -0.18655016     0.035449255  
   1402500   0.066293578   -0.23072482     0             -0.17605443    -0.32011737   
   1403000   0.065009668   -0.22870432     0             -0.17509272    -0.21666509   
   1403500   0.064744095   -0.23698094     0             -0.18358836    -0.15932041   
   1404000   0.067466926   -0.2365356      0             -0.18089758    -0.35333741   
   1404500   0.058658593   -0.23115256     0             -0.18277852     0.12148521   
   1405000   0.061448746   -0.23208939     0             -0.18141439    -0.1023344    
   1405500   0.062401607   -0.23039703     0             -0.17893623     0.031456165  
   1406000   0.059660467   -0.23463832     0             -0.18543806    -0.035302663  
   1406500   0.05712144    -0.23011825     0             -0.18301185    -0.078026995  
   1407000   0.067164227   -0.23281122     0             -0.17742282    -0.42128456   
   1407500   0.069886901   -0.23064014     0             -0.17300644     0.54398969   
   1408000   0.078717716   -0.23176731     0             -0.16685109    -0.10964188   
   1408500   0.070061821   -0.22809198     0             -0.17031402     0.095734723  
   1409000   0.065783593   -0.22889463     0             -0.17464481     0.34926933   
   1409500   0.070544704   -0.22486209     0             -0.16668592     0.50860702   
   1410000   0.072730668   -0.22858233     0             -0.16860345    -0.44912355   
   1410500   0.067086027   -0.22874828     0             -0.17342438     0.072361516  
   1411000   0.063326026   -0.23010816     0             -0.17788502     0.031182446  
   1411500   0.069236089   -0.23283054     0             -0.17573355     0.32394634   
   1412000   0.070041584   -0.23120041     0             -0.17343914    -0.33153233   
   1412500   0.067911727   -0.23145189     0             -0.17544705     0.20969787   
   1413000   0.069999561   -0.23360991     0             -0.1758833      0.21292305   
   1413500   0.068657271   -0.22791888     0             -0.17129922     0.22117013   
   1414000   0.070339238   -0.23325549     0             -0.17524876     0.2421442    
   1414500   0.069705046   -0.22855651     0             -0.17107277     0.4095497    
   1415000   0.073314591   -0.23161951     0             -0.17115909     0.12604073   
   1415500   0.067847113   -0.22821258     0             -0.17226103    -0.24192002   
   1416000   0.070567931   -0.22233976     0             -0.16414443    -0.45566474   
   1416500   0.072783327   -0.22483207     0             -0.16480977     0.27520156   
   1417000   0.068227833   -0.22136294     0             -0.16509742     0.068475408  
   1417500   0.074042837   -0.22550014     0             -0.16443915     0.21534955   
   1418000   0.078219914   -0.22706728     0             -0.16256158     0.07207248   
   1418500   0.074687105   -0.22369146     0             -0.16209917    -0.21651312   
   1419000   0.083952591   -0.22055215     0             -0.15131888    -0.16597369   
   1419500   0.070146741   -0.22230379     0             -0.1644558      0.040217117  
   1420000   0.067541136   -0.22292791     0             -0.16722869    -0.13040923   
   1420500   0.07132269    -0.21622207     0             -0.15740432     0.30627423   
   1421000   0.06819943    -0.22067081     0             -0.16442872     0.30621321   
   1421500   0.069307711   -0.22508897     0             -0.16793291     0.10372076   
   1422000   0.069286223   -0.22025904     0             -0.1631207      0.049806807  
   1422500   0.073402968   -0.21840877     0             -0.15787546    -0.14565085   
   1423000   0.07127689    -0.21553421     0             -0.15675423    -0.12515384   
   1423500   0.068640015   -0.21318509     0             -0.15657965     0.32536741   
   1424000   0.074475278   -0.20605749     0             -0.14463989    -0.14326629   
   1424500   0.0685996     -0.21531937     0             -0.15874727     0.088286494  
   1425000   0.064313274   -0.22188013     0             -0.16884284     0.056950248  
   1425500   0.060157549   -0.22317602     0             -0.17356583     0.56656438   
   1426000   0.062843913   -0.21877556     0             -0.16695        0.13966618   
   1426500   0.074617155   -0.21646351     0             -0.1549289     -0.11647928   
   1427000   0.064416685   -0.22550527     0             -0.1723827      0.065867179  
   1427500   0.060038725   -0.22478012     0             -0.17526792    -0.37416984   
   1428000   0.06314888    -0.22393437     0             -0.17185732     0.14411572   
   1428500   0.056279647   -0.22861246     0             -0.18220026    -0.10916045   
   1429000   0.05993369    -0.23073846     0             -0.18131288    -0.32745148   
   1429500   0.061734297   -0.22994413     0             -0.17903364    -0.2878567    
   1430000   0.061667136   -0.23174782     0             -0.18089272    -0.12894758   
   1430500   0.075464303   -0.22729121     0             -0.16505799    -0.20441494   
   1431000   0.074188397   -0.22918671     0             -0.16800569     0.46704362   
   1431500   0.075575805   -0.22782963     0             -0.16550445     0.016680704  
   1432000   0.063853317   -0.22875004     0             -0.17609206    -0.48863517   
   1432500   0.066027375   -0.22742648     0             -0.17297561     0.10047897   
   1433000   0.068664774   -0.22507353     0             -0.16844768     0.27456314   
   1433500   0.077721784   -0.22223474     0             -0.15813983     0.080385576  
   1434000   0.077995948   -0.21661071     0             -0.15228971     0.13902388   
   1434500   0.073735752   -0.21934266     0             -0.15853492    -0.43985707   
   1435000   0.068992887   -0.22140816     0             -0.16451173     0.2035322    
   1435500   0.070318442   -0.22471959     0             -0.16673001     0.17857366   
   1436000   0.070154191   -0.21991043     0             -0.1620563     -0.15548735   
   1436500   0.069797779   -0.22011307     0             -0.16255286     0.075783448  
   1437000   0.065422361   -0.21842107     0             -0.16446914     0.014453529  
   1437500   0.072286207   -0.22844905     0             -0.16883671    -0.31791875   
   1438000   0.07160626    -0.22231795     0             -0.16326634     0.054642289  
   1438500   0.063626914   -0.22680746     0             -0.17433619     0.34458398   
   1439000   0.065678068   -0.227782       0             -0.1736192      0.12342769   
   1439500   0.059411949   -0.23223454     0             -0.18323922    -0.10413931   
   1440000   0.060286998   -0.23324124     0             -0.1835243      0.59492302   
   1440500   0.064630272   -0.23212763     0             -0.17882892    -0.36547071   
   1441000   0.063654124   -0.2346909      0             -0.18219719    -0.080593351  
   1441500   0.064696515   -0.23179348     0             -0.17844014     0.40636694   
   1442000   0.074186427   -0.22958991     0             -0.16841052     0.29876352   
   1442500   0.078809669   -0.22785458     0             -0.16286253    -0.060781248  
   1443000   0.077808922   -0.23206067     0             -0.1678939     -0.12648467   
   1443500   0.073572175   -0.23155858     0             -0.17088574     0.20895619   
   1444000   0.072102591   -0.23207636     0             -0.17261544    -0.045062883  
   1444500   0.066937435   -0.23366879     0             -0.17846742    -0.29809913   
   1445000   0.067491115   -0.23759219     0             -0.18193422     0.11908767   
   1445500   0.061895824   -0.23966631     0             -0.18862261     0.030853383  
   1446000   0.064901446   -0.23739222     0             -0.18386988     0.050967269  
   1446500   0.062467008   -0.2352077      0             -0.18369297    -0.36684779   
   1447000   0.06207388    -0.23232072     0             -0.18113019     0.0057896472 
   1447500   0.069157707   -0.22924033     0             -0.17220798    -0.019493103  
   1448000   0.06973355    -0.23165009     0             -0.17414285     0.087947603  
   1448500   0.066449306   -0.22988428     0             -0.17508546    -0.35171708   
   1449000   0.06856028    -0.23300326     0             -0.17646358    -0.034253466  
   1449500   0.068711265   -0.22814805     0             -0.17148386    -0.1610419    
   1450000   0.065333434   -0.23089999     0             -0.1770214     -0.16141075   
   1450500   0.063820889   -0.23205503     0             -0.17942379    -0.46613658   
   1451000   0.064353635   -0.23541616     0             -0.18234558     0.30995271   
   1451500   0.073684137   -0.23239444     0             -0.17162926     0.12758368   
   1452000   0.068906692   -0.23108989     0             -0.17426454    -0.1549477    
   1452500   0.066198224   -0.23360403     0             -0.17901227    -0.25323895   
   1453000   0.067144362   -0.22998807     0             -0.17461606     0.12827699   
   1453500   0.070957391   -0.23442414     0             -0.17590763     0.045791928  
   1454000   0.067934598   -0.23125672     0             -0.17523302     0.10990345   
   1454500   0.062074746   -0.23461369     0             -0.18342244     0.028929298  
   1455000   0.067316526   -0.24056052     0             -0.18504653    -0.19919334   
   1455500   0.069792589   -0.23996983     0             -0.1824139      0.29775044   
   1456000   0.064069062   -0.23933098     0             -0.18649508     0.038668148  
   1456500   0.065786428   -0.24097161     0             -0.18671945     0.19598455   
   1457000   0.06355373    -0.24505295     0             -0.19264202    -0.47825912   
   1457500   0.06927257    -0.24415517     0             -0.18702809     0.18713861   
   1458000   0.067782486   -0.24431948     0             -0.18842122     0.19087837   
   1458500   0.072421741   -0.24263078     0             -0.18290667    -0.37749503   
   1459000   0.063949012   -0.24118797     0             -0.18845107     0.1274027    
   1459500   0.065745225   -0.24113656     0             -0.18691838     0.48729331   
   1460000   0.068793924   -0.24384827     0             -0.18711591    -0.21289046   
   1460500   0.065806909   -0.24184782     0             -0.18757877     0.02025259   
   1461000   0.067141088   -0.24370849     0             -0.18833918     0.10655047   
   1461500   0.057814707   -0.24341543     0             -0.19573732    -0.18951034   
   1462000   0.07008212    -0.24085635     0             -0.18306165    -0.19951339   
   1462500   0.06921245    -0.24189799     0             -0.18482049     0.5557556    
   1463000   0.064769622   -0.23927521     0             -0.18586158     0.22813468   
   1463500   0.070139035   -0.24085724     0             -0.18301561    -0.47317233   
   1464000   0.067543585   -0.23550926     0             -0.17980802    -0.092657859  
   1464500   0.062506134   -0.23474211     0             -0.18319511    -0.074119526  
   1465000   0.057425395   -0.23976027     0             -0.19240321     0.16025766   
   1465500   0.0616046     -0.23677456     0             -0.18597103    -0.53012122   
   1466000   0.062646939   -0.23534782     0             -0.1836847      0.46351922   
   1466500   0.076749497   -0.23562577     0             -0.17233268     0.24293023   
   1467000   0.077414932   -0.23216088     0             -0.16831902     0.21741785   
   1467500   0.070308131   -0.23312175     0             -0.17514067     0.15833961   
   1468000   0.071540183   -0.23240293     0             -0.17340581    -0.13712923   
   1468500   0.067198657   -0.22948808     0             -0.17407129     0.045562521  
   1469000   0.080326721   -0.23230324     0             -0.16606012     0.2221921    
   1469500   0.069414338   -0.23222889     0             -0.17498489    -0.1248921    
   1470000   0.065138441   -0.23210385     0             -0.17838607     0.042754949  
   1470500   0.05997868    -0.23150572     0             -0.18204304     0.21968932   
   1471000   0.064876357   -0.23651493     0             -0.18301328     0.31068685   
   1471500   0.065875584   -0.23125608     0             -0.17693039    -0.41717298   
   1472000   0.061381897   -0.22994088     0             -0.179321       0.061437038  
   1472500   0.062547851   -0.23731344     0             -0.18573204     0.094470045  
   1473000   0.068784804   -0.23493276     0             -0.17820793    -0.094905216  
   1473500   0.069372441   -0.2383256      0             -0.18111615     0.16333924   
   1474000   0.067287097   -0.23248977     0             -0.17700005    -0.20065167   
   1474500   0.06938314    -0.23180355     0             -0.17458528    -0.12741817   
   1475000   0.070513578   -0.22998584     0             -0.17183534     0.36021861   
   1475500   0.066570429   -0.22683792     0             -0.17193921     0.27759581   
   1476000   0.065474082   -0.22896607     0             -0.17497149     0.61515481   
   1476500   0.061947825   -0.23190775     0             -0.18082118     0.63925028   
   1477000   0.061855604   -0.23237749     0             -0.18136696    -0.2362623    
   1477500   0.071805421   -0.22566779     0             -0.16645194     0.16641731   
   1478000   0.068852658   -0.23096531     0             -0.17418452     0.1160088    
   1478500   0.069105794   -0.22989538     0             -0.17290583     0.17709888   
   1479000   0.064507116   -0.22661141     0             -0.17341426     0.15195957   
   1479500   0.067688612   -0.22838089     0             -0.17256005     0.033777165  
   1480000   0.069675748   -0.2304045      0             -0.17294492     0.26004332   
   1480500   0.06810677    -0.23412186     0             -0.17795617    -0.044519702  
   1481000   0.06816488    -0.2273279      0             -0.1711143      0.10898066   
   1481500   0.067062095   -0.23185392     0             -0.17654975     0.23098217   
   1482000   0.065688094   -0.22827433     0             -0.17410326    -0.24326454   
   1482500   0.067003532   -0.23104775     0             -0.17579188    -0.062123095  
   1483000   0.073168949   -0.23390167     0             -0.17356136    -0.64071228   
   1483500   0.070935757   -0.22666947     0             -0.1681708      0.15125645   
   1484000   0.063176618   -0.22804515     0             -0.17594522    -0.18322494   
   1484500   0.062266976   -0.22712097     0             -0.1757712     -0.31087855   
   1485000   0.065929507   -0.22906321     0             -0.17469305    -0.092315302  
   1485500   0.063324974   -0.23138029     0             -0.17915802     0.25866607   
   1486000   0.063245767   -0.22856412     0             -0.17640717    -0.28902931   
   1486500   0.061151952   -0.22744409     0             -0.17701385    -0.049702481  
   1487000   0.061195787   -0.22829581     0             -0.17782942    -0.22245721   
   1487500   0.063388229   -0.2284356      0             -0.17616116    -0.20648377   
   1488000   0.06229769    -0.22998302     0             -0.17860792    -0.14003733   
   1488500   0.06006501    -0.23105198     0             -0.1815181      0.15517352   
   1489000   0.063708851   -0.23033929     0             -0.17780045    -0.1013819    
   1489500   0.069428623   -0.23474871     0             -0.17749294     0.066446733  
   1490000   0.069309174   -0.2257755      0             -0.16861823     0.25965537   
   1490500   0.072048511   -0.23239358     0             -0.17297726     0.59375491   
   1491000   0.066205262   -0.22991799     0             -0.17532042    -0.00056122716
   1491500   0.069571117   -0.2322868      0             -0.17491351     0.54759425   
   1492000   0.07908687    -0.23466059     0             -0.16943993    -0.16104696   
   1492500   0.076111472   -0.23094048     0             -0.16817356    -0.602522     
   1493000   0.076523735   -0.23127946     0             -0.16817256    -0.14809335   
   1493500   0.077606166   -0.23181187     0             -0.16781232    -0.24174754   
   1494000   0.077427733   -0.2278403      0             -0.16398789    -0.032005573  
   1494500   0.072437634   -0.22518077     0             -0.16544355     0.58045687   
   1495000   0.077609049   -0.22373073     0             -0.15972879    -0.28395354   
   1495500   0.069703709   -0.21971237     0             -0.16222974    -0.3356674    
   1496000   0.066801689   -0.2270683      0             -0.17197888     0.1742003    
   1496500   0.061672514   -0.22899592     0             -0.17813638     0.022767707  
   1497000   0.062560371   -0.22828266     0             -0.17669093    -0.1548037    
   1497500   0.066256086   -0.23149429     0             -0.17685482     0.36808949   
   1498000   0.064327698   -0.22923616     0             -0.17618697     0.27643243   
   1498500   0.072103477   -0.22529148     0             -0.16582983     0.14553748   
   1499000   0.071490202   -0.22974469     0             -0.17078879     0.53022235   
   1499500   0.06340025    -0.23119911     0             -0.17891476     0.19897087   
   1500000   0.060476917   -0.23255169     0             -0.18267813     0.42328019   
   1500500   0.067858218   -0.23591214     0             -0.17995144     0.13536527   
   1501000   0.072364461   -0.23129119     0             -0.17161431    -0.25324313   
   1501500   0.071938574   -0.2301046      0             -0.17077895    -0.017389048  
   1502000   0.071362247   -0.23210098     0             -0.1732506     -0.22509639   
   1502500   0.06569082    -0.23123445     0             -0.17706113     0.1647449    
   1503000   0.068117411   -0.2285673      0             -0.17239284     0.38900396   
   1503500   0.065912153   -0.22694183     0             -0.17258598    -0.00090006128
   1504000   0.071155306   -0.22377447     0             -0.16509475     0.2460455    
   1504500   0.064455162   -0.22692038     0             -0.17376608     0.4010702    
   1505000   0.067343649   -0.22893202     0             -0.17339566    -0.54197859   
   1505500   0.068336215   -0.22807485     0             -0.17171995    -0.057060193  
   1506000   0.062629918   -0.22936049     0             -0.17771141    -0.38046711   
   1506500   0.06792634    -0.22783315     0             -0.17181626    -0.62878878   
   1507000   0.066430166   -0.23393706     0             -0.17915403    -0.21062367   
   1507500   0.067751315   -0.22964358     0             -0.17377103     0.12160715   
   1508000   0.065942728   -0.23523461     0             -0.18085355    -0.39893407   
   1508500   0.067352719   -0.23082232     0             -0.17527848    -0.16007288   
   1509000   0.067057613   -0.23137606     0             -0.17607559    -0.14058395   
   1509500   0.071519177   -0.23324333     0             -0.17426353    -0.44647833   
   1510000   0.075310713   -0.22856661     0             -0.16646004    -0.19459555   
   1510500   0.068676629   -0.22764688     0             -0.17101125    -0.062611782  
   1511000   0.067315483   -0.22708268     0             -0.17156955     0.30443495   
   1511500   0.07081644    -0.22970604     0             -0.17130577     0.29936891   
   1512000   0.065565057   -0.22539038     0             -0.17132077     0.073159123  
   1512500   0.067094328   -0.22341682     0             -0.16808607     0.44266858   
   1513000   0.066325845   -0.22464838     0             -0.16995138     0.16403358   
   1513500   0.078193895   -0.22024829     0             -0.15576405     0.23884404   
   1514000   0.067291529   -0.22211319     0             -0.16661981     0.8046306    
   1514500   0.076878473   -0.22556009     0             -0.16216063    -0.68886871   
   1515000   0.071046177   -0.22500231     0             -0.16641259    -0.057276266  
   1515500   0.078939729   -0.22216481     0             -0.15706551    -0.29057128   
   1516000   0.068202303   -0.22328123     0             -0.16703677     0.31483357   
   1516500   0.0631881     -0.22392219     0             -0.17181279    -0.018102495  
   1517000   0.060250128   -0.22633666     0             -0.17665012     0.31369118   
   1517500   0.064805218   -0.22575536     0             -0.17231237    -0.12849854   
   1518000   0.069904608   -0.22148974     0             -0.16384144    -0.032207616  
   1518500   0.084074581   -0.2232826      0             -0.15394873     0.22397333   
   1519000   0.075857773   -0.21375357     0             -0.15119586    -0.31919593   
   1519500   0.070655775   -0.2176841      0             -0.15941632     0.050169182  
   1520000   0.08112822    -0.21683233     0             -0.14992824    -0.2426802    
   1520500   0.077972078   -0.21821743     0             -0.15391612    -0.23268043   
   1521000   0.073299572   -0.22259381     0             -0.16214578    -0.31287646   
   1521500   0.069583826   -0.22188803     0             -0.16450426     0.14041729   
   1522000   0.075653995   -0.22045986     0             -0.1580702     -0.57259452   
   1522500   0.069809641   -0.219411       0             -0.16184101     0.075031514  
   1523000   0.068661505   -0.22131923     0             -0.16469608     0.005117211  
   1523500   0.076202329   -0.21114817     0             -0.14830631    -0.17404356   
   1524000   0.086782817   -0.208811       0             -0.13724372     0.51408218   
   1524500   0.08308611    -0.21106079     0             -0.14254208     0.41379089   
   1525000   0.06828889    -0.21138501     0             -0.15506914    -0.25684252   
   1525500   0.064567289   -0.21594662     0             -0.16269985    -0.42533641   
   1526000   0.061472077   -0.21206035     0             -0.16136611     0.13176584   
   1526500   0.074530469   -0.21384573     0             -0.15238261    -0.15458231   
   1527000   0.074468812   -0.21168865     0             -0.15027638    -0.67609704   
   1527500   0.067863325   -0.21610001     0             -0.16013509    -0.32117483   
   1528000   0.063696968   -0.21902414     0             -0.1664951      0.33196185   
   1528500   0.064769312   -0.21393261     0             -0.16051924     0.19462584   
   1529000   0.058248353   -0.22203246     0             -0.17399673    -0.16482534   
   1529500   0.068010063   -0.2170448      0             -0.16095887    -0.25033378   
   1530000   0.076126773   -0.21210505     0             -0.1493255      0.38821262   
   1530500   0.070087457   -0.20948264     0             -0.15168354    -0.73416735   
   1531000   0.071379814   -0.20873453     0             -0.14986967     0.26958695   
   1531500   0.088596895   -0.20832634     0             -0.13526305     0.25554041   
   1532000   0.075620626   -0.20728486     0             -0.14492272     0.1651963    
   1532500   0.072928017   -0.20780327     0             -0.14766164     0.15820845   
   1533000   0.070179518   -0.21211571     0             -0.15424069     0.13842316   
   1533500   0.06534405    -0.20815618     0             -0.15426883     0.36271388   
   1534000   0.070597727   -0.21324661     0             -0.15502671     0.12240064   
   1534500   0.076396441   -0.21320576     0             -0.15020382    -0.3188358    
   1535000   0.073698547   -0.21375483     0             -0.15297777    -0.028388671  
   1535500   0.069612376   -0.21066266     0             -0.15325535    -0.47237058   
   1536000   0.070346152   -0.220729       0             -0.16271657     0.031315273  
   1536500   0.075761272   -0.214218       0             -0.15173987    -0.26553893   
   1537000   0.06747454    -0.21298417     0             -0.15733987    -0.1741551    
   1537500   0.066405378   -0.2132321      0             -0.15846951    -0.45650756   
   1538000   0.067661738   -0.21894237     0             -0.16314369    -0.0046733998 
   1538500   0.06841013    -0.22274246     0             -0.16632661     0.12891585   
   1539000   0.07128297    -0.21917296     0             -0.16038796     0.16288526   
   1539500   0.078573891   -0.21435244     0             -0.14955482    -0.087845195  
   1540000   0.071323836   -0.21175078     0             -0.15293208    -0.42365833   
   1540500   0.064514866   -0.21856322     0             -0.16535968    -0.090232102  
   1541000   0.064717233   -0.21421354     0             -0.16084312     0.0079452401 
   1541500   0.061418182   -0.21712644     0             -0.16647665    -0.11272799   
   1542000   0.071086985   -0.21201137     0             -0.15338799     0.50724864   
   1542500   0.065492799   -0.21460389     0             -0.16059388    -0.43226141   
   1543000   0.06694037    -0.22009285     0             -0.16488907    -0.090371816  
   1543500   0.064078136   -0.2201203      0             -0.16727692    -0.81905342   
   1544000   0.062909451   -0.21947957     0             -0.16759997     0.021282432  
   1544500   0.063318951   -0.21553672     0             -0.16331942    -0.11029189   
   1545000   0.061051067   -0.22047999     0             -0.17013294    -0.081642467  
   1545500   0.069423032   -0.21953749     0             -0.16228633    -0.21435362   
   1546000   0.066521389   -0.21759254     0             -0.16273427    -0.056170724  
   1546500   0.060735326   -0.21530221     0             -0.16521555     0.22747134   
   1547000   0.059612394   -0.22207094     0             -0.17291032     0.079112493  
   1547500   0.061334196   -0.22381577     0             -0.17323523     0.22825799   
   1548000   0.070083529   -0.22038924     0             -0.16259339     0.20943977   
   1548500   0.077497276   -0.21754208     0             -0.15363232    -0.32419754   
   1549000   0.071796488   -0.22068897     0             -0.16148048     0.22821799   
   1549500   0.069688546   -0.22246203     0             -0.16499191     0.11411215   
   1550000   0.068880991   -0.22161903     0             -0.16481487     0.1544432    
   1550500   0.066910457   -0.22288983     0             -0.16771071     0.014577422  
   1551000   0.06420844    -0.22546215     0             -0.17251131    -0.32578607   
   1551500   0.069217411   -0.22522637     0             -0.16814477     0.3330242    
   1552000   0.063559985   -0.2246782      0             -0.17226212     0.068021524  
   1552500   0.066947437   -0.22888097     0             -0.17367136     0.28935164   
   1553000   0.069457212   -0.2294205      0             -0.17214115    -0.52596995   
   1553500   0.084753645   -0.22272524     0             -0.15283136     0.15742481   
   1554000   0.067900345   -0.21944236     0             -0.16344691     0.09951068   
   1554500   0.068080574   -0.2224697      0             -0.16632562    -0.0096703995 
   1555000   0.066738538   -0.22523419     0             -0.17019685    -0.15301595   
   1555500   0.065078605   -0.22150178     0             -0.16783334    -0.050471715  
   1556000   0.062049784   -0.22118103     0             -0.17001037    -0.53313735   
   1556500   0.06449225    -0.22728307     0             -0.17409818     0.59922959   
   1557000   0.062125194   -0.2290091      0             -0.17777625    -0.25574938   
   1557500   0.064963777   -0.22510499     0             -0.17153124    -0.033942166  
   1558000   0.070208035   -0.23389872     0             -0.17600018    -0.64952044   
   1558500   0.071019285   -0.22622359     0             -0.16765604    -0.50239343   
   1559000   0.06867681    -0.22631349     0             -0.16967771     0.28105711   
   1559500   0.068033998   -0.22533308     0             -0.16922741    -0.51043627   
   1560000   0.069260827   -0.23277088     0             -0.17565348    -0.12421064   
   1560500   0.075157892   -0.22989596     0             -0.16791542    -0.35114713   
   1561000   0.062573923   -0.22640947     0             -0.17480657     0.48426943   
   1561500   0.061281443   -0.22107075     0             -0.17053372     0.20148128   
   1562000   0.060319057   -0.23251613     0             -0.18277275     0.31639315   
   1562500   0.067070217   -0.22938985     0             -0.17407898    -0.2000115    
   1563000   0.068025358   -0.22963638     0             -0.17353784    -0.084482059  
   1563500   0.071123119   -0.23202252     0             -0.17336934    -0.18660281   
   1564000   0.072046239   -0.22707665     0             -0.1676622      0.24431334   
   1564500   0.066884746   -0.23244792     0             -0.17729        0.14512181   
   1565000   0.069797323   -0.23094976     0             -0.17338993    -0.028882372  
   1565500   0.079208447   -0.2240222      0             -0.15870129    -0.20214671   
   1566000   0.079455715   -0.22460839     0             -0.15908356     0.62508305   
   1566500   0.071710201   -0.2251844      0             -0.16604707    -0.29081154   
   1567000   0.071330931   -0.22611669     0             -0.16729214     0.42069228   
   1567500   0.068810725   -0.22741932     0             -0.17067311     0.62979353   
   1568000   0.0651833     -0.22742866     0             -0.17367388     0.18711424   
   1568500   0.06199049    -0.22209056     0             -0.1709688     -0.069746024  
   1569000   0.066638724   -0.22523524     0             -0.17028021    -0.31169736   
   1569500   0.078315566   -0.21889881     0             -0.15431423     0.37307349   
   1570000   0.07633427    -0.22214326     0             -0.1591926     -0.60102206   
   1570500   0.072615996   -0.22069506     0             -0.16081075     0.028309689  
   1571000   0.076792969   -0.22045129     0             -0.15712235    -0.070162405  
   1571500   0.071397774   -0.2186577      0             -0.15977802     0.042437843  
   1572000   0.080288113   -0.22052815     0             -0.15431687     0.10574518   
   1572500   0.078262547   -0.21736926     0             -0.1528284      0.53525386   
   1573000   0.074489755   -0.22043218     0             -0.15900264    -0.26785394   
   1573500   0.068924575   -0.21621946     0             -0.15937936     0.1684733    
   1574000   0.065722646   -0.22118656     0             -0.16698699     0.1157103    
   1574500   0.076571002   -0.21827173     0             -0.15512584    -0.046180475  
   1575000   0.071544978   -0.22081105     0             -0.16180998    -0.60255972   
   1575500   0.070478501   -0.21659303     0             -0.15847145    -0.13599538   
   1576000   0.080788242   -0.21972557     0             -0.15310184     0.032953027  
   1576500   0.064993828   -0.21829254     0             -0.16469401     0.25379666   
   1577000   0.064178882   -0.21902539     0             -0.16609892     0.28623455   
   1577500   0.060765352   -0.21930404     0             -0.16919262    -0.25617552   
   1578000   0.072187272   -0.21696864     0             -0.15743789     0.2504972    
   1578500   0.07671526    -0.21881624     0             -0.15555139    -0.11754926   
   1579000   0.068076707   -0.22079815     0             -0.16465727    -0.36352669   
   1579500   0.069397287   -0.21831108     0             -0.16108115    -0.16850502   
   1580000   0.066002715   -0.22331282     0             -0.16888229    -0.27752346   
   1580500   0.070795147   -0.22587948     0             -0.16749677     0.36577686   
   1581000   0.074640633   -0.22144147     0             -0.1598875     -0.022838905  
   1581500   0.060793652   -0.22885491     0             -0.17872014     0.28981699   
   1582000   0.06197647    -0.22637948     0             -0.17526928     0.073384498  
   1582500   0.059703244   -0.22945047     0             -0.18021493    -0.19473115   
   1583000   0.062109557   -0.22840865     0             -0.17718869     0.23570602   
   1583500   0.062317694   -0.23214082     0             -0.18074922    -0.36964572   
   1584000   0.067487552   -0.2265161      0             -0.17086107     0.24912497   
   1584500   0.065975473   -0.22700641     0             -0.17259834     0.45476586   
   1585000   0.063140012   -0.22855159     0             -0.17648185     0.20922365   
   1585500   0.069049829   -0.22854625     0             -0.17160285     0.11878518   
   1586000   0.062991075   -0.22737589     0             -0.17542898    -0.13766247   
   1586500   0.066550768   -0.22719181     0             -0.17230932     0.17247315   
   1587000   0.070294148   -0.22412278     0             -0.16615323     0.30335745   
   1587500   0.069245359   -0.22313192     0             -0.16602728     0.70779861   
   1588000   0.062612698   -0.22493952     0             -0.17330464    -0.012908122  
   1588500   0.067091676   -0.2321766      0             -0.17684804    -0.1697517    
   1589000   0.071986857   -0.22455351     0             -0.16518803    -0.1960908    
   1589500   0.06568812    -0.2222336      0             -0.16806251     0.16114534   
   1590000   0.066821044   -0.23096461     0             -0.17585923     0.026758125  
   1590500   0.059279083   -0.22850135     0             -0.17961561    -0.18360669   
   1591000   0.061492211   -0.23201704     0             -0.1813062      0.14905051   
   1591500   0.069841274   -0.23051855     0             -0.17292248    -0.094342524  
   1592000   0.070625392   -0.22912026     0             -0.17087754     0.2443331    
   1592500   0.067300875   -0.22858382     0             -0.17308273    -0.10876766   
   1593000   0.06949763    -0.22817465     0             -0.17086197     0.12785438   
   1593500   0.064106889   -0.22816754     0             -0.17530044     0.014253141  
   1594000   0.061060426   -0.23056924     0             -0.18021448    -0.27231886   
   1594500   0.06381374    -0.2313227      0             -0.17869735     0.14475887   
   1595000   0.061482195   -0.23236256     0             -0.18165998     0.35328872   
   1595500   0.060860331   -0.23307816     0             -0.18288841     0.31121867   
   1596000   0.068686499   -0.2308468      0             -0.17420303    -0.079707261  
   1596500   0.069763102   -0.23337783     0             -0.17584622     0.090088855  
   1597000   0.060734314   -0.23460871     0             -0.18452288     0.14198844   
   1597500   0.064687575   -0.23426371     0             -0.18091774     0.3219351    
   1598000   0.070137926   -0.23457975     0             -0.17673903    -0.061416069  
   1598500   0.075305196   -0.23430598     0             -0.17220396     0.25183576   
   1599000   0.070615404   -0.22851988     0             -0.1702854      0.29924757   
   1599500   0.066952719   -0.22790547     0             -0.1726915      0.17005118   
   1600000   0.058510021   -0.22897448     0             -0.18072295    -0.66081135   
   1600500   0.06458303    -0.2275626      0             -0.17430285     0.079026516  
   1601000   0.066174855   -0.22760996     0             -0.17303748     0.579067     
   1601500   0.07682038    -0.22391501     0             -0.16056347    -0.12121983   
   1602000   0.073219781   -0.22414689     0             -0.16376466    -0.074384613  
   1602500   0.066114246   -0.22612606     0             -0.17160355     0.21556455   
   1603000   0.059598193   -0.22774272     0             -0.17859381     0.40623308   
   1603500   0.067007328   -0.23065685     0             -0.17539784     0.1708893    
   1604000   0.062569707   -0.2255252      0             -0.17392577    -0.26871643   
   1604500   0.06015844    -0.22456823     0             -0.17495731     0.026697695  
   1605000   0.067265605   -0.22554043     0             -0.17006843    -0.31444629   
   1605500   0.068353817   -0.22585812     0             -0.1694887      0.1351748    
   1606000   0.062555047   -0.22779918     0             -0.17621185     0.040838035  
   1606500   0.061001911   -0.23148259     0             -0.18117608    -0.072560212  
   1607000   0.05860776    -0.23520336     0             -0.18687124     0.41713371   
   1607500   0.070336765   -0.23470072     0             -0.17669603     0.272092     
   1608000   0.066393715   -0.23506551     0             -0.18031253    -0.04006302   
   1608500   0.061550432   -0.23508986     0             -0.184331       0.27658956   
   1609000   0.059126606   -0.24319377     0             -0.19443377     0.65445205   
   1609500   0.066764497   -0.23825116     0             -0.18319242     0.0079693639 
   1610000   0.075499303   -0.23525436     0             -0.17299228    -0.23887289   
   1610500   0.063345418   -0.23439115     0             -0.18215202    -0.13889995   
   1611000   0.068610822   -0.23932859     0             -0.18274723    -0.22652199   
   1611500   0.072218012   -0.23717408     0             -0.17761797    -0.20145576   
   1612000   0.063124965   -0.23994634     0             -0.187889       0.25080475   
   1612500   0.067934352   -0.23978795     0             -0.18376446    -0.27327157   
   1613000   0.067355853   -0.23805613     0             -0.18250971    -0.13677342   
   1613500   0.061706906   -0.23650137     0             -0.18561347    -0.19911051   
   1614000   0.066394598   -0.23673046     0             -0.18197676    -0.17006967   
   1614500   0.063001333   -0.23523566     0             -0.18328028    -0.43512355   
   1615000   0.063115746   -0.23385982     0             -0.18181009    -0.0053237086 
   1615500   0.068990008   -0.22955617     0             -0.17266211    -0.32268086   
   1616000   0.061096264   -0.23521568     0             -0.18483136     0.18561792   
   1616500   0.065482395   -0.2311141      0             -0.17711266    -0.29571153   
   1617000   0.071249915   -0.23130683     0             -0.17254909    -0.28515696   
   1617500   0.073035486   -0.23446309     0             -0.17423284     0.3841563    
   1618000   0.07239739    -0.22823238     0             -0.16852835    -0.559296     
   1618500   0.064607232   -0.23998279     0             -0.18670307     0.093800964  
   1619000   0.070420274   -0.23396833     0             -0.17589477    -0.32121277   
   1619500   0.06138629    -0.23721038     0             -0.18658688    -0.17000684   
   1620000   0.071981528   -0.2324629      0             -0.17310182    -0.52260604   
   1620500   0.06693772    -0.23281393     0             -0.17761233    -0.40287758   
   1621000   0.070870742   -0.2291358      0             -0.17069075    -0.11551908   
   1621500   0.065932938   -0.23212227     0             -0.17774929    -0.0512834    
   1622000   0.063186898   -0.23502984     0             -0.18292143     0.23709917   
   1622500   0.060261553   -0.2372497      0             -0.18755374     0.33109095   
   1623000   0.074212234   -0.23370089     0             -0.17250021    -0.032243701  
   1623500   0.07379192    -0.23737861     0             -0.17652455    -0.32953635   
   1624000   0.063826191   -0.23519476     0             -0.18255915    -0.17534632   
   1624500   0.063331819   -0.23524553     0             -0.18301761    -0.37179396   
   1625000   0.068324277   -0.22995165     0             -0.1736066      0.49965276   
   1625500   0.059827305   -0.23303634     0             -0.18369849     0.13060047   
   1626000   0.057713282   -0.23320335     0             -0.18560888     0.1335473    
   1626500   0.061324924   -0.23933993     0             -0.18876704     0.22840571   
   1627000   0.063570979   -0.24275071     0             -0.19032557     0.38082515   
   1627500   0.06056828    -0.23987974     0             -0.18993083    -0.26182138   
   1628000   0.072332391   -0.23596136     0             -0.17631093     0.10746046   
   1628500   0.061574505   -0.23921033     0             -0.18843162     0.035544941  
   1629000   0.061588061   -0.23906783     0             -0.18827793     0.25628795   
   1629500   0.066262364   -0.23753657     0             -0.18289192     0.052313496  
   1630000   0.063032532   -0.2323691      0             -0.18038799     0.073023729  
   1630500   0.06742185    -0.23478983     0             -0.17918898     0.2252872    
   1631000   0.062414659   -0.23411983     0             -0.18264827     0.025371057  
   1631500   0.067817646   -0.23231494     0             -0.17638769     0.053085821  
   1632000   0.069980169   -0.23145442     0             -0.1737438     -0.24926237   
   1632500   0.064663568   -0.23173623     0             -0.17841006    -0.28419687   
   1633000   0.067178201   -0.2326251      0             -0.17722519     0.23485366   
   1633500   0.078592608   -0.23041645     0             -0.1656034      0.216281     
   1634000   0.070988354   -0.22827731     0             -0.16973527     0.49758608   
   1634500   0.072627869   -0.22849607     0             -0.16860197     0.34235123   
   1635000   0.079099815   -0.23276843     0             -0.1675371      0.32265632   
   1635500   0.070167713   -0.23329791     0             -0.17543263    -0.40541028   
   1636000   0.076665285   -0.23023222     0             -0.16700858    -0.066992314  
   1636500   0.072937633   -0.2315948      0             -0.17144525    -0.1373389    
   1637000   0.067177522   -0.22707983     0             -0.17168048     0.093558821  
   1637500   0.067230691   -0.22712641     0             -0.1716832     -0.32014682   
   1638000   0.066890668   -0.22855371     0             -0.17339091     0.47910321   
   1638500   0.063846536   -0.23253642     0             -0.17988403    -0.11590493   
   1639000   0.067594473   -0.23107841     0             -0.1753352     -0.03823479   
   1639500   0.07958253    -0.22323572     0             -0.15760631    -0.011565169  
   1640000   0.072015559   -0.22757329     0             -0.16818414     0.25781995   
   1640500   0.065756806   -0.22747953     0             -0.17325179    -0.0028711504 
   1641000   0.065993806   -0.22579599     0             -0.17137281    -0.26474271   
   1641500   0.062313837   -0.22746572     0             -0.1760773     -0.51652229   
   1642000   0.063842859   -0.22816321     0             -0.17551385    -0.28085232   
   1642500   0.068475114   -0.22381946     0             -0.16735001    -0.11804055   
   1643000   0.065407548   -0.22389772     0             -0.16995801     0.1830603    
   1643500   0.062857406   -0.22231608     0             -0.1704794     -0.0037407237 
   1644000   0.060786455   -0.22515124     0             -0.17502241     0.31621875   
   1644500   0.062686503   -0.22188857     0             -0.17019283    -0.10548784   
   1645000   0.05793336    -0.22808406     0             -0.1803081     -0.22869483   
   1645500   0.066032572   -0.2244696      0             -0.17001445    -0.22188813   
   1646000   0.058325682   -0.2254213      0             -0.1773218      0.19101329   
   1646500   0.069634155   -0.22500543     0             -0.16758016    -0.31183539   
   1647000   0.068419488   -0.22477539     0             -0.16835182     0.045418578  
   1647500   0.068733505   -0.22965782     0             -0.17297529     0.05467332   
   1648000   0.065332445   -0.22865153     0             -0.17477376     0.18202624   
   1648500   0.07003064    -0.22391937     0             -0.16616713     0.13607173   
   1649000   0.065456737   -0.22436591     0             -0.17038563     0.56301056   
   1649500   0.061056824   -0.22755789     0             -0.17720609     0.077163486  
   1650000   0.069498726   -0.22999388     0             -0.17268029     0.28680806   
   1650500   0.076571166   -0.2260472      0             -0.16290118    -0.19441585   
   1651000   0.071218348   -0.22620498     0             -0.16747327    -0.20193111   
   1651500   0.066270006   -0.22636574     0             -0.17171479    -0.2161221    
   1652000   0.064223851   -0.22345157     0             -0.17048802    -0.092315784  
   1652500   0.068841728   -0.22705652     0             -0.17028474    -0.0053791646 
   1653000   0.070875119   -0.22070151     0             -0.16225285    -0.02997787   
   1653500   0.069799321   -0.22334063     0             -0.16577915     0.0035318375 
   1654000   0.069819405   -0.22340351     0             -0.16582546    -0.22948072   
   1654500   0.076768219   -0.22410301     0             -0.16079448     0.12369704   
   1655000   0.081876349   -0.22207467     0             -0.15455361     0.42046575   
   1655500   0.076432008   -0.21827697     0             -0.1552457     -0.023569386  
   1656000   0.067708068   -0.21788115     0             -0.16204427    -0.30921379   
   1656500   0.068382439   -0.21725496     0             -0.16086194     0.13079513   
   1657000   0.065946975   -0.22358994     0             -0.16920538     0.3566676    
   1657500   0.063234167   -0.22418199     0             -0.1720346     -0.27997822   
   1658000   0.070456623   -0.2267056      0             -0.16860206     0.29882587   
   1658500   0.067272013   -0.22421975     0             -0.16874246     0.39443182   
   1659000   0.06070275    -0.22583756     0             -0.17577776    -0.095918952  
   1659500   0.062494808   -0.22723235     0             -0.17569469     0.12707102   
   1660000   0.069384598   -0.2286662      0             -0.17144673    -0.086066838  
   1660500   0.072134493   -0.23389765     0             -0.17441042    -0.11927379   
   1661000   0.072606976   -0.22743718     0             -0.16756031     0.35857908   
   1661500   0.070548986   -0.22656799     0             -0.16838828    -0.067553289  
   1662000   0.077183246   -0.23297799     0             -0.1693272     -0.088162059  
   1662500   0.077933385   -0.22647475     0             -0.16220535    -0.34143416   
   1663000   0.076311104   -0.22365129     0             -0.16071974     0.50044148   
   1663500   0.063234855   -0.22937659     0             -0.17722864    -0.60997589   
   1664000   0.064905359   -0.22679666     0             -0.17327109     0.13092061   
   1664500   0.070867813   -0.22905667     0             -0.17061404     0.22390686   
   1665000   0.062433264   -0.23027559     0             -0.17878869    -0.071546092  
   1665500   0.06170873    -0.22647012     0             -0.17558072     0.20719217   
   1666000   0.061818296   -0.22955697     0             -0.17857721    -0.12367898   
   1666500   0.066361315   -0.22699456     0             -0.17226831     0.371814     
   1667000   0.074377815   -0.2256974      0             -0.16436017     0.40479218   
   1667500   0.075206283   -0.22466966     0             -0.16264921    -0.11000525   
   1668000   0.070900834   -0.22557948     0             -0.16710961     0.56931161   
   1668500   0.06211695    -0.22808632     0             -0.17686027    -0.42866327   
   1669000   0.068610159   -0.22611469     0             -0.16953388     0.33161866   
   1669500   0.066188674   -0.22467203     0             -0.17008814     0.0025109439 
   1670000   0.067553106   -0.22067756     0             -0.16496847    -0.15908824   
   1670500   0.066280125   -0.22210152     0             -0.16744222     0.64565656   
   1671000   0.067017407   -0.21905711     0             -0.1637898     -0.14363811   
   1671500   0.064017122   -0.22355565     0             -0.17076259    -0.7772672    
   1672000   0.065331285   -0.22353643     0             -0.16965961    -0.46235147   
   1672500   0.064670275   -0.22391748     0             -0.17058577    -0.27712546   
   1673000   0.063945503   -0.220569       0             -0.167835       0.029774314  
   1673500   0.064081661   -0.22218332     0             -0.16933703     0.37332633   
   1674000   0.05872094    -0.22286138     0             -0.17443592    -0.4215908    
   1674500   0.054869205   -0.2257636      0             -0.18051455    -0.42077953   
   1675000   0.057754649   -0.22736742     0             -0.17973884    -0.057863257  
   1675500   0.058819732   -0.22819896     0             -0.17969203    -0.33418553   
   1676000   0.068845889   -0.22481487     0             -0.16803966    -0.21761713   
   1676500   0.064178513   -0.22864757     0             -0.17572141    -0.37876318   
   1677000   0.075329227   -0.22344085     0             -0.16131901    -0.056879502  
   1677500   0.071644181   -0.2254196      0             -0.16633671     0.15977357   
   1678000   0.064726957   -0.22435916     0             -0.17098071     0.24885115   
   1678500   0.067942639   -0.22759948     0             -0.17156915     0.25567126   
   1679000   0.066208562   -0.23212626     0             -0.17752598    -0.22756382   
   1679500   0.06517635    -0.22733987     0             -0.17359082    -0.028668917  
   1680000   0.072151583   -0.23027776     0             -0.17077643     0.35847098   
   1680500   0.073400484   -0.22692296     0             -0.1663917     -0.38208189   
   1681000   0.070508281   -0.22467025     0             -0.16652412    -0.6323628    
   1681500   0.066252361   -0.22661852     0             -0.17198212    -0.39712694   
   1682000   0.068349466   -0.23045543     0             -0.1740896      0.55406802   
   1682500   0.07056189    -0.22942911     0             -0.17123876     0.15613376   
   1683000   0.062592623   -0.2299635      0             -0.17834517     0.036576917  
   1683500   0.065493384   -0.22833811     0             -0.17432761    -0.3861651    
   1684000   0.065398208   -0.22870619     0             -0.17477418    -0.14995262   
   1684500   0.063931658   -0.23157512     0             -0.17885253     0.14708766   
   1685000   0.071107806   -0.22010243     0             -0.16146188    -0.2801395    
   1685500   0.064540562   -0.22557076     0             -0.17234603     0.12183936   
   1686000   0.070967689   -0.22120685     0             -0.16268185     0.099383919  
   1686500   0.072558735   -0.22101231     0             -0.16117523     0.085369188  
   1687000   0.073368774   -0.22351752     0             -0.16301241    -0.1190872    
   1687500   0.066382017   -0.22565397     0             -0.17091064    -0.011904813  
   1688000   0.072555026   -0.22814924     0             -0.16831521    -0.066820646  
   1688500   0.059707628   -0.22350713     0             -0.17426798     0.2535626    
   1689000   0.059981604   -0.22244076     0             -0.17297567    -0.45111413   
   1689500   0.057784009   -0.2317218      0             -0.184069      -0.18722065   
   1690000   0.06670331    -0.23021075     0             -0.17520246     0.19494      
   1690500   0.069611841   -0.22818715     0             -0.17078028    -0.42922193   
   1691000   0.069900909   -0.22631823     0             -0.16867298     0.16816361   
   1691500   0.061856142   -0.22630282     0             -0.17529186    -0.22192499   
   1692000   0.064617541   -0.23076045     0             -0.17747223    -0.57247246   
   1692500   0.074510346   -0.23521354     0             -0.17376701     0.092801347  
   1693000   0.067394454   -0.23020676     0             -0.1746285     -0.25491208   
   1693500   0.063981024   -0.23104633     0             -0.17828303     0.20657456   
   1694000   0.07055242    -0.23077096     0             -0.17258843    -0.49749899   
   1694500   0.074124907   -0.23127857     0             -0.17014991     0.050362619  
   1695000   0.070692456   -0.22654346     0             -0.16824544    -0.23796277   
   1695500   0.068022362   -0.23101923     0             -0.17492316     0.058358855  
   1696000   0.06634179    -0.2329966      0             -0.17828644     0.25704285   
   1696500   0.067094484   -0.23136606     0             -0.17603518    -0.34613547   
   1697000   0.068327598   -0.22963116     0             -0.17328337    -0.092466045  
   1697500   0.066911086   -0.23259188     0             -0.17741225     0.24526983   
   1698000   0.064809761   -0.23327484     0             -0.17982811     0.03534785   
   1698500   0.067079531   -0.2325406      0             -0.17722205     0.1771153    
   1699000   0.064568206   -0.23424806     0             -0.18100053     0.21723473   
   1699500   0.063768345   -0.23759046     0             -0.18500255    -0.17207702   
   1700000   0.063892278   -0.23896011     0             -0.18627       -0.56189239   
   1700500   0.065277781   -0.23554008     0             -0.18170739     0.059542912  
   1701000   0.073366286   -0.23534058     0             -0.17483753     0.11598225   
   1701500   0.071796908   -0.23125132     0             -0.17204249    -0.11439558   
   1702000   0.074313348   -0.23129194     0             -0.17000787    -0.43329801   
   1702500   0.074047587   -0.23097856     0             -0.16991365    -0.024617954  
   1703000   0.072557553   -0.23004704     0             -0.17021093     0.40702137   
   1703500   0.067186328   -0.23430308     0             -0.17889646    -0.12157246   
   1704000   0.065539419   -0.23434791     0             -0.18029945     0.56423987   
   1704500   0.068160643   -0.23596761     0             -0.1797575     -0.057645936  
   1705000   0.060170431   -0.23194395     0             -0.18232314    -0.42692529   
   1705500   0.058308872   -0.23408076     0             -0.18599512     0.39999358   
   1706000   0.063533482   -0.22941441     0             -0.17702019     0.16584423   
   1706500   0.070427984   -0.2314124      0             -0.17333248    -0.21166852   
   1707000   0.065547632   -0.23624199     0             -0.18218676    -0.21545933   
   1707500   0.065074274   -0.23399196     0             -0.18032709    -0.031787559  
   1708000   0.057305594   -0.23748676     0             -0.1902285     -0.12237384   
   1708500   0.06370803    -0.23663574     0             -0.18409757     0.32567682   
   1709000   0.067090332   -0.23544344     0             -0.18011598     0.17531613   
   1709500   0.073670761   -0.23418165     0             -0.17342751    -0.067689533  
   1710000   0.070092768   -0.2331225      0             -0.17531902    -0.10804788   
   1710500   0.068144073   -0.23183342     0             -0.17563698    -0.25898207   
   1711000   0.066701248   -0.23429642     0             -0.17928983     0.39747966   
   1711500   0.062862741   -0.23096895     0             -0.17912787    -0.043242641  
   1712000   0.067227437   -0.23223305     0             -0.17679253     0.22701341   
   1712500   0.06183603    -0.23178719     0             -0.1807928      0.10770685   
   1713000   0.06100684    -0.23790293     0             -0.18759236     0.019744391  
   1713500   0.059966224   -0.2343649      0             -0.1849125     -0.24657864   
   1714000   0.063307104   -0.23150702     0             -0.17929949     0.00035701761
   1714500   0.059768263   -0.23604867     0             -0.18675952    -0.57581798   
   1715000   0.063169101   -0.23709422     0             -0.18500049    -0.01536288   
   1715500   0.072767415   -0.23333019     0             -0.17332101    -0.088448788  
   1716000   0.065715655   -0.23248407     0             -0.17829027     0.49312787   
   1716500   0.064456902   -0.23311175     0             -0.17995601    -0.18042164   
   1717000   0.058703556   -0.23983394     0             -0.19142281     0.044783847  
   1717500   0.063570018   -0.23754569     0             -0.18512134    -0.25740942   
   1718000   0.068339578   -0.22977769     0             -0.17342002     0.26123765   
   1718500   0.066504555   -0.234157       0             -0.17931262    -0.011512795  
   1719000   0.075417751   -0.23300226     0             -0.17080742    -0.30235804   
   1719500   0.069518688   -0.23193362     0             -0.17460357    -0.25289336   
   1720000   0.070071241   -0.23244838     0             -0.17466265     0.35728416   
   1720500   0.064447069   -0.23451254     0             -0.18136491     0.29816619   
   1721000   0.063044151   -0.22847578     0             -0.1764851     -0.27140522   
   1721500   0.066898539   -0.23327109     0             -0.1781018     -0.46314223   
   1722000   0.062411865   -0.23200787     0             -0.18053861     0.23789486   
   1722500   0.06581383    -0.23571057     0             -0.18143581    -0.010123851  
   1723000   0.069856195   -0.23111113     0             -0.17350275     0.085556443  
   1723500   0.06454429    -0.23453821     0             -0.1813104     -0.1371549    
   1724000   0.074090114   -0.2302914      0             -0.16919142    -0.16090541   
   1724500   0.060487221   -0.23227241     0             -0.18239035     0.086659583  
   1725000   0.069817312   -0.23196743     0             -0.17439112     0.07875961   
   1725500   0.063332009   -0.23330125     0             -0.18107318    -0.85359841   
   1726000   0.05747286    -0.2325597      0             -0.18516349    -0.16492613   
   1726500   0.05612265    -0.23717254     0             -0.19088982     0.20511548   
   1727000   0.065277266   -0.23444243     0             -0.18061016    -0.35054331   
   1727500   0.056758817   -0.23487752     0             -0.18807017     0.10251387   
   1728000   0.062092536   -0.2335843      0             -0.18237838     0.11332699   
   1728500   0.06125165    -0.23878459     0             -0.18827212    -0.18540588   
   1729000   0.061800019   -0.23475855     0             -0.18379386     0.34886092   
   1729500   0.073177852   -0.23396308     0             -0.17361543    -0.91524739   
   1730000   0.06597164    -0.23038242     0             -0.17597752    -0.28697051   
   1730500   0.061543463   -0.23079227     0             -0.18003915     0.33333773   
   1731000   0.064311431   -0.22520952     0             -0.17217374    -0.13942869   
   1731500   0.06248665    -0.23042112     0             -0.17889019    -0.3863701    
   1732000   0.067277262   -0.2284977      0             -0.17301609     0.068086896  
   1732500   0.07110136    -0.22723002     0             -0.16859479    -0.075568516  
   1733000   0.065781558   -0.22748551     0             -0.17323736    -0.29464448   
   1733500   0.062478257   -0.23301884     0             -0.18149483    -0.32398764   
   1734000   0.06828377    -0.23397941     0             -0.17766776    -0.24234586   
   1734500   0.064693526   -0.2329304      0             -0.17957952     0.22960645   
   1735000   0.062382325   -0.23162941     0             -0.18018451     0.22278436   
   1735500   0.059331719   -0.22696539     0             -0.17803624    -0.0084682605 
   1736000   0.058772682   -0.23388126     0             -0.18541313     0.052250616  
   1736500   0.063956261   -0.23138338     0             -0.1786405      0.33128282   
   1737000   0.063242484   -0.23214132     0             -0.17998708    -0.03503304   
   1737500   0.062261099   -0.23351902     0             -0.1821741      0.64835199   
   1738000   0.061045819   -0.23655711     0             -0.18621439     0.39050904   
   1738500   0.061923092   -0.22817122     0             -0.17710504    -0.30036648   
   1739000   0.062133447   -0.23201494     0             -0.18077528     0.48803703   
   1739500   0.061244161   -0.23249383     0             -0.18198755     0.39456903   
   1740000   0.068643557   -0.23236735     0             -0.17575899    -0.035569327  
   1740500   0.074958271   -0.22496862     0             -0.16315271     0.063454989  
   1741000   0.073482163   -0.22650317     0             -0.16590455    -0.27000655   
   1741500   0.064843629   -0.22610731     0             -0.17263265    -0.05102563   
   1742000   0.072927955   -0.22982185     0             -0.16968027     0.012024239  
   1742500   0.07304634    -0.22797992     0             -0.16774072    -0.18218265   
   1743000   0.072886399   -0.22877964     0             -0.16867233     0.41730104   
   1743500   0.066611481   -0.23068247     0             -0.17574991     0.27111288   
   1744000   0.072257164   -0.23037746     0             -0.17078907     0.36869107   
   1744500   0.069382248   -0.2309941      0             -0.17377657    -0.23732252   
   1745000   0.06077183    -0.23137943     0             -0.18126266     0.054461442  
   1745500   0.056633007   -0.22905306     0             -0.18234945     0.30624035   
   1746000   0.062430854   -0.2300646      0             -0.17857968     0.36575977   
   1746500   0.063985389   -0.22536961     0             -0.17260271    -0.13994398   
   1747000   0.06494775    -0.22573293     0             -0.1721724     -0.032696354  
   1747500   0.058987675   -0.22610576     0             -0.17746033     0.079612227  
   1748000   0.052760286   -0.22814146     0             -0.18463158     0.28048862   
   1748500   0.064795525   -0.22647946     0             -0.17304446     0.15847267   
   1749000   0.05985848    -0.22674155     0             -0.177378      -0.43442013   
   1749500   0.060700499   -0.23014879     0             -0.18009085     0.14155254   
   1750000   0.058791548   -0.23018324     0             -0.18169955     0.23665838   
   1750500   0.063279398   -0.233332       0             -0.18114732     0.39981228   
   1751000   0.055472686   -0.23391075     0             -0.18816403     0.34265974   
   1751500   0.059245299   -0.23393964     0             -0.18508176     0.32881485   
   1752000   0.076304217   -0.22356548     0             -0.1606396      0.15583866   
   1752500   0.06374058    -0.2298635      0             -0.17729849    -0.033907625  
   1753000   0.069928619   -0.22754766     0             -0.16987955    -0.057675215  
   1753500   0.069052919   -0.22602986     0             -0.16908391    -0.13399309   
   1754000   0.073040377   -0.22568541     0             -0.16545112     0.24045241   
   1754500   0.072402447   -0.22600914     0             -0.16630094    -0.093974085  
   1755000   0.066694511   -0.2256544      0             -0.17065336    -0.1239434    
   1755500   0.069529041   -0.22426603     0             -0.16692744     0.060084062  
   1756000   0.065861559   -0.22191072     0             -0.16759659    -0.014409872  
   1756500   0.066114589   -0.23021844     0             -0.17569565    -0.035188507  
   1757000   0.063716044   -0.22202185     0             -0.16947708    -0.23237733   
   1757500   0.065961088   -0.22566505     0             -0.17126885     0.15662013   
   1758000   0.062762173   -0.22173308     0             -0.16997493     0.48923272   
   1758500   0.060105038   -0.22383809     0             -0.17427121     0.07410841   
   1759000   0.065053117   -0.23535053     0             -0.18170311    -0.37449605   
   1759500   0.068983562   -0.2261356      0             -0.16924685    -0.19866763   
   1760000   0.072657501   -0.22499603     0             -0.16507749     0.24003166   
   1760500   0.073210237   -0.22183901     0             -0.16146465     0.070996622  
   1761000   0.078497842   -0.21847816     0             -0.15374327    -0.49970775   
   1761500   0.06685739    -0.2229324      0             -0.16779705     0.40960869   
   1762000   0.064357995   -0.22199604     0             -0.16892187     0.56504386   
   1762500   0.073794906   -0.22276675     0             -0.16191023     0.031975641  
   1763000   0.073958816   -0.22131675     0             -0.16032505    -0.62741723   
   1763500   0.071412147   -0.2230496      0             -0.16415806    -0.33397334   
   1764000   0.063707155   -0.21764532     0             -0.16510787     0.035422178  
   1764500   0.066490503   -0.22394965     0             -0.16911685    -0.23454878   
   1765000   0.069457012   -0.21998981     0             -0.16271063    -0.31624978   
   1765500   0.071513143   -0.22102863     0             -0.16205381     0.10342985   
   1766000   0.071813063   -0.22278449     0             -0.16356233    -0.3722316    
   1766500   0.068285024   -0.22507141     0             -0.16875872     0.20303005   
   1767000   0.070914164   -0.22175848     0             -0.16327762     0.068726905  
   1767500   0.077744566   -0.22391488     0             -0.15980119    -0.58601452   
   1768000   0.066881524   -0.22426159     0             -0.16910633     0.20236615   
   1768500   0.073979303   -0.22028785     0             -0.15927926    -0.084911169  
   1769000   0.076022899   -0.21970595     0             -0.15701206     0.017553508  
   1769500   0.075354902   -0.2216683      0             -0.1595253     -0.54550992   
   1770000   0.070110988   -0.22054534     0             -0.16272683     0.22385322   
   1770500   0.072560952   -0.22520669     0             -0.16536778    -0.23520705   
   1771000   0.069844799   -0.22435547     0             -0.16675648     0.24131773   
   1771500   0.076829533   -0.22165669     0             -0.1582976      0.38043697   
   1772000   0.085696107   -0.21855738     0             -0.14788629    -0.27509488   
   1772500   0.066335357   -0.22392736     0             -0.16922251    -0.2963474    
   1773000   0.074529994   -0.22295918     0             -0.16149645     0.19278473   
   1773500   0.075807111   -0.21774184     0             -0.15522591    -0.18034573   
   1774000   0.063397868   -0.21842987     0             -0.16614748     0.087460383  
   1774500   0.063935921   -0.22318516     0             -0.17045906     0.16556047   
   1775000   0.072059917   -0.22079916     0             -0.16137343    -0.045793049  
   1775500   0.06518592    -0.22269916     0             -0.16894222     0.081528555  
   1776000   0.068691851   -0.21875595     0             -0.16210777     0.39261335   
   1776500   0.065356064   -0.2217503      0             -0.16785305     0.16730889   
   1777000   0.06703968    -0.22453555     0             -0.16924987    -0.015041834  
   1777500   0.072409821   -0.2219676      0             -0.16225331    -0.25694214   
   1778000   0.070067602   -0.21935745     0             -0.16157473    -0.058528646  
   1778500   0.066635438   -0.22657326     0             -0.17162094    -0.21940347   
   1779000   0.067419041   -0.22382489     0             -0.16822636    -0.10956856   
   1779500   0.071388027   -0.21663181     0             -0.15776017    -0.52324425   
   1780000   0.065019611   -0.21784064     0             -0.16422085    -0.28510471   
   1780500   0.067151538   -0.21840364     0             -0.16302571     0.5255853    
   1781000   0.06456339    -0.21953148     0             -0.16628792    -0.032744883  
   1781500   0.059865684   -0.22018215     0             -0.17081266    -0.44318743   
   1782000   0.057646357   -0.21831692     0             -0.17077764    -0.40970022   
   1782500   0.058989572   -0.22080949     0             -0.1721625      0.12761205   
   1783000   0.065881063   -0.21014623     0             -0.15581603     0.16546662   
   1783500   0.064080922   -0.21540075     0             -0.16255507    -0.1567451    
   1784000   0.060270466   -0.22185233     0             -0.17214902    -0.34018291   
   1784500   0.064179184   -0.21579113     0             -0.16286441    -0.45993902   
   1785000   0.068460475   -0.22108528     0             -0.16462791    -0.025841501  
   1785500   0.077803213   -0.22509431     0             -0.16093225     0.057868049  
   1786000   0.07261564    -0.21681555     0             -0.15693153    -0.0039326345 
   1786500   0.073738948   -0.22051818     0             -0.15970781     0.29680286   
   1787000   0.075708254   -0.2209501      0             -0.1585157      0.21976265   
   1787500   0.067944313   -0.21982971     0             -0.163798      -0.29549984   
   1788000   0.069870177   -0.22059933     0             -0.16297942     0.21901383   
   1788500   0.067325177   -0.21339077     0             -0.15786965     0.072847833  
   1789000   0.058988937   -0.22016865     0             -0.17152218     0.086710869  
   1789500   0.062379648   -0.22014536     0             -0.16870267     0.08952388   
   1790000   0.064117798   -0.22124263     0             -0.16836654     0.14574435   
   1790500   0.066528549   -0.21665627     0             -0.1617921     -0.10944088   
   1791000   0.063742277   -0.21534562     0             -0.16277921    -0.32759579   
   1791500   0.067944009   -0.21583193     0             -0.15980047    -0.32112597   
   1792000   0.070373283   -0.21247758     0             -0.15444277     0.028615866  
   1792500   0.065398061   -0.21612748     0             -0.1621956     -0.062899916  
   1793000   0.062903838   -0.21863641     0             -0.16676143    -0.22038018   
   1793500   0.072865045   -0.21933999     0             -0.1592503     -0.27884053   
   1794000   0.066140299   -0.2133872      0             -0.15884321    -0.27153509   
   1794500   0.062367553   -0.21481504     0             -0.16338232    -0.010374767  
   1795000   0.065568507   -0.21773742     0             -0.16366497     0.59434771   
   1795500   0.059231635   -0.21631634     0             -0.16746972    -0.13148859   
   1796000   0.05942723    -0.21831775     0             -0.16930983     0.24648281   
   1796500   0.063013059   -0.22155137     0             -0.16958632    -0.50530902   
   1797000   0.058823553   -0.21937617     0             -0.17086609    -0.16147549   
   1797500   0.065077336   -0.21866104     0             -0.16499364    -0.667338     
   1798000   0.069264175   -0.22001655     0             -0.16289639    -0.13434492   
   1798500   0.072058788   -0.21748937     0             -0.15806458     0.35400263   
   1799000   0.069203044   -0.22303035     0             -0.1659606     -0.056259905  
   1799500   0.073349362   -0.21766369     0             -0.15717459     0.42473749   
   1800000   0.062501915   -0.22006531     0             -0.16852179     0.36976241   
   1800500   0.068561911   -0.22154158     0             -0.16500056     0.13681392   
   1801000   0.062483249   -0.22303922     0             -0.17151109     0.36622873   
   1801500   0.074594082   -0.21990833     0             -0.15839275     0.072670513  
   1802000   0.065224779   -0.21695994     0             -0.16317095    -0.067692609  
   1802500   0.066762563   -0.21483608     0             -0.15977893     0.057203757  
   1803000   0.064598751   -0.21849528     0             -0.16522256    -0.6808406    
   1803500   0.063154636   -0.21850408     0             -0.16642228     0.17853185   
   1804000   0.066579811   -0.21686081     0             -0.16195437     0.15469002   
   1804500   0.058493322   -0.21687712     0             -0.16863937    -0.16513033   
   1805000   0.064593811   -0.22337634     0             -0.17010769     0.083414284  
   1805500   0.066346684   -0.22102446     0             -0.16631028    -0.22181647   
   1806000   0.070247071   -0.21845965     0             -0.16052892    -0.23159852   
   1806500   0.07971047    -0.22107523     0             -0.15534031    -0.57265718   
   1807000   0.062998639   -0.22008894     0             -0.16813579    -0.4266084    
   1807500   0.060820537   -0.22157183     0             -0.17141489    -0.069100999  
   1808000   0.057915288   -0.22063651     0             -0.17287545    -0.38209098   
   1808500   0.052656481   -0.22316099     0             -0.17973671     0.23961032   
   1809000   0.05906291    -0.22145797     0             -0.1727505     -0.20096507   
   1809500   0.056879228   -0.22053588     0             -0.17362923     0.24353062   
   1810000   0.059485028   -0.22785042     0             -0.17879484    -0.051775387  
   1810500   0.056776853   -0.22492202     0             -0.17809979     0.3514282    
   1811000   0.054292179   -0.22403515     0             -0.17926197    -0.42933798   
   1811500   0.058980307   -0.22378473     0             -0.17514538     0.078787674  
   1812000   0.061226931   -0.22361055     0             -0.17311847    -0.42642224   
   1812500   0.06593623    -0.2231594      0             -0.1687837      0.38572575   
   1813000   0.072691302   -0.21725102     0             -0.15730461     0.012783153  
   1813500   0.067424268   -0.22208864     0             -0.1664858      0.31766629   
   1814000   0.070855357   -0.21725695     0             -0.15882459    -0.069378384  
   1814500   0.068195522   -0.2218974      0             -0.16565853    -0.01013067   
   1815000   0.069004611   -0.22449889     0             -0.16759278     0.026616956  
   1815500   0.075099324   -0.22006532     0             -0.15813308    -0.32676362   
   1816000   0.066260707   -0.2242035      0             -0.16956022    -0.091775767  
   1816500   0.073761441   -0.22007785     0             -0.15924893     0.23315734   
   1817000   0.068991836   -0.22311205     0             -0.16621648    -0.69097567   
   1817500   0.067567762   -0.21928141     0             -0.16356023    -0.49164407   
   1818000   0.076650329   -0.21539161     0             -0.1521803     -0.42943826   
   1818500   0.068479256   -0.21911331     0             -0.16264045     0.21252176   
   1819000   0.066465776   -0.2187246      0             -0.1639122      0.31517447   
   1819500   0.065259506   -0.21791638     0             -0.16409876    -0.12078368   
   1820000   0.063156509   -0.21628239     0             -0.16419905    -0.20772075   
   1820500   0.066118437   -0.21423482     0             -0.15970886    -0.10625986   
   1821000   0.067723812   -0.21493479     0             -0.15908492    -0.34654196   
   1821500   0.062714236   -0.2166848      0             -0.16496618     0.74073414   
   1822000   0.063242125   -0.21845996     0             -0.16630601    -0.024637513  
   1822500   0.065662937   -0.21664386     0             -0.16249354     0.25425168   
   1823000   0.059942902   -0.21504554     0             -0.16561236     0.1518466    
   1823500   0.058483626   -0.21628079     0             -0.16805104     0.44312806   
   1824000   0.064331619   -0.21904113     0             -0.1659887     -0.028576027  
   1824500   0.073460196   -0.2158119      0             -0.1552314      0.25022184   
   1825000   0.063324116   -0.21856354     0             -0.16634198     0.7199495    
   1825500   0.064198537   -0.21236726     0             -0.15942458    -0.13746839   
   1826000   0.06894656    -0.21676291     0             -0.15990468     0.050990378  
   1826500   0.059561107   -0.22187107     0             -0.17275275    -0.40386542   
   1827000   0.065292575   -0.22119604     0             -0.16735114     0.079627932  
   1827500   0.065175077   -0.22488193     0             -0.17113393    -0.29578851   
   1828000   0.076110001   -0.21857286     0             -0.15580714    -0.39049971   
   1828500   0.076135322   -0.21515654     0             -0.15236995     0.045688798  
   1829000   0.074666264   -0.22045946     0             -0.15888436     0.58124912   
   1829500   0.080806646   -0.21677095     0             -0.15013205     0.14195815   
   1830000   0.068017566   -0.21468535     0             -0.15859323    -0.053753486  
   1830500   0.067974251   -0.22078798     0             -0.16473158     0.20181598   
   1831000   0.058673411   -0.22040345     0             -0.17201719    -0.68506252   
   1831500   0.0610756     -0.22192958     0             -0.1715623      0.1717697    
   1832000   0.076677066   -0.21556034     0             -0.15232699     0.33505114   
   1832500   0.070350635   -0.22165479     0             -0.16363866    -0.29679215   
   1833000   0.08234737    -0.22000643     0             -0.15209693     0.084556967  
   1833500   0.067950517   -0.21991745     0             -0.16388062    -0.033467776  
   1834000   0.064756214   -0.21931257     0             -0.16591        0.24385876   
   1834500   0.064805098   -0.22017305     0             -0.16673017    -0.35932774   
   1835000   0.064708484   -0.21871545     0             -0.16535223    -0.41178714   
   1835500   0.066996997   -0.22188218     0             -0.16663169    -0.058737432  
   1836000   0.069518253   -0.22221455     0             -0.16488486    -0.012048987  
   1836500   0.066078077   -0.2252777      0             -0.17078502     0.73236286   
   1837000   0.064640918   -0.2243021      0             -0.17099461    -0.32186275   
   1837500   0.066671974   -0.22921111     0             -0.17422866     0.44418839   
   1838000   0.06691579    -0.22198254     0             -0.16679902     0.50305244   
   1838500   0.068048916   -0.2262209      0             -0.17010293     0.42581403   
   1839000   0.071444528   -0.2258174      0             -0.16689916     0.0181841    
   1839500   0.06619304    -0.22660317     0             -0.17201569    -0.23494162   
   1840000   0.060120523   -0.22591838     0             -0.17633872    -0.016499542  
   1840500   0.067517318   -0.22258113     0             -0.16690155     0.056002615  
   1841000   0.070286401   -0.22459691     0             -0.16663375    -0.35996979   
   1841500   0.066537103   -0.22571986     0             -0.17084863     0.16836949   
   1842000   0.07468091    -0.21903475     0             -0.15744757    -0.39374216   
   1842500   0.073622688   -0.21913949     0             -0.15842499     0.15448926   
   1843000   0.072725299   -0.22079783     0             -0.16082338     0.24780165   
   1843500   0.068549445   -0.22786183     0             -0.17133109    -0.2898766    
   1844000   0.067519048   -0.2208602      0             -0.16517919     0.23032908   
   1844500   0.063172251   -0.22019093     0             -0.1680946     -0.77011665   
   1845000   0.068673305   -0.219842       0             -0.16320912    -0.024203356  
   1845500   0.065245358   -0.21921722     0             -0.16541127     0.34471885   
   1846000   0.0684788     -0.21966981     0             -0.16319733     0.098893263  
   1846500   0.066996831   -0.22001768     0             -0.16476733    -0.38957202   
   1847000   0.072654758   -0.2225405      0             -0.16262423     0.04425725   
   1847500   0.064234714   -0.21782639     0             -0.16485389     0.02246219   
   1848000   0.066504056   -0.22096503     0             -0.16612106    -0.13522661   
   1848500   0.065451785   -0.22367288     0             -0.16969669     0.076425614  
   1849000   0.065361743   -0.21800672     0             -0.16410479     0.26762294   
   1849500   0.061800058   -0.21854232     0             -0.1675776      0.031831808  
   1850000   0.065142605   -0.21985645     0             -0.16613523    -0.088260595  
   1850500   0.06182185    -0.21895041     0             -0.16796772    -0.38490375   
   1851000   0.060599887   -0.22086375     0             -0.17088878     0.049458538  
   1851500   0.062982302   -0.22030921     0             -0.16836953    -0.43279968   
   1852000   0.063392988   -0.21653745     0             -0.16425909    -0.15167919   
   1852500   0.072932372   -0.21840172     0             -0.1582565      0.72016606   
   1853000   0.075017643   -0.21930854     0             -0.15744366    -0.23974832   
   1853500   0.06851163    -0.21181149     0             -0.15531194     0.18583859   
   1854000   0.075875923   -0.214801       0             -0.15222833     0.37415118   
   1854500   0.074432536   -0.21192526     0             -0.1505429     -0.41010433   
   1855000   0.070988443   -0.21139432     0             -0.15285221     0.14186842   
   1855500   0.071565129   -0.21552748     0             -0.15650979     0.72099856   
   1856000   0.071109478   -0.21497832     0             -0.15633639    -0.14740831   
   1856500   0.065436566   -0.21437519     0             -0.16041154     0.29328347   
   1857000   0.065909148   -0.21312291     0             -0.15876954     0.1984542    
   1857500   0.068133189   -0.21174798     0             -0.15556051    -0.21360913   
   1858000   0.073864765   -0.21606818     0             -0.15515405     0.56722452   
   1858500   0.072070995   -0.22394097     0             -0.16450611    -0.23255654   
   1859000   0.074631459   -0.22526338     0             -0.16371697    -0.39086884   
   1859500   0.069036087   -0.22048193     0             -0.16354986    -0.674531     
   1860000   0.071051263   -0.22281108     0             -0.16421716    -0.14664095   
   1860500   0.074026508   -0.21995573     0             -0.15890821     0.2648458    
   1861000   0.06836659    -0.22354494     0             -0.16716499     0.095322575  
   1861500   0.064373963   -0.22760185     0             -0.1745145     -0.27140246   
   1862000   0.066297312   -0.22433839     0             -0.16966491    -0.32020382   
   1862500   0.061026502   -0.22591145     0             -0.17558466     0.18697074   
   1863000   0.060370477   -0.23139133     0             -0.18160554    -0.21432472   
   1863500   0.063831265   -0.22828616     0             -0.17564636     0.20215639   
   1864000   0.065728908   -0.22348982     0             -0.16928509     0.13536586   
   1864500   0.066205946   -0.22662642     0             -0.17202829     0.50776397   
   1865000   0.062262136   -0.23091414     0             -0.17956836    -0.42312997   
   1865500   0.056163734   -0.22921265     0             -0.18289604     0.18205298   
   1866000   0.059832489   -0.23328209     0             -0.18393997    -0.18482982   
   1866500   0.059881948   -0.23420138     0             -0.18481847     0.35815421   
   1867000   0.059355276   -0.23297003     0             -0.18402145     0.11343767   
   1867500   0.055722594   -0.23484538     0             -0.18889257    -0.27522149   
   1868000   0.056414539   -0.23693858     0             -0.19041515     0.029428679  
   1868500   0.058578876   -0.23455521     0             -0.18624691     0.23141018   
   1869000   0.075326992   -0.22772409     0             -0.1656041      0.018048798  
   1869500   0.069800999   -0.23171879     0             -0.17415593    -0.66284773   
   1870000   0.06651111    -0.22764934     0             -0.17279955    -0.45166052   
   1870500   0.062161088   -0.2263294      0             -0.17506695     0.14162323   
   1871000   0.067069758   -0.23156429     0             -0.1762538      0.053017107  
   1871500   0.077490222   -0.228458       0             -0.16455406     0.061137911  
   1872000   0.065604844   -0.22967034     0             -0.17556793    -0.071851633  
   1872500   0.078070029   -0.23183874     0             -0.16745665    -0.32980768   
   1873000   0.067781938   -0.22562731     0             -0.16972951    -0.42403725   
   1873500   0.064640934   -0.22771086     0             -0.17440335    -0.0057115602 
   1874000   0.066893586   -0.22987529     0             -0.17471008     0.2066941    
   1874500   0.065461378   -0.22712736     0             -0.17314326    -0.00084918817
   1875000   0.06757613    -0.22909787     0             -0.17336979     0.25470462   
   1875500   0.073296824   -0.22725749     0             -0.16681172    -0.076550454  
   1876000   0.072913418   -0.23217734     0             -0.17204776    -0.37888613   
   1876500   0.062432118   -0.22278002     0             -0.17129406    -0.086680081  
   1877000   0.067605785   -0.22779557     0             -0.17204303    -0.1234024    
   1877500   0.060233938   -0.22545232     0             -0.17577914     0.22741133   
   1878000   0.057079344   -0.22665538     0             -0.1795837     -0.087535139  
   1878500   0.065829616   -0.22478637     0             -0.17049859    -0.11383923   
   1879000   0.061723174   -0.22559025     0             -0.17468894     0.12939986   
   1879500   0.063097184   -0.226881       0             -0.17484658    -0.38046862   
   1880000   0.071404518   -0.2293885      0             -0.17050326    -0.45952192   
   1880500   0.065444932   -0.22630037     0             -0.17232983     0.67025157   
   1881000   0.06536675    -0.22617191     0             -0.17226584     0.076118728  
   1881500   0.063924974   -0.22942387     0             -0.17670679     0.35764389   
   1882000   0.063707346   -0.23078264     0             -0.17824504    -0.079000052  
   1882500   0.066502402   -0.22834602     0             -0.17350342     0.69224528   
   1883000   0.06399692    -0.23223451     0             -0.1794581     -0.32214621   
   1883500   0.063397452   -0.23536193     0             -0.18307988    -0.063994331  
   1884000   0.063392062   -0.23026292     0             -0.17798533     0.058528576  
   1884500   0.063504017   -0.22805347     0             -0.17568354     0.088915446  
   1885000   0.062917662   -0.23092745     0             -0.17904108     0.019772904  
   1885500   0.060368413   -0.22921218     0             -0.17942809    -0.17061694   
   1886000   0.06192755    -0.22972862     0             -0.17865877    -0.30475343   
   1886500   0.063439417   -0.22992701     0             -0.17761036     0.29731497   
   1887000   0.059073928   -0.23309285     0             -0.18437629    -0.43731439   
   1887500   0.057324043   -0.23370564     0             -0.18643216     0.42406434   
   1888000   0.056122452   -0.23411707     0             -0.1878345     -0.19488318   
   1888500   0.069637308   -0.23367269     0             -0.17624482    -0.1542655    
   1889000   0.058041389   -0.23407792     0             -0.18621287     0.065706459  
   1889500   0.05496102    -0.23081409     0             -0.18548932     0.2955373    
   1890000   0.062896582   -0.23162593     0             -0.17975694     0.96439403   
   1890500   0.061659935   -0.23329659     0             -0.18244743     0.18484957   
   1891000   0.066445047   -0.22990765     0             -0.17511234    -0.4241449    
   1891500   0.078763777   -0.22480416     0             -0.15984995    -0.08017852   
   1892000   0.073310071   -0.22403175     0             -0.16357506    -0.2901347    
   1892500   0.072552252   -0.22327716     0             -0.16344542     0.031372871  
   1893000   0.06787724    -0.22317609     0             -0.1671997      0.30880935   
   1893500   0.068191752   -0.22221837     0             -0.1659826      0.63789796   
   1894000   0.073108255   -0.21920085     0             -0.15891059    -0.13808097   
   1894500   0.069594716   -0.22062468     0             -0.16323193    -0.26503305   
   1895000   0.066815032   -0.22289479     0             -0.16779436    -0.42374811   
   1895500   0.069702359   -0.21873686     0             -0.16125535     0.1246054    
   1896000   0.071227287   -0.21894826     0             -0.16020918     0.32097127   
   1896500   0.069040466   -0.22018397     0             -0.1632483     -0.4281554    
   1897000   0.060889004   -0.22408224     0             -0.17386884     0.30686616   
   1897500   0.068734317   -0.21627581     0             -0.15959261    -0.0035529729 
   1898000   0.061363151   -0.21985493     0             -0.16925052    -0.36470669   
   1898500   0.068062397   -0.21401121     0             -0.15788212    -0.3692405    
   1899000   0.061830509   -0.22202552     0             -0.17103569     0.59402919   
   1899500   0.069689934   -0.22018602     0             -0.16271475    -0.27709982   
   1900000   0.069530211   -0.22016049     0             -0.16282093    -0.41135664   
   1900500   0.063414873   -0.21942127     0             -0.16712486    -0.77984028   
   1901000   0.070470159   -0.22247306     0             -0.16435836    -0.060896726  
   1901500   0.065989052   -0.22290172     0             -0.16848246    -0.45843936   
   1902000   0.065221895   -0.21810024     0             -0.16431364    -0.086330254  
   1902500   0.071509892   -0.21772425     0             -0.15875211     0.48836566   
   1903000   0.063140345   -0.22350592     0             -0.1714359      0.0039913406 
   1903500   0.063782285   -0.22538652     0             -0.17278712     0.31914902   
   1904000   0.064693064   -0.22135086     0             -0.16800037     0.46497988   
   1904500   0.068377648   -0.22130419     0             -0.16491512     0.30331982   
   1905000   0.067228433   -0.21419081     0             -0.15874946     0.21038248   
   1905500   0.062802154   -0.21858685     0             -0.16679573    -0.011797017  
   1906000   0.059492377   -0.21599339     0             -0.16693175    -0.111643     
   1906500   0.059967609   -0.21855301     0             -0.16909946     0.23094752   
   1907000   0.05977095    -0.22049781     0             -0.17120644    -0.13628659   
   1907500   0.059967472   -0.21910534     0             -0.1696519     -0.44236443   
   1908000   0.063844377   -0.22365692     0             -0.17100631     0.085220735  
   1908500   0.061661093   -0.22039411     0             -0.16954399    -0.08177262   
   1909000   0.061626235   -0.22127756     0             -0.17045619    -0.21681167   
   1909500   0.067871732   -0.22071332     0             -0.16474147    -0.21132875   
   1910000   0.069834551   -0.22223919     0             -0.16464866    -0.16119867   
   1910500   0.071717481   -0.21948906     0             -0.16034573    -0.21425377   
   1911000   0.072564191   -0.21998886     0             -0.16014728    -0.16940935   
   1911500   0.076253309   -0.21928263     0             -0.15639874     0.30682875   
   1912000   0.076690411   -0.21910425     0             -0.15585989    -0.037041538  
   1912500   0.067097503   -0.21697941     0             -0.16164604    -0.0013473092 
   1913000   0.066986772   -0.21968908     0             -0.16444703    -0.19144261   
   1913500   0.069674947   -0.22245812     0             -0.16499921     0.085583344  
   1914000   0.067157401   -0.21812334     0             -0.16274058     0.34121179   
   1914500   0.063819689   -0.22247863     0             -0.16984838    -0.4019798    
   1915000   0.067600764   -0.22393004     0             -0.16818165    -0.41329487   
   1915500   0.071204402   -0.22048576     0             -0.16176555    -0.40425837   
   1916000   0.079752228   -0.21861139     0             -0.15284203     0.22294299   
   1916500   0.067113883   -0.21705552     0             -0.16170864     0.11398651   
   1917000   0.071912022   -0.21712117     0             -0.15781741    -0.13824212   
   1917500   0.068309287   -0.2133958      0             -0.15706311     0.10713756   
   1918000   0.066424196   -0.21574967     0             -0.16097156     0.34022578   
   1918500   0.062016898   -0.21512044     0             -0.1639769      0.041200351  
   1919000   0.05759532    -0.22046975     0             -0.17297256    -0.50618761   
   1919500   0.06169138    -0.2286098      0             -0.17773471     0.11900651   
   1920000   0.065584227   -0.21655487     0             -0.16246945     0.14122388   
   1920500   0.06588448    -0.22194002     0             -0.167607       0.35631067   
   1921000   0.067419744   -0.2193841      0             -0.16378499     0.16347988   
   1921500   0.068563846   -0.21904665     0             -0.16250403    -0.032434983  
   1922000   0.061881402   -0.22063586     0             -0.16960405    -0.28903001   
   1922500   0.0690835     -0.22121429     0             -0.16424313    -0.046983289  
   1923000   0.061494762   -0.21770779     0             -0.16699484    -0.051677631  
   1923500   0.060180739   -0.2206145      0             -0.17098518     0.58735509   
   1924000   0.069314424   -0.21844988     0             -0.16128828     0.13739147   
   1924500   0.068665863   -0.22034018     0             -0.16371343     0.038542678  
   1925000   0.065447381   -0.22130073     0             -0.16732817     0.17059021   
   1925500   0.070881531   -0.21794081     0             -0.15948686     0.088464024  
   1926000   0.070980067   -0.21777271     0             -0.1592375      0.43257608   
   1926500   0.062264856   -0.22009567     0             -0.16874764     0.32014303   
   1927000   0.068814048   -0.22693589     0             -0.17018694    -0.10937266   
   1927500   0.061774825   -0.22483984     0             -0.17389593     0.20263822   
   1928000   0.063979378   -0.22438661     0             -0.17162467     0.11923988   
   1928500   0.07740636    -0.21474059     0             -0.1509058     -0.092571146  
   1929000   0.071701881   -0.21997097     0             -0.16084051     0.32265893   
   1929500   0.073814226   -0.21927383     0             -0.15840138    -0.17946595   
   1930000   0.067439666   -0.21294886     0             -0.15733332     0.35050637   
   1930500   0.065075051   -0.21368055     0             -0.16001504     0.004183587  
   1931000   0.065545328   -0.21517335     0             -0.16112001    -0.33169773   
   1931500   0.060614797   -0.21342515     0             -0.16343788     0.40022751   
   1932000   0.063672333   -0.21562188     0             -0.16311315     0.29110971   
   1932500   0.062947502   -0.21531876     0             -0.16340778     0.15860108   
   1933000   0.072184386   -0.21430629     0             -0.15477792     0.068102959  
   1933500   0.066293848   -0.21548212     0             -0.1608115     -0.42659111   
   1934000   0.063042803   -0.21530317     0             -0.1633136     -0.30599261   
   1934500   0.067175251   -0.21341356     0             -0.15801608     0.38523975   
   1935000   0.067036402   -0.21452906     0             -0.15924608    -0.057263808  
   1935500   0.065856134   -0.21821923     0             -0.16390958    -0.34876239   
   1936000   0.067550829   -0.21739418     0             -0.16168697    -0.045438836  
   1936500   0.063028698   -0.21659657     0             -0.16461863     0.95973767   
   1937000   0.063791598   -0.2174744      0             -0.16486731    -0.69882435   
   1937500   0.062836759   -0.21810519     0             -0.16628554     0.018821746  
   1938000   0.066167479   -0.22270148     0             -0.16813507    -0.025482951  
   1938500   0.065424725   -0.21860721     0             -0.16465334    -0.13902057   
   1939000   0.06804713    -0.21736543     0             -0.16124893    -0.24458606   
   1939500   0.072834091   -0.21494841     0             -0.15488425     0.16244911   
   1940000   0.067165183   -0.22094422     0             -0.16555504     0.11230857   
   1940500   0.065134058   -0.22395147     0             -0.1702373     -0.0060717318 
   1941000   0.070101411   -0.21985534     0             -0.16204473    -0.43592343   
   1941500   0.063247628   -0.21981575     0             -0.16765726    -0.55448866   
   1942000   0.057949431   -0.22341258     0             -0.17562337     0.085334406  
   1942500   0.056570217   -0.22587449     0             -0.17922267     0.097042839  
   1943000   0.057610301   -0.22639041     0             -0.17888086     0.035690089  
   1943500   0.061132812   -0.22605161     0             -0.17563715     0.085699028  
   1944000   0.064296759   -0.23087216     0             -0.17784848     0.1465298    
   1944500   0.067230374   -0.22451017     0             -0.16906723     0.068022532  
   1945000   0.064870269   -0.22784793     0             -0.1743513      0.32680994   
   1945500   0.076132694   -0.22898862     0             -0.16620419     1.0135045    
   1946000   0.066206566   -0.2262627      0             -0.17166406    -0.40521785   
   1946500   0.061257896   -0.22892367     0             -0.17840606     0.057918172  
   1947000   0.059827441   -0.22876        0             -0.17942204    -0.042725812  
   1947500   0.072513044   -0.22727625     0             -0.16747684     0.50046431   
   1948000   0.076092556   -0.21994547     0             -0.15719414    -0.053232589  
   1948500   0.06305006    -0.22312823     0             -0.17113267     0.31277658   
   1949000   0.063073651   -0.22623523     0             -0.17422022    -0.11953268   
   1949500   0.062241876   -0.22230325     0             -0.17097417     0.18121971   
   1950000   0.066991972   -0.22419223     0             -0.16894589     0.50551766   
   1950500   0.079163869   -0.21953144     0             -0.15424729    -0.33480984   
   1951000   0.066766493   -0.22030502     0             -0.16524462    -0.094342247  
   1951500   0.06519089    -0.219683       0             -0.16592196    -0.05030755   
   1952000   0.064073052   -0.21763622     0             -0.16479703     0.4451673    
   1952500   0.063343614   -0.21721269     0             -0.16497504     1.2992436    
   1953000   0.068474638   -0.21877849     0             -0.16230944     0.6485765    
   1953500   0.066108478   -0.22305533     0             -0.16853758    -0.19856356   
   1954000   0.060529709   -0.22084561     0             -0.17092851    -0.37874941   
   1954500   0.059705662   -0.2257229      0             -0.17648536     0.17873495   
   1955000   0.061390968   -0.22075632     0             -0.17012896     0.33148706   
   1955500   0.069291383   -0.21548643     0             -0.15834383     0.34586704   
   1956000   0.068665598   -0.21699101     0             -0.16036448    -0.013971026  
   1956500   0.069288636   -0.22040545     0             -0.16326512    -0.75159366   
   1957000   0.067723109   -0.22038511     0             -0.16453583     0.19292154   
   1957500   0.063209638   -0.21649385     0             -0.16436669    -0.41813162   
   1958000   0.064820201   -0.22421537     0             -0.17076002     0.21950001   
   1958500   0.061213315   -0.23051239     0             -0.18003155     0.12197243   
   1959000   0.072134912   -0.22170418     0             -0.16221661     0.30319203   
   1959500   0.065718322   -0.22625304     0             -0.17205704     0.31516322   
   1960000   0.062715281   -0.22551082     0             -0.17379134    -0.052662625  
   1960500   0.063240597   -0.23125525     0             -0.17910256    -0.80220875   
   1961000   0.069916922   -0.22893006     0             -0.1712716      0.072708196  
   1961500   0.070445507   -0.22354242     0             -0.16544804    -0.60954026   
   1962000   0.067287419   -0.23231256     0             -0.17682257    -0.22700956   
   1962500   0.078888746   -0.22647029     0             -0.16141303     0.59629247   
   1963000   0.067222184   -0.22320937     0             -0.16777318    -0.27111392   
   1963500   0.06471076    -0.23188111     0             -0.17851602     0.57870538   
   1964000   0.076120053   -0.22537145     0             -0.16259745    -0.35579303   
   1964500   0.06845328    -0.22265768     0             -0.16620624    -0.17110276   
   1965000   0.068098054   -0.22547158     0             -0.16931309     0.1705894    
   1965500   0.064644193   -0.21948853     0             -0.16617833     0.28438892   
   1966000   0.063815568   -0.22084428     0             -0.16821743    -0.20023331   
   1966500   0.075003483   -0.22261149     0             -0.16075829     0.1090169    
   1967000   0.072715928   -0.21583072     0             -0.155864       1.0284302    
   1967500   0.065498747   -0.22343886     0             -0.16942394     0.0048107613 
   1968000   0.064693586   -0.22101589     0             -0.16766496    -0.83578089   
   1968500   0.0761729     -0.22125158     0             -0.15843399    -0.089753533  
   1969000   0.073734012   -0.2193881      0             -0.15858179    -0.5223679    
   1969500   0.072612182   -0.22158114     0             -0.16169997     0.043558234  
   1970000   0.071341929   -0.22143987     0             -0.16260625     0.011608929  
   1970500   0.06159569    -0.22562124     0             -0.17482505    -0.30179192   
   1971000   0.065073141   -0.2268468      0             -0.17318287     0.014940302  
   1971500   0.067896893   -0.22334883     0             -0.16735623    -0.5189842    
   1972000   0.063225917   -0.22582333     0             -0.17368275    -0.61500361   
   1972500   0.073990211   -0.22434066     0             -0.16332308    -0.36703569   
   1973000   0.068844791   -0.2234247      0             -0.1666504     -0.46065736   
   1973500   0.062035349   -0.22736238     0             -0.17620363     0.77591353   
   1974000   0.060157826   -0.22798411     0             -0.1783737     -0.14797477   
   1974500   0.068803569   -0.22707215     0             -0.17033184     0.013539576  
   1975000   0.064123766   -0.22682162     0             -0.17394061     0.59530415   
   1975500   0.057920708   -0.225836       0             -0.17807046     0.60248925   
   1976000   0.062193508   -0.22954112     0             -0.17825193     1.0870031    
   1976500   0.061674168   -0.22684817     0             -0.17598727     0.012805422  
   1977000   0.062882878   -0.22958378     0             -0.17772609    -0.84719257   
   1977500   0.072015096   -0.22477561     0             -0.16538685     0.28108316   
   1978000   0.064579539   -0.22326141     0             -0.17000454     0.12283523   
   1978500   0.070210929   -0.2262807      0             -0.16837978    -0.15190774   
   1979000   0.070262388   -0.22357523     0             -0.16563187    -0.48129695   
   1979500   0.07989921    -0.21831797     0             -0.1524274      0.26300684   
   1980000   0.067663656   -0.22193955     0             -0.16613929     0.55195558   
   1980500   0.071896982   -0.22383436     0             -0.164543       0.18398584   
   1981000   0.074745323   -0.22198727     0             -0.16034696    -0.0063439163 
   1981500   0.07440001    -0.22169128     0             -0.16033575     0.44462865   
   1982000   0.06469133    -0.22484055     0             -0.17149148     0.037746813  
   1982500   0.067438935   -0.22536577     0             -0.16975084    -0.46411405   
   1983000   0.073465515   -0.21928431     0             -0.15869943    -0.39455436   
   1983500   0.071826096   -0.21697893     0             -0.15774603    -0.17889701   
   1984000   0.080644156   -0.22283492     0             -0.15633002    -0.60209511   
   1984500   0.0816026     -0.21922305     0             -0.15192775    -0.5689047    
   1985000   0.07096325    -0.21308743     0             -0.15456609     0.37308239   
   1985500   0.071331796   -0.22073556     0             -0.16191029    -0.042560127  
   1986000   0.071932936   -0.22170345     0             -0.16238244    -0.095805267  
   1986500   0.074613935   -0.21900913     0             -0.15747718     0.24024524   
   1987000   0.072339408   -0.22239873     0             -0.16274251    -0.099497149  
   1987500   0.07448557    -0.21927692     0             -0.15785082    -0.51833321   
   1988000   0.076146126   -0.21445265     0             -0.15165714    -0.28015785   
   1988500   0.075553956   -0.21318146     0             -0.1508743     -0.011211653  
   1989000   0.072103242   -0.21919774     0             -0.15973628     0.061088719  
   1989500   0.068333199   -0.21739512     0             -0.16104271    -0.31704066   
   1990000   0.072674387   -0.22370204     0             -0.16376957     0.11197652   
   1990500   0.076578279   -0.21623478     0             -0.15308289     0.21815486   
   1991000   0.072939058   -0.21399045     0             -0.15383972    -0.03763835   
   1991500   0.073629121   -0.21325587     0             -0.15253606    -0.24865715   
   1992000   0.073382246   -0.21419568     0             -0.15367947     0.27282132   
   1992500   0.067859349   -0.2120216      0             -0.15605996    -0.10764679   
   1993000   0.067155358   -0.21533231     0             -0.15995123     0.2563446    
   1993500   0.071755218   -0.21887153     0             -0.15969708     0.41325954   
   1994000   0.068664719   -0.21698577     0             -0.16035996    -0.0083158833 
   1994500   0.066938306   -0.21456105     0             -0.15935897     0.078320249  
   1995000   0.066757573   -0.21365157     0             -0.15859853    -0.42871426   
   1995500   0.06425624    -0.22001003     0             -0.16701977    -0.78642119   
   1996000   0.0678548     -0.22116508     0             -0.16520719     0.66891937   
   1996500   0.067496394   -0.21552678     0             -0.15986446     0.26759915   
   1997000   0.06586347    -0.21713361     0             -0.16281791     0.63852252   
   1997500   0.064573635   -0.21970976     0             -0.16645775    -0.38468579   
   1998000   0.062691043   -0.22005865     0             -0.16835916    -0.033937613  
   1998500   0.066311634   -0.21873822     0             -0.16405293     0.0065651151 
   1999000   0.060461949   -0.2188103      0             -0.16894908    -0.020875707  
   1999500   0.064940272   -0.21937197     0             -0.1658176      0.079851772  
   2000000   0.06284607    -0.21888869     0             -0.16706136     0.046264462  
   2000001   0.062757044   -0.21887072     0             -0.16711681    -0.023666822  
Loop time of 461.132 on 4 procs for 1000000 steps with 1520 atoms

Performance: 187365.012 tau/day, 2168.577 timesteps/s, 3.296 Matom-step/s
90.7% CPU use with 4 MPI tasks x 1 OpenMP threads

MPI task timing breakdown:
Section |  min time  |  avg time  |  max time  |%varavg| %total
---------------------------------------------------------------
Pair    | 70.342     | 71.168     | 72.263     |   8.5 | 15.43
Bond    | 0.20776    | 0.21088    | 0.21592    |   0.7 |  0.05
Neigh   | 7.4083     | 7.413      | 7.4191     |   0.2 |  1.61
Comm    | 56.789     | 57.632     | 58.29      |   7.3 | 12.50
Output  | 1.8159     | 1.8653     | 1.91       |   2.6 |  0.40
Modify  | 309.69     | 310.17     | 310.65     |   2.0 | 67.26
Other   |            | 12.67      |            |       |  2.75

Nlocal:            380 ave         407 max         346 min
Histogram: 1 0 0 0 0 0 2 0 0 1
Nghost:         940.75 ave         954 max         930 min
Histogram: 2 0 0 0 0 0 0 1 0 1
Neighs:              0 ave           0 max           0 min
Histogram: 4 0 0 0 0 0 0 0 0 0

Total # of neighbors = 0
Ave neighs/atom = 0
Ave special neighs/atom = 2.0657895
Neighbor list builds = 3500
Dangerous builds = 0

# Write data for deformation

write_data data.hydrogel
System init for write_data ...
WARNING: Using a manybody potential with bonds/angles/dihedrals and special_bond exclusions (src/pair.cpp:243)
Hybrid pair style last /omp style sw/omp
Last active /omp style is pair_style sw/omp
WARNING: More than one fix rigid command (src/RIGID/fix_rigid_small.cpp:529)
WARNING: More than one fix rigid command (src/RIGID/fix_rigid_small.cpp:529)
WARNING: One or more atoms are time integrated more than once (src/modify.cpp:296)
Total wall time: 0:14:31
